%PAL NPROCS 16 END
%maxcore 4000
# arbr_22_r2scan3c.out
! wB97m-v def2-TZVPP def2/J RIJCOSX Hirshfeld
* xyz 1 2
  Br       -1.75100         0.00000         0.00001
   C        0.14503         0.00001        -0.00008
   N        0.72314        -1.18560        -0.00003
   C        2.05341        -1.17569         0.00001
   C        2.78471        -0.00000         0.00003
   C        2.05343         1.17568         0.00002
   N        0.72315         1.18560        -0.00003
   H        2.53846        -2.14541         0.00003
   H        3.86459        -0.00001         0.00006
   H        2.53848         2.14540         0.00003
*
