%PAL NPROCS 16 END
%maxcore 4000
# arbr_28_r2scan3c.out
! wB97m-v def2-TZVPP def2/J RIJCOSX Hirshfeld
* xyz -1 2
  Br       -2.40340        -0.42169         0.00000
   C       -0.72064         0.41648         0.00000
   C       -0.55180         1.75324        -0.00001
   S        1.11350         2.20682         0.00000
   C        1.61185         0.54746        -0.00000
   C        2.91841         0.06042        -0.00000
   C        3.10759        -1.30561        -0.00000
   C        2.01513        -2.18484         0.00000
   C        0.72345        -1.70632         0.00000
   C        0.51008        -0.32414         0.00000
   H       -1.32337         2.50566        -0.00001
   H        3.76072         0.73975        -0.00001
   H        4.11342        -1.70421         0.00000
   H        2.19196        -3.25211         0.00000
   H       -0.12436        -2.37934         0.00000
*
