%PAL NPROCS 16 END
%maxcore 4000
# arbr_03_r2scan3c.out
! wB97m-v def2-TZVPP def2/J RIJCOSX Hirshfeld 
* xyz -1 2
  Br       -2.89657        -0.24500        -0.00000
   C       -1.04428         0.15537         0.00000
   C       -0.65059         1.51035        -0.00000
   C        0.67888         1.81816         0.00000
   C        1.66649         0.80354         0.00000
   C        3.05048         1.09947        -0.00000
   C        3.97798         0.09694        -0.00000
   C        3.56550        -1.25418        -0.00000
   C        2.23711        -1.57117         0.00000
   C        1.25275        -0.55302         0.00000
   C       -0.13087        -0.85572         0.00000
   H       -1.40352         2.28577        -0.00000
   H        0.99363         2.85484         0.00000
   H        3.36047         2.13761        -0.00000
   H        5.03374         0.33396        -0.00001
   H        4.30933        -2.04016        -0.00001
   H        1.91674        -2.60600         0.00000
   H       -0.45113        -1.88940         0.00000
*
