%PAL NPROCS 16 END
%maxcore 4000
# arbr_21_r2scan3c.out
! wB97m-v def2-TZVPP def2/J RIJCOSX Hirshfeld
* xyz -1 2
   C       -5.09987         0.34252         0.04261
   C       -3.72389        -0.28268        -0.01157
   O       -3.56499        -1.48134        -0.01454
   N       -2.69416         0.62444        -0.02566
   C       -1.31105         0.38252        -0.01701
   C       -0.75251        -0.89491        -0.01210
   C        0.62755        -1.04011        -0.00435
   C        1.44928         0.07304        -0.00147
  Br        3.33120        -0.14308         0.00831
   C        0.90584         1.34783        -0.00641
   C       -0.46872         1.49532        -0.01422
   H       -5.41131         0.40502         1.08641
   H       -5.13302         1.34074        -0.39178
   H       -5.79340        -0.31043        -0.48017
   H       -2.95854         1.59570        -0.02345
   H       -1.39101        -1.76238        -0.01553
   H        1.06039        -2.03086        -0.00086
   H        1.54920         2.21648        -0.00419
   H       -0.89505         2.49198        -0.01804
*
