%PAL NPROCS 16 END
%maxcore 4000
# arbr_18_r2scan3c.out
! wB97m-v def2-TZVPP def2/J RIJCOSX Hirshfeld
* xyz -1 2
   C       -4.15021        -0.69730         0.00001
   O       -3.34515         0.46379        -0.00001
   C       -2.00558         0.29427        -0.00000
   C       -1.22357         1.44959        -0.00000
   C        0.14760         1.33402         0.00000
   C        0.68642         0.04840        -0.00000
  Br        2.58067        -0.14730         0.00000
   N       -0.02765        -1.04363        -0.00000
   C       -1.35854        -0.93628        -0.00000
   H       -5.17977        -0.35157         0.00001
   H       -3.96776        -1.30189         0.89212
   H       -3.96778        -1.30190        -0.89211
   H       -1.71194         2.41529         0.00000
   H        0.78963         2.20252         0.00000
   H       -1.90782        -1.86821        -0.00001
*
