%PAL NPROCS 16 END
%maxcore 4000
# arbr_14_r2scan3c.out
! wB97m-v def2-TZVPP def2/J RIJCOSX Hirshfeld
* xyz 1 2
  Br        1.77666        -0.00639         0.00000
   C       -0.12749        -0.01338        -0.00003
   C       -0.79353         1.20717        -0.00001
   C       -2.17626         1.17083         0.00000
   C       -2.82223        -0.05811         0.00001
   C       -2.04683        -1.20524         0.00000
   N       -0.71336        -1.18552        -0.00001
   H       -0.24318         2.13620        -0.00000
   H       -2.74214         2.09356         0.00001
   H       -3.90087        -0.12767         0.00002
   H       -2.50524        -2.18727         0.00001
*
