%PAL NPROCS 16 END
%maxcore 4000
# arbr_05_r2scan3c.out
! wB97m-v def2-TZVPP def2/J RIJCOSX Hirshfeld
* xyz 1 2
  Br        2.16334        -0.28388        -0.00000
   C        0.44105         0.50218         0.00000
   C        0.26609         1.86645         0.00000
   C       -1.03048         2.40798        -0.00000
   C       -2.14900         1.60213        -0.00000
   C       -1.98516         0.21183         0.00000
   C       -2.87927        -0.90873        -0.00000
   C       -2.10985        -2.03181         0.00000
   N       -0.78020        -1.68541        -0.00000
   C       -0.67817        -0.32325         0.00000
   H        1.12971         2.51666         0.00000
   H       -1.14106         3.48411        -0.00000
   H       -3.13999         2.03695        -0.00000
   H       -3.95558        -0.87912        -0.00001
   H       -2.40187        -3.06866         0.00000
   H        0.00189        -2.31702         0.00002
*
