%PAL NPROCS 16 END
%maxcore 4000
# arbr_08_r2scan3c.out
! wB97m-v def2-TZVPP def2/J RIJCOSX Hirshfeld
* xyz 1 2
   N        4.75683         0.00030         0.00012
   C        3.60942        -0.00018        -0.00007
   C        2.17383        -0.00012        -0.00004
   C        1.47956         1.20806        -0.00003
   C        0.09557         1.20978        -0.00002
   C       -0.58367        -0.00002        -0.00001
  Br       -2.47264         0.00005         0.00002
   C        0.09549        -1.20987        -0.00002
   C        1.47948        -1.20825        -0.00003
   H        2.02634         2.14108        -0.00004
   H       -0.45288         2.14105        -0.00001
   H       -0.45303        -2.14110        -0.00001
   H        2.02618        -2.14132        -0.00004
*
