%PAL NPROCS 16 END
%maxcore 4000
# arbr_25_r2scan3c.out
! wB97m-v def2-TZVPP def2/J RIJCOSX Hirshfeld
* xyz -1 2
   C        4.13046        -1.21366         1.26421
   C        4.15994        -0.36640         0.00008
   C        5.37245         0.55124         0.00026
   C        4.13088        -1.21371        -1.26403
   O        3.04484         0.57506        -0.00013
   C        1.78171         0.13486        -0.00032
   O        1.42897        -1.01723        -0.00018
   N        0.94353         1.22026        -0.00019
   C       -0.44767         1.23457        -0.00009
   C       -1.22990         0.07583        -0.00009
   C       -2.59771         0.25673         0.00001
  Br       -3.72753        -1.25802         0.00003
   C       -3.15735         1.52490         0.00011
   C       -2.27624         2.59264         0.00009
   N       -0.95556         2.46342        -0.00000
   H        5.04955        -1.79844         1.32047
   H        3.28172        -1.89278         1.26730
   H        4.08007        -0.57131         2.14455
   H        6.28538        -0.04412         0.00042
   H        5.36850         1.18656        -0.88558
   H        5.36821         1.18659         0.88609
   H        5.05000        -1.79849        -1.31996
   H        3.28215        -1.89283        -1.26738
   H        4.08078        -0.57139        -2.14441
   H        1.36971         2.13474        -0.00017
   H       -0.77780        -0.90151        -0.00016
   H       -4.22622         1.67456         0.00018
   H       -2.65418         3.60884         0.00016
*
