%PAL NPROCS 16 END
%maxcore 4000
# arbr_04_r2scan3c.out
! wB97m-v def2-TZVPP def2/J RIJCOSX Hirshfeld
* xyz -1 2
   C        4.46238        -1.02125        -0.00009
   N        3.08700        -0.60025         0.00002
   C        1.98340        -1.53653         0.00003
   C        0.78340        -0.62772         0.00005
   C       -0.56530        -0.93404         0.00004
   C       -1.45609         0.13142         0.00001
  Br       -3.31452        -0.23619        -0.00001
   C       -1.03470         1.45847        -0.00002
   C        0.32245         1.74555        -0.00001
   C        1.21314         0.68811         0.00003
   C        2.70179         0.71357         0.00010
   O        3.43354         1.67745        -0.00002
   H        4.68923        -1.61602        -0.88806
   H        4.68932        -1.61612         0.88780
   H        5.08248        -0.12710        -0.00007
   H        2.00983        -2.18050        -0.88521
   H        2.00986        -2.18052         0.88525
   H       -0.92771        -1.95320         0.00004
   H       -1.76925         2.25127        -0.00004
   H        0.68431         2.76563        -0.00002
*
