%PAL NPROCS 16 END
%maxcore 4000
# arbr_01_r2scan3c.out
! wB97m-v def2-TZVPP def2/J RIJCOSX Hirshfeld
* xyz 1 2
   O        3.91401         1.23771        -0.00035
   C        3.09094         0.37758         0.00059
   O        3.40254        -0.94931        -0.00018
   C        2.23319        -1.76506        -0.00009
   C        1.08759        -0.79443         0.00014
   C       -0.28122        -1.00071         0.00012
   C       -1.08537         0.13013         0.00006
  Br       -2.96426        -0.08998        -0.00004
   C       -0.56300         1.42402        -0.00002
   C        0.80950         1.60806         0.00002
   C        1.61347         0.48061         0.00019
   H        2.24756        -2.39859         0.88820
   H        2.24729        -2.39838        -0.88855
   H       -0.72037        -1.98896         0.00006
   H       -1.23613         2.26947        -0.00007
   H        1.24770         2.59760         0.00005
*
