%PAL NPROCS 16 END
%maxcore 4000
# arbr_26_r2scan3c.out
! wB97m-v def2-TZVPP def2/J RIJCOSX Hirshfeld
* xyz 1 2
   C       -4.71593         0.24461        -1.26413
   C       -4.30953        -0.49933         0.00003
   C       -4.88579        -1.90649         0.00048
   C       -4.71559         0.24530         1.26388
   O       -2.87029        -0.74141        -0.00006
   C       -2.00738         0.28022        -0.00017
   O       -2.28925         1.45164        -0.00003
   N       -0.73297        -0.22788        -0.00011
   C        0.46722         0.47352        -0.00005
   C        0.56667         1.86479        -0.00001
   C        1.83974         2.40681         0.00004
   C        2.95950         1.58902         0.00005
   C        2.72172         0.22444         0.00000
  Br        4.20668        -0.96562         0.00001
   N        1.53331        -0.32770        -0.00005
   H       -4.33072         1.26109        -1.26753
   H       -4.34637        -0.28304        -2.14456
   H       -5.80473         0.28031        -1.31956
   H       -4.55893        -2.45144        -0.88526
   H       -4.55872        -2.45096         0.88643
   H       -5.97469        -1.85905         0.00060
   H       -4.33029         1.26176         1.26664
   H       -4.34588        -0.28191         2.14450
   H       -5.80438         0.28113         1.31953
   H       -0.63530        -1.23208        -0.00013
   H       -0.31879         2.47735        -0.00002
   H        1.96061         3.48257         0.00008
   H        3.96470         1.98074         0.00009
*
