%PAL NPROCS 16 END
%maxcore 4000
# arbr_23_r2scan3c.out
! wB97m-v def2-TZVPP def2/J RIJCOSX Hirshfeld
* xyz -1 2
   C        4.80170        -1.17987         1.26413
   C        4.64794        -0.34572         0.00004
   C        4.80204        -1.17948        -1.26427
   C        5.63485         0.81110         0.00034
   O        3.35731         0.33378        -0.00001
   C        2.21797        -0.36439        -0.00012
   O        2.12251        -1.56567        -0.00005
   N        1.17012         0.52663        -0.00009
   C       -0.18200         0.23541        -0.00006
   C       -0.68859        -1.06954        -0.00007
   C       -2.05338        -1.29074        -0.00005
   C       -2.94828        -0.22848        -0.00000
  Br       -4.81123        -0.55755         0.00003
   C       -2.47176         1.06252         0.00001
   C       -1.09874         1.31012        -0.00002
   C       -0.69454         2.72296        -0.00000
   O        0.44028         3.14244        -0.00002
   H        4.11949        -2.02619         1.26725
   H        4.61404        -0.56332         2.14437
   H        5.82534        -1.55257         1.32032
   H        5.82571        -1.55212        -1.32032
   H        4.11987        -2.02583        -1.26782
   H        4.61458        -0.56268        -2.14437
   H        6.65437         0.42566         0.00042
   H        5.49339         1.43080         0.88585
   H        5.49362         1.43107        -0.88502
   H        1.41159         1.51168        -0.00008
   H       -0.00732        -1.90373        -0.00011
   H       -2.42688        -2.30589        -0.00006
   H       -3.15826         1.90030         0.00004
   H       -1.54126         3.43296         0.00003
*
