%PAL NPROCS 16 END
%maxcore 4000
# arbr_20_r2scan3c.out
! wB97m-v def2-TZVPP def2/J RIJCOSX Hirshfeld
* xyz 1 2
  Br        1.76825        -0.00000        -0.00000
   C       -0.11355         0.00000         0.00001
   C       -0.83134         1.18506         0.00002
   N       -2.15797         1.18628         0.00001
   C       -2.75470        -0.00000        -0.00005
   N       -2.15797        -1.18628         0.00001
   C       -0.83134        -1.18506         0.00001
   H       -0.32651         2.14471         0.00001
   H       -3.83867        -0.00000         0.00006
   H       -0.32651        -2.14471         0.00001
*
