%PAL NPROCS 16 END
%maxcore 4000
# arbr_27_r2scan3c.out
! wB97m-v def2-TZVPP def2/J RIJCOSX Hirshfeld
* xyz 1 2
   C        4.79592        -0.82016         1.26416
   C        4.61674         0.00866         0.00000
   C        4.79589        -0.82023        -1.26412
   C        5.56860         1.19453        -0.00004
   O        3.30571         0.64881        -0.00001
   C        2.18811        -0.08688        -0.00001
   O        2.12867        -1.29080        -0.00001
   N        1.11021         0.75940         0.00001
   C       -0.24219         0.42793         0.00001
   C       -0.72389        -0.88389         0.00001
   C       -2.09336        -1.06376         0.00001
   C       -2.92311         0.04634         0.00000
  Br       -4.80187        -0.14254        -0.00000
   C       -2.35182         1.30717        -0.00000
   N       -1.03909         1.49165         0.00000
   H        5.83006        -1.16272         1.31998
   H        4.59054        -0.20947         2.14456
   H        4.13861        -1.68589         1.26752
   H        4.13858        -1.68595        -1.26742
   H        4.59051        -0.20959        -2.14454
   H        5.83003        -1.16281        -1.31993
   H        5.40957         1.80967         0.88579
   H        6.59925         0.84001        -0.00004
   H        5.40955         1.80962        -0.88590
   H        1.29948         1.75030         0.00001
   H       -0.04311        -1.71878         0.00002
   H       -2.51333        -2.06057         0.00001
   H       -2.97259         2.19530        -0.00001
*
