%PAL NPROCS 16 END
%maxcore 4000
# arbr_12_r2scan3c.out
! wB97m-v def2-TZVPP def2/J RIJCOSX Hirshfeld
* xyz 1 2
  Br       -1.78155         0.00474        -0.00000
   C        0.10751         0.01649         0.00000
   C        0.80471         1.21144        -0.00000
   C        2.18873         1.15091         0.00000
   C        2.80285        -0.09374        -0.00001
   N        2.12869        -1.23916         0.00000
   C        0.80304        -1.18546         0.00001
   H        0.27927         2.15678         0.00000
   H        2.78169         2.05530         0.00001
   H        3.88387        -0.17403         0.00001
   H        0.26746        -2.12776         0.00000
*
