%PAL NPROCS 16 END
%maxcore 4000
# arbr_13_r2scan3c.out
! NMR B3LYP def2-tzvp 
* xyz 0 1
  Br       -2.63062        -0.17683        -0.00000
   C       -0.75653         0.09444        -0.00000
   C       -0.27133         1.41029         0.00001
   N        1.01855         1.70319         0.00000
   C        1.83460         0.66018         0.00000
   N        3.20067         0.71826         0.00000
   C        3.70023        -0.56161        -0.00003
   C        2.67888        -1.46360         0.00002
   C        1.46529        -0.70490         0.00000
   C        0.10017        -0.98610        -0.00000
   H       -0.96767         2.23991         0.00000
   H        3.73129         1.57184         0.00002
   H        4.76407        -0.73086        -0.00005
   H        2.78143        -2.53515         0.00004
   H       -0.27966        -1.99894         0.00000
*
