%PAL NPROCS 16 END
%maxcore 4000
# arbr_09_r2scan3c.out
! NMR B3LYP def2-tzvp 
* xyz 0 1
   C       -5.56793         0.93866         0.00016
   C       -4.60322        -0.23609        -0.00005
   C       -4.76742        -1.06646         1.26436
   C       -4.76748        -1.06603        -1.26475
   O       -3.29636         0.42301         0.00005
   C       -2.17886        -0.29568         0.00010
   O       -2.09327        -1.49365         0.00008
   N       -1.06813         0.54267         0.00008
   C       -1.08696         1.93744         0.00005
   C        0.17617         2.41195         0.00002
   C        1.06217         1.27612         0.00002
   C        2.45227         1.16049        -0.00001
   C        2.99023        -0.10824        -0.00000
  Br        4.87754        -0.31262        -0.00004
   C        2.19317        -1.25608         0.00003
   C        0.81366        -1.15706         0.00006
   C        0.26231         0.11965         0.00005
   H       -5.41745         1.55528        -0.88620
   H       -6.59404         0.57149         0.00012
   H       -5.41741         1.55498         0.88673
   H       -4.09983        -1.92430         1.26660
   H       -5.79691        -1.42226         1.32122
   H       -4.56907        -0.45350         2.14468
   H       -5.79701        -1.42174        -1.32171
   H       -4.09995        -1.92390        -1.26730
   H       -4.56912        -0.45278        -2.14486
   H       -2.03023         2.45319         0.00006
   H        0.45985         3.45094        -0.00001
   H        3.08845         2.03465        -0.00004
   H        2.66373        -2.22894         0.00004
   H        0.19049        -2.03688         0.00009
*
