%PAL NPROCS 16 END
%maxcore 4000
# arbr_19_r2scan3c.out
! NMR B3LYP def2-tzvp 
* xyz 0 1
   F        3.09266         1.07252         0.93724
   C        3.25526         0.00002         0.16141
   F        3.09261        -1.07223         0.93757
   F        4.49018        -0.00009        -0.30262
   O        2.41407        -0.00013        -0.89292
   C        1.04967        -0.00008        -0.59730
   C        0.38568        -1.20781        -0.48503
   C       -0.98038        -1.20849        -0.24772
   C       -1.64984        -0.00002        -0.13043
  Br       -3.51483         0.00003         0.19055
   C       -0.98034         1.20843        -0.24778
   C        0.38572         1.20768        -0.48510
   H        0.93663        -2.13288        -0.58507
   H       -1.52037        -2.14019        -0.15678
   H       -1.52029         2.14016        -0.15689
   H        0.93671         2.13273        -0.58518
*
