%PAL NPROCS 16 END
%maxcore 4000
# arbr_11_r2scan3c.out
! NMR B3LYP def2-tzvp 
* xyz 0 1
   C        5.91290        -1.98854        -0.00002
   C        5.41014        -0.56644         0.00001
   O        3.97513        -0.61696         0.00001
   C        3.35720         0.56217         0.00003
   O        3.92016         1.62859         0.00002
   C        1.89453         0.43421         0.00000
   C        1.07323        -0.65834        -0.00002
   C       -0.26283        -0.15814        -0.00001
   C       -1.52489        -0.77109         0.00000
   C       -2.63261         0.03857         0.00000
  Br       -4.36033        -0.74801         0.00001
   C       -2.54183         1.44258        -0.00001
   C       -1.31449         2.06348        -0.00001
   C       -0.17631         1.25388        -0.00001
   N        1.14721         1.58431        -0.00002
   H        5.56448        -2.52018         0.88481
   H        7.00268        -1.99283        -0.00002
   H        5.56447        -2.52015        -0.88485
   H        5.73818        -0.01372         0.88118
   H        5.73818        -0.01370        -0.88116
   H        1.39652        -1.68519        -0.00002
   H       -1.62406        -1.84771         0.00000
   H       -3.44914         2.02978        -0.00001
   H       -1.24010         3.14285        -0.00002
   H        1.55745         2.50391        -0.00002
*
