%PAL NPROCS 16 END
%maxcore 4000
# arbr_06_r2scan3c.out
! NMR B3LYP def2-tzvp 
* xyz 0 1
   O       -4.32090        -0.63610         0.00003
   C       -3.57899         0.30852        -0.00002
   C       -2.10139         0.20742        -0.00001
   C       -1.48285        -1.04063        -0.00001
   C       -0.10379        -1.13196        -0.00001
   C        0.64993         0.03698         0.00000
  Br        2.53689        -0.08398         0.00000
   C        0.05243         1.28786         0.00000
   C       -1.33197         1.36418        -0.00001
   H       -3.97599         1.34230         0.00000
   H       -2.10120        -1.92928        -0.00002
   H        0.39047        -2.09329        -0.00001
   H        0.66101         2.18094         0.00001
   H       -1.81841         2.33313        -0.00000
*
