 Entering Gaussian System, Link 0=g16
 AtFile(1): /home/aplatt/nrel_redox/def2-svpd.gbs
            -H     0
            S    3   1.00
                 13.0107010              0.19682158D-01
                  1.9622572              0.13796524
                  0.44453796             0.47831935
            S    1   1.00
                  0.12194962             1.0000000
            P    1   1.00
                  0.8000000              1.0000000
            P    1   1.00
                  0.11704099050          1.0000000
            ****
            -C     0
            S    5   1.00
               1238.4016938              0.54568832082D-02
                186.29004992             0.40638409211D-01
                 42.251176346            0.18025593888
                 11.676557932            0.46315121755
                  3.5930506482           0.44087173314
            S    1   1.00
                  0.40245147363          1.0000000
            S    1   1.00
                  0.13090182668          1.0000000
            S    1   1.00
                  0.67053540256D-01      1.0000000
            P    3   1.00
                  9.4680970621           0.38387871728D-01
                  2.0103545142           0.21117025112
                  0.54771004707          0.51328172114
            P    1   1.00
                  0.15268613795          1.0000000
            D    1   1.00
                  0.8000000              1.0000000
            D    1   1.00
                  0.11713185140          1.0000000
            ****
            -N     0
            S    5   1.00
               1712.8415853             -0.53934125305D-02
                257.64812677            -0.40221581118D-01
                 58.458245853           -0.17931144990
                 16.198367905           -0.46376317823
                  5.0052600809          -0.44171422662
            S    1   1.00
                  0.58731856571          1.0000000
            S    1   1.00
                  0.18764592253          1.0000000
            S    1   1.00
                  0.96171241529D-01      1.0000000
            P    3   1.00
                 13.571470233           -0.40072398852D-01
                  2.9257372874          -0.21807045028
                  0.79927750754         -0.51294466049
            P    1   1.00
                  0.21954348034          1.0000000
            D    1   1.00
                  1.0000000              1.0000000
            D    1   1.00
                  0.16697708112          1.0000000
            ****
            -O     0
            S    5   1.00
               2266.1767785             -0.53431809926D-02
                340.87010191            -0.39890039230D-01
                 77.363135167           -0.17853911985
                 21.479644940           -0.46427684959
                  6.6589433124          -0.44309745172
            S    1   1.00
                  0.80975975668          1.0000000
            S    1   1.00
                  0.25530772234          1.0000000
            S    1   1.00
                  0.76572453250D-01      1.0000000
            P    3   1.00
                 17.721504317            0.43394573193D-01
                  3.8635505440           0.23094120765
                  1.0480920883           0.51375311064
            P    1   1.00
                  0.27641544411          1.0000000
            P    1   1.00
                  0.69002276350D-01      1.0000000
            D    1   1.00
                  1.2000000              1.0000000
            D    1   1.00
                  0.17992024323          1.0000000
            ****
            -F     0
            S    5   1.00
               2894.8325990             -0.53408255515D-02
                435.41939120            -0.39904258866D-01
                 98.843328866           -0.17912768038
                 27.485198001           -0.46758090825
                  8.5405498171          -0.44653131020
            S    1   1.00
                  1.0654578038           1.0000000
            S    1   1.00
                  0.33247346748          1.0000000
            S    1   1.00
                  0.98097752264D-01      1.0000000
            P    3   1.00
                 22.696633924           -0.45212874436D-01
                  4.9872339257          -0.23754317067
                  1.3491613954          -0.51287353587
            P    1   1.00
                  0.34829881977          1.0000000
            P    1   1.00
                  0.83372148304D-01      1.0000000
            D    1   1.00
                  1.4000000              1.0000000
            D    1   1.00
                  0.22301361948          1.0000000
            ****
            -Si     0
            S    5   1.00
               6903.7118686              0.13373962995D-02
               1038.4346419              0.99966546241D-02
                235.87581480             0.44910165101D-01
                 66.069385169            0.11463638540
                 20.247945761            0.10280063858
            S    3   1.00
                 34.353481730            0.70837285010D-01
                  3.6370788192          -0.43028836252
                  1.4002048599          -0.41382774969
            S    1   1.00
                  0.20484414805          1.0000000
            S    1   1.00
                  0.77994095468D-01      1.0000000
            S    1   1.00
                  0.46834778282D-01      1.0000000
            P    5   1.00
                179.83907373             0.61916656462D-02
                 41.907258846            0.43399431982D-01
                 12.955294367            0.15632019351
                  4.4383267393           0.29419996982
                  1.5462247904           0.23536823814
            P    1   1.00
                  0.35607612302          1.0000000
            P    1   1.00
                  0.10008513762          1.0000000
            D    1   1.00
                  0.3500000              1.0000000
            D    1   1.00
                  0.74117707708D-01      1.0000000
            ****
            -S     0
            S    5   1.00
               9184.9303010             -0.22294387756D-02
               1381.5105503             -0.16683029937D-01
                313.87147580            -0.75262436116D-01
                 88.053870623           -0.19376827038
                 27.039914905           -0.17718020803
            S    3   1.00
                 45.648731303           -0.10736062573
                  4.9664522326           0.65066293018
                  2.0116242047           0.59712155354
            S    1   1.00
                  0.35661077013          1.0000000
            S    1   1.00
                  0.13507221477          1.0000000
            S    1   1.00
                  0.44999823506D-01      1.0000000
            P    5   1.00
                261.98233439            -0.92729929822D-02
                 61.306894736           -0.66547669241D-01
                 19.103729887           -0.24828595903
                  6.6567720378          -0.48703847402
                  2.3959635161          -0.39337850312
            P    1   1.00
                  0.61776161679          1.0000000
            P    1   1.00
                  0.16993376871          1.0000000
            P    1   1.00
                  0.41706793676D-01      1.0000000
            D    1   1.00
                  0.5500000              1.0000000
            D    1   1.00
                  0.10172853717          1.0000000
            ****
            -Cl     0
            S    5   1.00
              10449.8275660              0.19708362484D-02
               1571.7365221              0.14754727977D-01
                357.12065523             0.66679112875D-01
                100.25185935             0.17228924084
                 30.812727554            0.15883786100
            S    3   1.00
                 51.923789434           -0.10009298909
                  5.7045760975           0.60841752753
                  2.3508376809           0.54352153355
            S    1   1.00
                  0.44605124672          1.0000000
            S    1   1.00
                  0.16848856190          1.0000000
            S    1   1.00
                  0.55344229413D-01      1.0000000
            P    5   1.00
                307.66790569            -0.87801484118D-02
                 72.102015515           -0.63563355471D-01
                 22.532680262           -0.24016428276
                  7.8991765444          -0.47798866557
                  2.8767268321          -0.38515850005
            P    1   1.00
                  0.77459363955          1.0000000
            P    1   1.00
                  0.21037699698          1.0000000
            P    1   1.00
                  0.50046271086D-01      1.0000000
            D    1   1.00
                  0.6500000              1.0000000
            D    1   1.00
                  0.12284803390          1.0000000
            ****
            -I     0
            S    2   1.00
                 11.720547572           -0.16160234511D-01
                  1.7625986449           0.35271525193
            S    6   1.00
                445.90489176             0.20037290389D-02
                 23.336842412           -0.14989397324
                 19.583446104            0.36436474913
                  8.5112089186          -0.75538138199
                  2.1996161861           0.82816359356
                  1.0668970454           0.42161048110
            S    1   1.00
                  0.28697476318          1.0000000
            S    1   1.00
                  0.11227609607          1.0000000
            S    1   1.00
                  0.45123635492D-01      1.0000000
            P    1   1.00
                  3.0288656771           1.0000000
            P    4   1.00
                 20.499027254            0.77159335656D-01
                 10.558754576           -0.38370372780
                  1.5015895485           0.83554174719
                  0.64597173095          0.16787259488
            P    1   1.00
                  0.34506591841          1.0000000
            P    1   1.00
                  0.11134513813          1.0000000
            P    1   1.00
                  0.29795507230D-01      1.0000000
            D    5   1.00
                 51.235354920            0.40345130346D-02
                 15.616239482           -0.50768108881D-02
                  4.5266002139           0.29151065356
                  2.0529808766           0.51145783605
                  0.87640281623          0.31232025297
            D    1   1.00
                  0.30900000000          1.0000000
            D    1   1.00
                  0.77987255180D-01      1.0000000
            ****
            
            -I     0
            I-ECP     3     28
            f potential
              4
            2     19.45860900           -21.84204000
            2     19.34926000           -28.46819100
            2      4.82376700            -0.24371300
            2      4.88431500            -0.32080400
            s-f potential
              7
            2     40.01583500            49.99429300
            2     17.42974700           281.02531700
            2      9.00548400            61.57332600
            2     19.45860900            21.84204000
            2     19.34926000            28.46819100
            2      4.82376700             0.24371300
            2      4.88431500             0.32080400
            p-f potential
              8
            2     15.35546600            67.44284100
            2     14.97183300           134.88113700
            2      8.96016400            14.67505100
            2      8.25909600            29.37566600
            2     19.45860900            21.84204000
            2     19.34926000            28.46819100
            2      4.82376700             0.24371300
            2      4.88431500             0.32080400
            d-f potential
              10
            2     15.06890800            35.43952900
            2     14.55532200            53.17605700
            2      6.71864700             9.06719500
            2      6.45639300            13.20693700
            2      1.19177900             0.08933500
            2      1.29115700             0.05238000
            2     19.45860900            21.84204000
            2     19.34926000            28.46819100
            2      4.82376700             0.24371300
            2      4.88431500             0.32080400
            
 Initial command:
 /cm/shared/apps/spack/cpu/opt/spack/linux-centos8-zen/gcc-8.3.1/gaussian-16.C.01-po5bqktfeugvmjyga3v7eigbecnokxng/g16/l1.exe "/scratch/aplatt/job_46371443/Gau-3795826.inp" -scrdir="/scratch/aplatt/job_46371443/"
 Entering Link 1 = /cm/shared/apps/spack/cpu/opt/spack/linux-centos8-zen/gcc-8.3.1/gaussian-16.C.01-po5bqktfeugvmjyga3v7eigbecnokxng/g16/l1.exe PID=   3795827.
  
 Copyright (c) 1988-2019, Gaussian, Inc.  All Rights Reserved.
  
 This is part of the Gaussian(R) 16 program.  It is based on
 the Gaussian(R) 09 system (copyright 2009, Gaussian, Inc.),
 the Gaussian(R) 03 system (copyright 2003, Gaussian, Inc.),
 the Gaussian(R) 98 system (copyright 1998, Gaussian, Inc.),
 the Gaussian(R) 94 system (copyright 1995, Gaussian, Inc.),
 the Gaussian 92(TM) system (copyright 1992, Gaussian, Inc.),
 the Gaussian 90(TM) system (copyright 1990, Gaussian, Inc.),
 the Gaussian 88(TM) system (copyright 1988, Gaussian, Inc.),
 the Gaussian 86(TM) system (copyright 1986, Carnegie Mellon
 University), and the Gaussian 82(TM) system (copyright 1983,
 Carnegie Mellon University). Gaussian is a federally registered
 trademark of Gaussian, Inc.
  
 This software contains proprietary and confidential information,
 including trade secrets, belonging to Gaussian, Inc.
  
 This software is provided under written license and may be
 used, copied, transmitted, or stored only in accord with that
 written license.
  
 The following legend is applicable only to US Government
 contracts under FAR:
  
                    RESTRICTED RIGHTS LEGEND
  
 Use, reproduction and disclosure by the US Government is
 subject to restrictions as set forth in subparagraphs (a)
 and (c) of the Commercial Computer Software - Restricted
 Rights clause in FAR 52.227-19.
  
 Gaussian, Inc.
 340 Quinnipiac St., Bldg. 40, Wallingford CT 06492
  
  
 ---------------------------------------------------------------
 Warning -- This program may not be used in any manner that
 competes with the business of Gaussian, Inc. or will provide
 assistance to any competitor of Gaussian, Inc.  The licensee
 of this program is prohibited from giving any competitor of
 Gaussian, Inc. access to this program.  By using this program,
 the user acknowledges that Gaussian, Inc. is engaged in the
 business of creating and licensing software in the field of
 computational chemistry and represents and warrants to the
 licensee that it is not a competitor of Gaussian, Inc. and that
 it will not use this program in any manner prohibited above.
 ---------------------------------------------------------------
  

 Cite this work as:
 Gaussian 16, Revision C.01,
 M. J. Frisch, G. W. Trucks, H. B. Schlegel, G. E. Scuseria, 
 M. A. Robb, J. R. Cheeseman, G. Scalmani, V. Barone, 
 G. A. Petersson, H. Nakatsuji, X. Li, M. Caricato, A. V. Marenich, 
 J. Bloino, B. G. Janesko, R. Gomperts, B. Mennucci, H. P. Hratchian, 
 J. V. Ortiz, A. F. Izmaylov, J. L. Sonnenberg, D. Williams-Young, 
 F. Ding, F. Lipparini, F. Egidi, J. Goings, B. Peng, A. Petrone, 
 T. Henderson, D. Ranasinghe, V. G. Zakrzewski, J. Gao, N. Rega, 
 G. Zheng, W. Liang, M. Hada, M. Ehara, K. Toyota, R. Fukuda, 
 J. Hasegawa, M. Ishida, T. Nakajima, Y. Honda, O. Kitao, H. Nakai, 
 T. Vreven, K. Throssell, J. A. Montgomery, Jr., J. E. Peralta, 
 F. Ogliaro, M. J. Bearpark, J. J. Heyd, E. N. Brothers, K. N. Kudin, 
 V. N. Staroverov, T. A. Keith, R. Kobayashi, J. Normand, 
 K. Raghavachari, A. P. Rendell, J. C. Burant, S. S. Iyengar, 
 J. Tomasi, M. Cossi, J. M. Millam, M. Klene, C. Adamo, R. Cammi, 
 J. W. Ochterski, R. L. Martin, K. Morokuma, O. Farkas, 
 J. B. Foresman, and D. J. Fox, Gaussian, Inc., Wallingford CT, 2019.
 
 ******************************************
 Gaussian 16:  ES64L-G16RevC.01  3-Jul-2019
                11-Feb-2026 
 ******************************************
 %nprocshared=16
 Will use up to   16 processors via shared memory.
 %mem=64GB
 -----------------------------------------------------------
 # pbe1pbe emp=gd3bj genECP scrf=(smd,solvent=DMSO) opt freq
 -----------------------------------------------------------
 1/18=20,19=15,26=3,38=1/1,3;
 2/9=110,12=2,17=6,18=5,40=1/2;
 3/5=7,11=2,16=1,17=8,25=1,30=1,70=32201,71=1,72=21,74=-13,124=41/1,2,3;
 4//1;
 5/5=2,38=5,53=21/2;
 6/7=2,8=2,9=2,10=2,28=1/1;
 7//1,2,3,16;
 1/18=20,19=15,26=3/3(2);
 2/9=110/2;
 99//99;
 2/9=110/2;
 3/5=7,6=1,11=2,16=1,17=8,25=1,30=1,70=32205,71=1,72=21,74=-13,82=7,124=41/1,2,3;
 4/5=5,16=3,69=1/1;
 5/5=2,38=5,53=21/2;
 7//1,2,3,16;
 1/18=20,19=15,26=3/3(-5);
 2/9=110/2;
 6/7=2,8=2,9=2,10=2,19=2,28=1/1;
 99/9=1/99;
 --------------------------
 A1b_rad_lowestE_conf_1_opt
 --------------------------
 Symbolic Z-matrix:
 Charge =  0 Multiplicity = 2
 C                    -2.2438   -1.7969    0.1445 
 C                    -1.1821   -0.757     0.0943 
 C                    -1.4984    0.5908    0.0505 
 N                    -0.554     1.5404   -0.0149 
 C                    -0.96      2.927    -0.0728 
 C                     0.7326    1.2102   -0.032 
 C                     1.14     -0.1178    0.0293 
 C                     2.6392   -0.3401   -0.0646 
 N                     3.0976   -1.5124    0.3985 
 O                     3.3303    0.5225   -0.5499 
 C                     0.1732   -1.1096    0.085 
 H                    -2.1303   -2.4091    1.0379 
 H                    -2.1576   -2.4615   -0.7139 
 H                    -3.236    -1.3568    0.1467 
 H                    -2.5265    0.9228    0.0593 
 H                    -0.0894    3.574    -0.1499 
 H                    -1.6014    3.0942   -0.939 
 H                    -1.5196    3.1925    0.8252 
 H                     1.482     1.9859   -0.1134 
 H                     2.5331   -2.1847    0.8859 
 H                     4.0924   -1.6732    0.3531 
 H                     0.4414   -2.1553    0.0974 
 

 GradGradGradGradGradGradGradGradGradGradGradGradGradGradGradGradGradGrad
 Berny optimization.
 Initialization pass.
                           ----------------------------
                           !    Initial Parameters    !
                           ! (Angstroms and Degrees)  !
 --------------------------                            --------------------------
 ! Name  Definition              Value          Derivative Info.                !
 --------------------------------------------------------------------------------
 ! R1    R(1,2)                  1.487          estimate D2E/DX2                !
 ! R2    R(1,12)                 1.089          estimate D2E/DX2                !
 ! R3    R(1,13)                 1.089          estimate D2E/DX2                !
 ! R4    R(1,14)                 1.0854         estimate D2E/DX2                !
 ! R5    R(2,3)                  1.3851         estimate D2E/DX2                !
 ! R6    R(2,11)                 1.4004         estimate D2E/DX2                !
 ! R7    R(3,4)                  1.3409         estimate D2E/DX2                !
 ! R8    R(3,15)                 1.0804         estimate D2E/DX2                !
 ! R9    R(4,5)                  1.446          estimate D2E/DX2                !
 ! R10   R(4,6)                  1.3284         estimate D2E/DX2                !
 ! R11   R(5,16)                 1.0874         estimate D2E/DX2                !
 ! R12   R(5,17)                 1.0907         estimate D2E/DX2                !
 ! R13   R(5,18)                 1.0909         estimate D2E/DX2                !
 ! R14   R(6,7)                  1.3904         estimate D2E/DX2                !
 ! R15   R(6,19)                 1.0816         estimate D2E/DX2                !
 ! R16   R(7,8)                  1.5185         estimate D2E/DX2                !
 ! R17   R(7,11)                 1.3862         estimate D2E/DX2                !
 ! R18   R(8,9)                  1.3412         estimate D2E/DX2                !
 ! R19   R(8,10)                 1.2072         estimate D2E/DX2                !
 ! R20   R(9,20)                 1.0041         estimate D2E/DX2                !
 ! R21   R(9,21)                 1.0087         estimate D2E/DX2                !
 ! R22   R(11,22)                1.0796         estimate D2E/DX2                !
 ! A1    A(2,1,12)             110.2695         estimate D2E/DX2                !
 ! A2    A(2,1,13)             110.0999         estimate D2E/DX2                !
 ! A3    A(2,1,14)             111.6654         estimate D2E/DX2                !
 ! A4    A(12,1,13)            107.1778         estimate D2E/DX2                !
 ! A5    A(12,1,14)            108.7572         estimate D2E/DX2                !
 ! A6    A(13,1,14)            108.7473         estimate D2E/DX2                !
 ! A7    A(1,2,3)              121.233          estimate D2E/DX2                !
 ! A8    A(1,2,11)             121.0059         estimate D2E/DX2                !
 ! A9    A(3,2,11)             117.7607         estimate D2E/DX2                !
 ! A10   A(2,3,4)              121.994          estimate D2E/DX2                !
 ! A11   A(2,3,15)             121.0681         estimate D2E/DX2                !
 ! A12   A(4,3,15)             116.936          estimate D2E/DX2                !
 ! A13   A(3,4,5)              118.9021         estimate D2E/DX2                !
 ! A14   A(3,4,6)              120.4475         estimate D2E/DX2                !
 ! A15   A(5,4,6)              120.6498         estimate D2E/DX2                !
 ! A16   A(4,5,16)             110.4015         estimate D2E/DX2                !
 ! A17   A(4,5,17)             110.1155         estimate D2E/DX2                !
 ! A18   A(4,5,18)             110.1486         estimate D2E/DX2                !
 ! A19   A(16,5,17)            108.8618         estimate D2E/DX2                !
 ! A20   A(16,5,18)            108.9201         estimate D2E/DX2                !
 ! A21   A(17,5,18)            108.3469         estimate D2E/DX2                !
 ! A22   A(4,6,7)              121.3738         estimate D2E/DX2                !
 ! A23   A(4,6,19)             119.5868         estimate D2E/DX2                !
 ! A24   A(7,6,19)             119.0299         estimate D2E/DX2                !
 ! A25   A(6,7,8)              115.2376         estimate D2E/DX2                !
 ! A26   A(6,7,11)             118.7364         estimate D2E/DX2                !
 ! A27   A(8,7,11)             125.8975         estimate D2E/DX2                !
 ! A28   A(7,8,9)              116.3619         estimate D2E/DX2                !
 ! A29   A(7,8,10)             119.0439         estimate D2E/DX2                !
 ! A30   A(9,8,10)             124.5912         estimate D2E/DX2                !
 ! A31   A(8,9,20)             124.1033         estimate D2E/DX2                !
 ! A32   A(8,9,21)             117.4418         estimate D2E/DX2                !
 ! A33   A(20,9,21)            118.0048         estimate D2E/DX2                !
 ! A34   A(2,11,7)             119.6762         estimate D2E/DX2                !
 ! A35   A(2,11,22)            118.9603         estimate D2E/DX2                !
 ! A36   A(7,11,22)            121.3467         estimate D2E/DX2                !
 ! D1    D(12,1,2,3)          -121.3369         estimate D2E/DX2                !
 ! D2    D(12,1,2,11)           58.8906         estimate D2E/DX2                !
 ! D3    D(13,1,2,3)           120.6029         estimate D2E/DX2                !
 ! D4    D(13,1,2,11)          -59.1696         estimate D2E/DX2                !
 ! D5    D(14,1,2,3)            -0.3027         estimate D2E/DX2                !
 ! D6    D(14,1,2,11)          179.9248         estimate D2E/DX2                !
 ! D7    D(1,2,3,4)           -178.9993         estimate D2E/DX2                !
 ! D8    D(1,2,3,15)             0.4733         estimate D2E/DX2                !
 ! D9    D(11,2,3,4)             0.7803         estimate D2E/DX2                !
 ! D10   D(11,2,3,15)         -179.747          estimate D2E/DX2                !
 ! D11   D(1,2,11,7)           179.5947         estimate D2E/DX2                !
 ! D12   D(1,2,11,22)            1.0658         estimate D2E/DX2                !
 ! D13   D(3,2,11,7)            -0.1855         estimate D2E/DX2                !
 ! D14   D(3,2,11,22)         -178.7144         estimate D2E/DX2                !
 ! D15   D(2,3,4,5)            179.3118         estimate D2E/DX2                !
 ! D16   D(2,3,4,6)             -0.3972         estimate D2E/DX2                !
 ! D17   D(15,3,4,5)            -0.1816         estimate D2E/DX2                !
 ! D18   D(15,3,4,6)          -179.8905         estimate D2E/DX2                !
 ! D19   D(3,4,5,16)          -178.4416         estimate D2E/DX2                !
 ! D20   D(3,4,5,17)           -58.2065         estimate D2E/DX2                !
 ! D21   D(3,4,5,18)            61.2295         estimate D2E/DX2                !
 ! D22   D(6,4,5,16)             1.2667         estimate D2E/DX2                !
 ! D23   D(6,4,5,17)           121.5018         estimate D2E/DX2                !
 ! D24   D(6,4,5,18)          -119.0622         estimate D2E/DX2                !
 ! D25   D(3,4,6,7)             -0.6012         estimate D2E/DX2                !
 ! D26   D(3,4,6,19)           178.2647         estimate D2E/DX2                !
 ! D27   D(5,4,6,7)            179.695          estimate D2E/DX2                !
 ! D28   D(5,4,6,19)            -1.4392         estimate D2E/DX2                !
 ! D29   D(4,6,7,8)            177.2878         estimate D2E/DX2                !
 ! D30   D(4,6,7,11)             1.1652         estimate D2E/DX2                !
 ! D31   D(19,6,7,8)            -1.5841         estimate D2E/DX2                !
 ! D32   D(19,6,7,11)         -177.7067         estimate D2E/DX2                !
 ! D33   D(6,7,8,9)            159.8431         estimate D2E/DX2                !
 ! D34   D(6,7,8,10)           -20.7588         estimate D2E/DX2                !
 ! D35   D(11,7,8,9)           -24.3545         estimate D2E/DX2                !
 ! D36   D(11,7,8,10)          155.0436         estimate D2E/DX2                !
 ! D37   D(6,7,11,2)            -0.7452         estimate D2E/DX2                !
 ! D38   D(6,7,11,22)          177.7477         estimate D2E/DX2                !
 ! D39   D(8,7,11,2)          -176.4147         estimate D2E/DX2                !
 ! D40   D(8,7,11,22)            2.0781         estimate D2E/DX2                !
 ! D41   D(7,8,9,20)            -7.2316         estimate D2E/DX2                !
 ! D42   D(7,8,9,21)          -179.362          estimate D2E/DX2                !
 ! D43   D(10,8,9,20)          173.4075         estimate D2E/DX2                !
 ! D44   D(10,8,9,21)            1.2772         estimate D2E/DX2                !
 --------------------------------------------------------------------------------
 Trust Radius=3.00D-01 FncErr=1.00D-07 GrdErr=1.00D-06 EigMax=2.50D+02 EigMin=1.00D-04
 Number of steps in this run=    112 maximum allowed number of steps=    132.
 GradGradGradGradGradGradGradGradGradGradGradGradGradGradGradGradGradGrad

                          Input orientation:                          
 ---------------------------------------------------------------------
 Center     Atomic      Atomic             Coordinates (Angstroms)
 Number     Number       Type             X           Y           Z
 ---------------------------------------------------------------------
      1          6           0       -2.243800   -1.796900    0.144500
      2          6           0       -1.182100   -0.757000    0.094300
      3          6           0       -1.498400    0.590800    0.050500
      4          7           0       -0.554000    1.540400   -0.014900
      5          6           0       -0.960000    2.927000   -0.072800
      6          6           0        0.732600    1.210200   -0.032000
      7          6           0        1.140000   -0.117800    0.029300
      8          6           0        2.639200   -0.340100   -0.064600
      9          7           0        3.097600   -1.512400    0.398500
     10          8           0        3.330300    0.522500   -0.549900
     11          6           0        0.173200   -1.109600    0.085000
     12          1           0       -2.130300   -2.409100    1.037900
     13          1           0       -2.157600   -2.461500   -0.713900
     14          1           0       -3.236000   -1.356800    0.146700
     15          1           0       -2.526500    0.922800    0.059300
     16          1           0       -0.089400    3.574000   -0.149900
     17          1           0       -1.601400    3.094200   -0.939000
     18          1           0       -1.519600    3.192500    0.825200
     19          1           0        1.482000    1.985900   -0.113400
     20          1           0        2.533100   -2.184700    0.885900
     21          1           0        4.092400   -1.673200    0.353100
     22          1           0        0.441400   -2.155300    0.097400
 ---------------------------------------------------------------------
                    Distance matrix (angstroms):
                    1          2          3          4          5
     1  C    0.000000
     2  C    1.486983   0.000000
     3  C    2.503112   1.385110   0.000000
     4  N    3.744116   2.384215   1.340861   0.000000
     5  C    4.900061   3.694470   2.400606   1.445976   0.000000
     6  C    4.234709   2.748073   2.316856   1.328407   2.411216
     7  C    3.779253   2.409346   2.731981   2.370911   3.700166
     8  C    5.099968   3.847257   4.242588   3.706113   4.860890
     9  N    5.354999   4.356489   5.066337   4.777517   6.032787
    10  O    6.077203   4.734329   4.866363   4.050942   4.941247
    11  C    2.513526   1.400447   2.384701   2.749782   4.195615
    12  H    1.088960   2.125770   3.220816   4.380829   5.574695
    13  H    1.089024   2.123701   3.214870   4.367532   5.557084
    14  H    1.085428   2.140330   2.611830   3.951330   4.855852
    15  H    2.735680   2.151828   1.080412   2.068258   2.547193
    16  H    5.794366   4.473387   3.305287   2.090361   1.087427
    17  H    5.050694   4.009397   2.693832   2.089331   1.090712
    18  H    5.087429   4.030716   2.714674   2.089877   1.090892
    19  H    5.315795   3.829369   3.294837   2.086497   2.617381
    20  H    4.849622   4.058038   4.965308   4.921178   6.265008
    21  H    6.340840   5.359734   6.039396   5.661420   6.846165
    22  H    2.709422   2.142663   3.362453   3.829051   5.274719
                    6          7          8          9         10
     6  C    0.000000
     7  C    1.390438   0.000000
     8  C    2.457563   1.518498   0.000000
     9  N    3.631956   2.431752   1.341223   0.000000
    10  O    2.736640   2.354330   1.207151   2.257084   0.000000
    11  C    2.389161   1.386172   2.587599   2.968610   3.610281
    12  H    4.737110   4.118518   5.314546   5.342644   6.397932
    13  H    4.722248   4.113325   5.284999   5.454847   6.248856
    14  H    4.729821   4.549536   5.966264   6.340513   6.865371
    15  H    3.273021   3.811426   5.319279   6.138058   5.901989
    16  H    2.505421   3.895244   4.772076   6.027369   4.600652
    17  H    3.133634   4.332415   5.526453   6.714929   5.575545
    18  H    3.120370   4.320303   5.528709   6.605808   5.704501
    19  H    1.081636   2.136090   2.598417   3.887198   2.397558
    20  H    3.950910   2.635634   2.077801   1.004095   3.166383
    21  H    4.444159   3.352727   2.015792   1.008734   2.493452
    22  H    3.380552   2.155014   2.855087   2.749433   3.991911
                   11         12         13         14         15
    11  C    0.000000
    12  H    2.811197   0.000000
    13  H    2.810428   1.752796   0.000000
    14  H    3.418707   1.767525   1.767467   0.000000
    15  H    3.379303   3.495167   3.491047   2.389059   0.000000
    16  H    4.696834   6.432233   6.404905   5.856778   3.607226
    17  H    4.676507   5.871472   5.588008   4.864367   2.562692
    18  H    4.682044   5.638805   5.894369   4.909432   2.598459
    19  H    3.366666   5.804328   5.778119   5.787989   4.150672
    20  H    2.714113   4.671270   4.963733   5.874891   5.994946
    21  H    3.968583   6.303372   6.389241   7.338130   7.115854
    22  H    1.079617   2.750017   2.739848   3.763416   4.276047
                   16         17         18         19         20
    16  H    0.000000
    17  H    1.771731   0.000000
    18  H    1.772522   1.768829   0.000000
    19  H    2.234433   3.378950   3.368450   0.000000
    20  H    6.411943   6.949182   6.733672   4.415577   0.000000
    21  H    6.728564   7.537704   7.442611   4.518940   1.725377
    22  H    5.759148   5.727513   5.742315   4.275140   2.235577
                   21         22
    21  H    0.000000
    22  H    3.691558   0.000000
 Stoichiometry    C8H11N2O(2)
 Framework group  C1[X(C8H11N2O)]
 Deg. of freedom    60
 Full point group                 C1      NOp   1
 Largest Abelian subgroup         C1      NOp   1
 Largest concise Abelian subgroup C1      NOp   1
                         Standard orientation:                         
 ---------------------------------------------------------------------
 Center     Atomic      Atomic             Coordinates (Angstroms)
 Number     Number       Type             X           Y           Z
 ---------------------------------------------------------------------
      1          6           0       -2.134138    2.462621    0.125395
      2          6           0       -1.341737    1.206692    0.048829
      3          6           0       -1.961155   -0.030521   -0.015630
      4          7           0       -1.261753   -1.173449   -0.065244
      5          6           0       -1.977246   -2.428969   -0.116112
      6          6           0        0.066452   -1.150571   -0.061715
      7          6           0        0.769690    0.048172   -0.019431
      8          6           0        2.280605   -0.089459    0.044041
      9          7           0        2.992623    0.984177   -0.329076
     10          8           0        2.758743   -1.129071    0.428494
     11          6           0        0.058391    1.236223    0.044291
     12          1           0       -1.892470    3.112926   -0.713971
     13          1           0       -1.886153    3.006697    1.035592
     14          1           0       -3.201260    2.264282    0.117303
     15          1           0       -3.038230   -0.115274   -0.019599
     16          1           0       -1.279384   -3.262880   -0.125029
     17          1           0       -2.629634   -2.524403    0.752757
     18          1           0       -2.593719   -2.474002   -1.014989
     19          1           0        0.616653   -2.081739   -0.073662
     20          1           0        2.593516    1.810551   -0.736539
     21          1           0        3.998076    0.907305   -0.302622
     22          1           0        0.561400    2.188878    0.115036
 ---------------------------------------------------------------------
 Rotational constants (GHZ):           1.5893261           0.8672437           0.5723370
 General basis read from cards:  (5D, 7F)
 ======================================================================================================
                                       Pseudopotential Parameters
 ======================================================================================================
  Center     Atomic      Valence      Angular      Power
  Number     Number     Electrons     Momentum     of R      Exponent        Coefficient   SO-Coeffient
 ======================================================================================================
    1          6
                                   No pseudopotential on this center.
    2          6
                                   No pseudopotential on this center.
    3          6
                                   No pseudopotential on this center.
    4          7
                                   No pseudopotential on this center.
    5          6
                                   No pseudopotential on this center.
    6          6
                                   No pseudopotential on this center.
    7          6
                                   No pseudopotential on this center.
    8          6
                                   No pseudopotential on this center.
    9          7
                                   No pseudopotential on this center.
   10          8
                                   No pseudopotential on this center.
   11          6
                                   No pseudopotential on this center.
   12          1
                                   No pseudopotential on this center.
   13          1
                                   No pseudopotential on this center.
   14          1
                                   No pseudopotential on this center.
   15          1
                                   No pseudopotential on this center.
   16          1
                                   No pseudopotential on this center.
   17          1
                                   No pseudopotential on this center.
   18          1
                                   No pseudopotential on this center.
   19          1
                                   No pseudopotential on this center.
   20          1
                                   No pseudopotential on this center.
   21          1
                                   No pseudopotential on this center.
   22          1
                                   No pseudopotential on this center.
 ======================================================================================================
 There are   333 symmetry adapted cartesian basis functions of A   symmetry.
 There are   311 symmetry adapted basis functions of A   symmetry.
   311 basis functions,   465 primitive gaussians,   333 cartesian basis functions
    41 alpha electrons       40 beta electrons
       nuclear repulsion energy       599.6035556653 Hartrees.
 NAtoms=   22 NActive=   22 NUniq=   22 SFac= 1.00D+00 NAtFMM=   60 NAOKFM=F Big=F
 Integral buffers will be    131072 words long.
 Raffenetti 2 integral format.
 Two-electron integral symmetry is turned on.
 Nuclear repulsion after empirical dispersion term =      599.5836568443 Hartrees.
 ------------------------------------------------------------------------------
 Polarizable Continuum Model (PCM)
 =================================
 Model                : PCM.
 Atomic radii         : SMD-Coulomb.
 Polarization charges : Total charges.
 Charge compensation  : None.
 Solution method      : On-the-fly selection.
 Cavity type          : VdW (van der Waals Surface) (Alpha=1.000).
 Cavity algorithm     : GePol (No added spheres)
                        Default sphere list used, NSphG=   22.
                        Lebedev-Laikov grids with approx.  5.0 points / Ang**2.
                        Smoothing algorithm: York/Karplus (Gamma=1.0000).
                        Polarization charges: spherical gaussians, with
                                              point-specific exponents (IZeta= 3).
                        Self-potential: point-specific (ISelfS= 7).
                        Self-field    : sphere-specific E.n sum rule (ISelfD= 2).
 1st derivatives      : Analytical E(r).r(x)/FMM algorithm (CHGder, D1EAlg=3).
                        Cavity 1st derivative terms included.
 Solvent              : DiMethylSulfoxide, Eps=  46.826000 Eps(inf)=   2.007889
 ------------------------------------------------------------------------------
 ------------------------------------------------------------------------------
 Atomic radii for non-electrostatic terms: SMD-CDS.
 ------------------------------------------------------------------------------
 Nuclear repulsion after PCM non-electrostatic terms =      599.5840303393 Hartrees.
 One-electron integrals computed using PRISM.
   1 Symmetry operations used in ECPInt.
 ECPInt:  NShTT=    8911 NPrTT=   24707 LenC2=    8782 LenP2D=   20148.
 LDataN:  DoStor=T MaxTD1= 4 Len=   56
 NBasis=   311 RedAO= T EigKep=  1.11D-05  NBF=   311
 NBsUse=   311 1.00D-06 EigRej= -1.00D+00 NBFU=   311
 ExpMin= 6.71D-02 ExpMax= 2.27D+03 ExpMxC= 3.41D+02 IAcc=3 IRadAn=         5 AccDes= 0.00D+00
 Harris functional with IExCor= 1009 and IRadAn=       5 diagonalized for initial guess.
 HarFok:  IExCor= 1009 AccDes= 0.00D+00 IRadAn=         5 IDoV= 1 UseB2=F ITyADJ=14
 ICtDFT=  3500011 ScaDFX=  1.000000  1.000000  1.000000  1.000000
 FoFCou: FMM=F IPFlag=           0 FMFlag=      100000 FMFlg1=           0
         NFxFlg=           0 DoJE=T BraDBF=F KetDBF=T FulRan=T
         wScrn=  0.000000 ICntrl=       500 IOpCl=  0 I1Cent=   200000004 NGrid=           0
         NMat0=    1 NMatS0=      1 NMatT0=    0 NMatD0=    1 NMtDS0=    0 NMtDT0=    0
 Petite list used in FoFCou.
 Initial guess <Sx>= 0.0000 <Sy>= 0.0000 <Sz>= 0.5000 <S**2>= 0.7500 S= 0.5000
 Requested convergence on RMS density matrix=1.00D-08 within 128 cycles.
 Requested convergence on MAX density matrix=1.00D-06.
 Requested convergence on             energy=1.00D-06.
 No special actions if energy rises.
 Inv3:  Mode=1 IEnd=     9515883.
 Iteration    1 A*A^-1 deviation from unit magnitude is 2.89D-15 for    251.
 Iteration    1 A*A^-1 deviation from orthogonality  is 1.89D-15 for   1616   1276.
 Iteration    1 A^-1*A deviation from unit magnitude is 2.44D-15 for    251.
 Iteration    1 A^-1*A deviation from orthogonality  is 2.33D-15 for   1683   1252.
 Error on total polarization charges =  0.03932
 SCF Done:  E(UPBE1PBE) =  -495.313184396     A.U. after   20 cycles
            NFock= 20  Conv=0.50D-08     -V/T= 2.0099
 <Sx>= 0.0000 <Sy>= 0.0000 <Sz>= 0.5000 <S**2>= 0.7664 S= 0.5082
 <L.S>= 0.000000000000E+00
 SMD-CDS (non-electrostatic) energy       (kcal/mol) =       0.23
 (included in total energy above)
 Annihilation of the first spin contaminant:
 S**2 before annihilation     0.7664,   after     0.7501

 **********************************************************************

            Population analysis using the SCF Density.

 **********************************************************************

 Orbital symmetries:
 Alpha Orbitals:
       Occupied  (A) (A) (A) (A) (A) (A) (A) (A) (A) (A) (A) (A)
                 (A) (A) (A) (A) (A) (A) (A) (A) (A) (A) (A) (A)
                 (A) (A) (A) (A) (A) (A) (A) (A) (A) (A) (A) (A)
                 (A) (A) (A) (A) (A)
       Virtual   (A) (A) (A) (A) (A) (A) (A) (A) (A) (A) (A) (A)
                 (A) (A) (A) (A) (A) (A) (A) (A) (A) (A) (A) (A)
                 (A) (A) (A) (A) (A) (A) (A) (A) (A) (A) (A) (A)
                 (A) (A) (A) (A) (A) (A) (A) (A) (A) (A) (A) (A)
                 (A) (A) (A) (A) (A) (A) (A) (A) (A) (A) (A) (A)
                 (A) (A) (A) (A) (A) (A) (A) (A) (A) (A) (A) (A)
                 (A) (A) (A) (A) (A) (A) (A) (A) (A) (A) (A) (A)
                 (A) (A) (A) (A) (A) (A) (A) (A) (A) (A) (A) (A)
                 (A) (A) (A) (A) (A) (A) (A) (A) (A) (A) (A) (A)
                 (A) (A) (A) (A) (A) (A) (A) (A) (A) (A) (A) (A)
                 (A) (A) (A) (A) (A) (A) (A) (A) (A) (A) (A) (A)
                 (A) (A) (A) (A) (A) (A) (A) (A) (A) (A) (A) (A)
                 (A) (A) (A) (A) (A) (A) (A) (A) (A) (A) (A) (A)
                 (A) (A) (A) (A) (A) (A) (A) (A) (A) (A) (A) (A)
                 (A) (A) (A) (A) (A) (A) (A) (A) (A) (A) (A) (A)
                 (A) (A) (A) (A) (A) (A) (A) (A) (A) (A) (A) (A)
                 (A) (A) (A) (A) (A) (A) (A) (A) (A) (A) (A) (A)
                 (A) (A) (A) (A) (A) (A) (A) (A) (A) (A) (A) (A)
                 (A) (A) (A) (A) (A) (A) (A) (A) (A) (A) (A) (A)
                 (A) (A) (A) (A) (A) (A) (A) (A) (A) (A) (A) (A)
                 (A) (A) (A) (A) (A) (A) (A) (A) (A) (A) (A) (A)
                 (A) (A) (A) (A) (A) (A) (A) (A) (A) (A) (A) (A)
                 (A) (A) (A) (A) (A) (A)
 Beta  Orbitals:
       Occupied  (A) (A) (A) (A) (A) (A) (A) (A) (A) (A) (A) (A)
                 (A) (A) (A) (A) (A) (A) (A) (A) (A) (A) (A) (A)
                 (A) (A) (A) (A) (A) (A) (A) (A) (A) (A) (A) (A)
                 (A) (A) (A) (A)
       Virtual   (A) (A) (A) (A) (A) (A) (A) (A) (A) (A) (A) (A)
                 (A) (A) (A) (A) (A) (A) (A) (A) (A) (A) (A) (A)
                 (A) (A) (A) (A) (A) (A) (A) (A) (A) (A) (A) (A)
                 (A) (A) (A) (A) (A) (A) (A) (A) (A) (A) (A) (A)
                 (A) (A) (A) (A) (A) (A) (A) (A) (A) (A) (A) (A)
                 (A) (A) (A) (A) (A) (A) (A) (A) (A) (A) (A) (A)
                 (A) (A) (A) (A) (A) (A) (A) (A) (A) (A) (A) (A)
                 (A) (A) (A) (A) (A) (A) (A) (A) (A) (A) (A) (A)
                 (A) (A) (A) (A) (A) (A) (A) (A) (A) (A) (A) (A)
                 (A) (A) (A) (A) (A) (A) (A) (A) (A) (A) (A) (A)
                 (A) (A) (A) (A) (A) (A) (A) (A) (A) (A) (A) (A)
                 (A) (A) (A) (A) (A) (A) (A) (A) (A) (A) (A) (A)
                 (A) (A) (A) (A) (A) (A) (A) (A) (A) (A) (A) (A)
                 (A) (A) (A) (A) (A) (A) (A) (A) (A) (A) (A) (A)
                 (A) (A) (A) (A) (A) (A) (A) (A) (A) (A) (A) (A)
                 (A) (A) (A) (A) (A) (A) (A) (A) (A) (A) (A) (A)
                 (A) (A) (A) (A) (A) (A) (A) (A) (A) (A) (A) (A)
                 (A) (A) (A) (A) (A) (A) (A) (A) (A) (A) (A) (A)
                 (A) (A) (A) (A) (A) (A) (A) (A) (A) (A) (A) (A)
                 (A) (A) (A) (A) (A) (A) (A) (A) (A) (A) (A) (A)
                 (A) (A) (A) (A) (A) (A) (A) (A) (A) (A) (A) (A)
                 (A) (A) (A) (A) (A) (A) (A) (A) (A) (A) (A) (A)
                 (A) (A) (A) (A) (A) (A) (A)
 The electronic state is 2-A.
 Alpha  occ. eigenvalues --  -19.17510 -14.44717 -14.40549 -10.33012 -10.26866
 Alpha  occ. eigenvalues --  -10.25881 -10.24898 -10.24260 -10.23292 -10.22013
 Alpha  occ. eigenvalues --  -10.21102  -1.05964  -1.02008  -0.91942  -0.84491
 Alpha  occ. eigenvalues --   -0.80098  -0.73803  -0.71817  -0.66744  -0.62745
 Alpha  occ. eigenvalues --   -0.59955  -0.55921  -0.53157  -0.51437  -0.49119
 Alpha  occ. eigenvalues --   -0.48739  -0.46787  -0.43684  -0.43556  -0.42865
 Alpha  occ. eigenvalues --   -0.42586  -0.41008  -0.39535  -0.38225  -0.37257
 Alpha  occ. eigenvalues --   -0.36234  -0.30566  -0.28619  -0.27907  -0.26722
 Alpha  occ. eigenvalues --   -0.11632
 Alpha virt. eigenvalues --   -0.02568   0.02795   0.04753   0.04837   0.05187
 Alpha virt. eigenvalues --    0.07630   0.08090   0.08294   0.09380   0.10453
 Alpha virt. eigenvalues --    0.10941   0.11752   0.12156   0.13111   0.13215
 Alpha virt. eigenvalues --    0.13727   0.14753   0.15842   0.16217   0.16657
 Alpha virt. eigenvalues --    0.17238   0.17737   0.18501   0.18974   0.19332
 Alpha virt. eigenvalues --    0.20839   0.21481   0.21619   0.22527   0.23640
 Alpha virt. eigenvalues --    0.23818   0.24600   0.25828   0.26085   0.27134
 Alpha virt. eigenvalues --    0.27499   0.28351   0.29240   0.29470   0.30100
 Alpha virt. eigenvalues --    0.30646   0.31854   0.32195   0.32852   0.33113
 Alpha virt. eigenvalues --    0.33787   0.33976   0.34680   0.35367   0.35674
 Alpha virt. eigenvalues --    0.36302   0.37011   0.37443   0.37705   0.37918
 Alpha virt. eigenvalues --    0.38751   0.39016   0.39336   0.39502   0.40437
 Alpha virt. eigenvalues --    0.40841   0.41039   0.41361   0.42226   0.42891
 Alpha virt. eigenvalues --    0.43108   0.43566   0.44372   0.44848   0.45375
 Alpha virt. eigenvalues --    0.46272   0.46972   0.47289   0.47941   0.48101
 Alpha virt. eigenvalues --    0.49332   0.49815   0.50124   0.50282   0.50478
 Alpha virt. eigenvalues --    0.51821   0.52590   0.53279   0.53614   0.54097
 Alpha virt. eigenvalues --    0.54540   0.55037   0.55962   0.56535   0.57173
 Alpha virt. eigenvalues --    0.57760   0.59030   0.59449   0.59825   0.60542
 Alpha virt. eigenvalues --    0.61058   0.61612   0.63111   0.64272   0.64575
 Alpha virt. eigenvalues --    0.65754   0.65939   0.66923   0.68332   0.68820
 Alpha virt. eigenvalues --    0.69522   0.70915   0.71634   0.72587   0.73594
 Alpha virt. eigenvalues --    0.74103   0.74580   0.75645   0.75719   0.77501
 Alpha virt. eigenvalues --    0.78348   0.78925   0.79729   0.80842   0.82251
 Alpha virt. eigenvalues --    0.83278   0.84803   0.86480   0.87429   0.88538
 Alpha virt. eigenvalues --    0.90111   0.92240   0.92875   0.94453   0.96221
 Alpha virt. eigenvalues --    0.97261   0.98253   0.98707   1.00157   1.00608
 Alpha virt. eigenvalues --    1.01501   1.02985   1.04489   1.05432   1.06133
 Alpha virt. eigenvalues --    1.06369   1.07688   1.08571   1.10683   1.11525
 Alpha virt. eigenvalues --    1.13682   1.15133   1.15573   1.17450   1.18544
 Alpha virt. eigenvalues --    1.20539   1.23549   1.24601   1.24830   1.25913
 Alpha virt. eigenvalues --    1.27000   1.29788   1.32135   1.33001   1.33349
 Alpha virt. eigenvalues --    1.35481   1.35855   1.37665   1.39012   1.40298
 Alpha virt. eigenvalues --    1.41713   1.44056   1.44822   1.47965   1.54821
 Alpha virt. eigenvalues --    1.56339   1.57968   1.59759   1.60403   1.61728
 Alpha virt. eigenvalues --    1.62779   1.63467   1.63735   1.65831   1.66267
 Alpha virt. eigenvalues --    1.69311   1.70923   1.71517   1.73478   1.74183
 Alpha virt. eigenvalues --    1.75178   1.76204   1.77401   1.79366   1.80402
 Alpha virt. eigenvalues --    1.80901   1.81951   1.85146   1.86868   1.88756
 Alpha virt. eigenvalues --    1.91275   1.93278   1.94361   1.95666   1.97337
 Alpha virt. eigenvalues --    1.99181   2.00090   2.00619   2.01662   2.03949
 Alpha virt. eigenvalues --    2.04631   2.05261   2.06902   2.08917   2.11700
 Alpha virt. eigenvalues --    2.12779   2.13079   2.15074   2.16617   2.17493
 Alpha virt. eigenvalues --    2.19839   2.20561   2.22634   2.23741   2.24191
 Alpha virt. eigenvalues --    2.26555   2.27072   2.29083   2.37691   2.39440
 Alpha virt. eigenvalues --    2.40089   2.41635   2.42331   2.44555   2.48568
 Alpha virt. eigenvalues --    2.48932   2.51677   2.52928   2.53555   2.55767
 Alpha virt. eigenvalues --    2.58275   2.64746   2.64978   2.66350   2.69168
 Alpha virt. eigenvalues --    2.70295   2.72704   2.75202   2.77158   2.79833
 Alpha virt. eigenvalues --    2.80353   2.88090   2.92124   2.93487   2.95816
 Alpha virt. eigenvalues --    2.97880   3.00174   3.02295   3.06849   3.09141
 Alpha virt. eigenvalues --    3.11506   3.12750   3.17535   3.18969   3.19870
 Alpha virt. eigenvalues --    3.23401   3.25065   3.25413   3.27829   3.35655
 Alpha virt. eigenvalues --    3.47339   3.58657   3.63198   3.78261   3.89467
  Beta  occ. eigenvalues --  -19.17429 -14.44114 -14.40552 -10.32991 -10.26766
  Beta  occ. eigenvalues --  -10.25921 -10.24507 -10.24401 -10.23284 -10.22002
  Beta  occ. eigenvalues --  -10.20375  -1.05836  -1.01035  -0.91907  -0.83906
  Beta  occ. eigenvalues --   -0.79638  -0.73468  -0.71465  -0.66076  -0.62074
  Beta  occ. eigenvalues --   -0.59867  -0.55806  -0.52887  -0.51072  -0.48445
  Beta  occ. eigenvalues --   -0.47431  -0.46426  -0.43473  -0.43324  -0.42733
  Beta  occ. eigenvalues --   -0.42480  -0.40891  -0.39428  -0.37231  -0.37011
  Beta  occ. eigenvalues --   -0.35946  -0.28497  -0.27661  -0.27029  -0.25434
  Beta virt. eigenvalues --   -0.02326  -0.01867   0.03002   0.04931   0.05282
  Beta virt. eigenvalues --    0.05711   0.07735   0.08303   0.08469   0.09537
  Beta virt. eigenvalues --    0.10638   0.11382   0.12021   0.12262   0.13290
  Beta virt. eigenvalues --    0.13609   0.14062   0.14844   0.16006   0.16746
  Beta virt. eigenvalues --    0.17199   0.17468   0.18249   0.18907   0.19211
  Beta virt. eigenvalues --    0.19729   0.21137   0.21738   0.22181   0.22786
  Beta virt. eigenvalues --    0.23898   0.23980   0.24791   0.25969   0.26331
  Beta virt. eigenvalues --    0.27431   0.27705   0.28534   0.29491   0.29643
  Beta virt. eigenvalues --    0.30304   0.30794   0.32180   0.32520   0.33091
  Beta virt. eigenvalues --    0.33381   0.34064   0.34095   0.34968   0.35518
  Beta virt. eigenvalues --    0.35938   0.36527   0.37178   0.37792   0.37969
  Beta virt. eigenvalues --    0.38210   0.38936   0.39255   0.39592   0.39789
  Beta virt. eigenvalues --    0.40679   0.41142   0.41286   0.41784   0.42382
  Beta virt. eigenvalues --    0.43169   0.43399   0.43761   0.44710   0.45135
  Beta virt. eigenvalues --    0.45626   0.46566   0.47262   0.47508   0.48170
  Beta virt. eigenvalues --    0.48476   0.49552   0.49973   0.50357   0.50523
  Beta virt. eigenvalues --    0.50709   0.51940   0.52745   0.53522   0.53762
  Beta virt. eigenvalues --    0.54347   0.54819   0.55369   0.56111   0.56721
  Beta virt. eigenvalues --    0.57293   0.58044   0.59227   0.59697   0.59998
  Beta virt. eigenvalues --    0.60782   0.61336   0.62004   0.63396   0.64411
  Beta virt. eigenvalues --    0.64884   0.65977   0.66231   0.67212   0.68629
  Beta virt. eigenvalues --    0.69059   0.69752   0.71223   0.71834   0.72816
  Beta virt. eigenvalues --    0.73859   0.74292   0.74890   0.75913   0.76023
  Beta virt. eigenvalues --    0.77697   0.78619   0.79158   0.79975   0.81073
  Beta virt. eigenvalues --    0.82432   0.83629   0.85185   0.86600   0.87585
  Beta virt. eigenvalues --    0.88694   0.90331   0.92837   0.93009   0.94652
  Beta virt. eigenvalues --    0.96308   0.97417   0.98477   0.98964   1.00315
  Beta virt. eigenvalues --    1.00766   1.01666   1.03243   1.04557   1.05655
  Beta virt. eigenvalues --    1.06630   1.06727   1.07945   1.09600   1.11107
  Beta virt. eigenvalues --    1.11888   1.13932   1.15514   1.16956   1.17999
  Beta virt. eigenvalues --    1.18864   1.20739   1.23885   1.24741   1.25264
  Beta virt. eigenvalues --    1.26277   1.27153   1.30016   1.32368   1.33229
  Beta virt. eigenvalues --    1.33828   1.35684   1.36245   1.37889   1.39634
  Beta virt. eigenvalues --    1.40823   1.41882   1.44248   1.44949   1.48224
  Beta virt. eigenvalues --    1.55152   1.56482   1.58555   1.60305   1.61019
  Beta virt. eigenvalues --    1.62091   1.63007   1.63823   1.64144   1.66361
  Beta virt. eigenvalues --    1.66568   1.69447   1.70950   1.71846   1.73753
  Beta virt. eigenvalues --    1.74538   1.75363   1.76436   1.77794   1.79556
  Beta virt. eigenvalues --    1.80717   1.81118   1.82168   1.85271   1.87178
  Beta virt. eigenvalues --    1.89038   1.91461   1.93597   1.94492   1.95898
  Beta virt. eigenvalues --    1.97522   1.99430   2.00336   2.00972   2.01805
  Beta virt. eigenvalues --    2.04081   2.05271   2.05591   2.07566   2.09295
  Beta virt. eigenvalues --    2.11961   2.13009   2.13308   2.15492   2.17139
  Beta virt. eigenvalues --    2.17967   2.20084   2.20810   2.23199   2.24061
  Beta virt. eigenvalues --    2.24380   2.26982   2.27372   2.29460   2.37822
  Beta virt. eigenvalues --    2.40154   2.40530   2.41840   2.42740   2.45001
  Beta virt. eigenvalues --    2.49001   2.49301   2.52762   2.53195   2.54301
  Beta virt. eigenvalues --    2.55956   2.58627   2.64884   2.65039   2.66439
  Beta virt. eigenvalues --    2.69287   2.70449   2.72820   2.75322   2.77406
  Beta virt. eigenvalues --    2.80442   2.81318   2.89355   2.92347   2.93617
  Beta virt. eigenvalues --    2.96341   2.98286   3.00720   3.02546   3.06996
  Beta virt. eigenvalues --    3.09317   3.11535   3.12896   3.17645   3.19136
  Beta virt. eigenvalues --    3.20039   3.23661   3.25321   3.26383   3.28068
  Beta virt. eigenvalues --    3.35678   3.47591   3.58743   3.63287   3.78457
  Beta virt. eigenvalues --    3.89542
          Condensed to atoms (all electrons):
               1          2          3          4          5          6
     1  C    6.191976  -0.616462  -0.640585   0.152391  -0.002198   0.104371
     2  C   -0.616462  10.375156  -1.434480  -0.499269  -0.063493  -0.360429
     3  C   -0.640585  -1.434480   8.229157  -0.427858  -0.190284  -0.311127
     4  N    0.152391  -0.499269  -0.427858   9.626216   0.677727   0.049248
     5  C   -0.002198  -0.063493  -0.190284   0.677727   4.478460  -0.281131
     6  C    0.104371  -0.360429  -0.311127   0.049248  -0.281131   6.598756
     7  C    0.040793   0.124157  -0.284633  -0.491904  -0.083176  -0.104159
     8  C   -0.007756   0.012290   0.051875   0.063825   0.000304  -0.191619
     9  N    0.000403  -0.001045   0.000843   0.002769  -0.000088  -0.001693
    10  O    0.000525  -0.011540   0.003919   0.022926  -0.002024  -0.102789
    11  C   -0.286074   0.273573  -0.351027   0.206123  -0.039212  -0.247827
    12  H    0.049960   0.116110   0.073633  -0.004740   0.000016  -0.003102
    13  H    0.010401   0.154574   0.077368  -0.005714  -0.000017  -0.004535
    14  H    0.477037   0.139036  -0.166276   0.017886   0.000876   0.005008
    15  H   -0.180547  -0.615245   0.748654  -0.748476  -0.064817   0.072684
    16  H    0.000263   0.012343   0.019523   0.003445   0.228265   0.071721
    17  H   -0.001096   0.012065   0.047422   0.049710   0.231916  -0.000875
    18  H   -0.001102   0.008687   0.050595   0.033232   0.239603   0.004130
    19  H   -0.004891   0.221499   0.161652  -0.769733   0.012754  -0.138682
    20  H    0.000330  -0.005060   0.000046  -0.000316  -0.000001  -0.004728
    21  H   -0.000046   0.000796  -0.000127  -0.000109   0.000006   0.000853
    22  H   -0.076890  -0.198102   0.087697  -0.061628   0.004409   0.025825
               7          8          9         10         11         12
     1  C    0.040793  -0.007756   0.000403   0.000525  -0.286074   0.049960
     2  C    0.124157   0.012290  -0.001045  -0.011540   0.273573   0.116110
     3  C   -0.284633   0.051875   0.000843   0.003919  -0.351027   0.073633
     4  N   -0.491904   0.063825   0.002769   0.022926   0.206123  -0.004740
     5  C   -0.083176   0.000304  -0.000088  -0.002024  -0.039212   0.000016
     6  C   -0.104159  -0.191619  -0.001693  -0.102789  -0.247827  -0.003102
     7  C   10.140374  -0.904113   0.151126   0.010157  -0.646031  -0.005467
     8  C   -0.904113   6.597810  -0.154147   0.097255  -0.226361   0.000398
     9  N    0.151126  -0.154147   6.254099   0.060477   0.019510  -0.000113
    10  O    0.010157   0.097255   0.060477   8.590287   0.001297   0.000003
    11  C   -0.646031  -0.226361   0.019510   0.001297   8.014949   0.019220
    12  H   -0.005467   0.000398  -0.000113   0.000003   0.019220   0.586137
    13  H   -0.003832  -0.000330   0.000001   0.000056   0.024200   0.077000
    14  H   -0.004449  -0.000200   0.000023  -0.000004   0.003403  -0.042340
    15  H    0.153209  -0.000997  -0.000072  -0.000631  -0.071043   0.012499
    16  H    0.027745  -0.001285   0.000027   0.000837   0.004059   0.000002
    17  H   -0.000492   0.000574  -0.000007   0.000006  -0.003513  -0.000035
    18  H   -0.000135   0.000566  -0.000015   0.000011  -0.003017   0.000010
    19  H   -0.567657  -0.052032   0.000400   0.084682   0.080260   0.000184
    20  H   -0.051130   0.037262   0.337376  -0.014347   0.007708   0.000017
    21  H    0.011085  -0.015306   0.351669  -0.037844   0.014476   0.000001
    22  H   -0.309557  -0.090930  -0.041947  -0.009860  -0.764442   0.027407
              13         14         15         16         17         18
     1  C    0.010401   0.477037  -0.180547   0.000263  -0.001096  -0.001102
     2  C    0.154574   0.139036  -0.615245   0.012343   0.012065   0.008687
     3  C    0.077368  -0.166276   0.748654   0.019523   0.047422   0.050595
     4  N   -0.005714   0.017886  -0.748476   0.003445   0.049710   0.033232
     5  C   -0.000017   0.000876  -0.064817   0.228265   0.231916   0.239603
     6  C   -0.004535   0.005008   0.072684   0.071721  -0.000875   0.004130
     7  C   -0.003832  -0.004449   0.153209   0.027745  -0.000492  -0.000135
     8  C   -0.000330  -0.000200  -0.000997  -0.001285   0.000574   0.000566
     9  N    0.000001   0.000023  -0.000072   0.000027  -0.000007  -0.000015
    10  O    0.000056  -0.000004  -0.000631   0.000837   0.000006   0.000011
    11  C    0.024200   0.003403  -0.071043   0.004059  -0.003513  -0.003017
    12  H    0.077000  -0.042340   0.012499   0.000002  -0.000035   0.000010
    13  H    0.586227  -0.046233   0.016079   0.000002   0.000002  -0.000026
    14  H   -0.046233   0.584836  -0.091534  -0.000040   0.000072   0.000039
    15  H    0.016079  -0.091534   1.635945   0.016958  -0.012956  -0.011109
    16  H    0.000002  -0.000040   0.016958   0.784526  -0.034625  -0.025991
    17  H    0.000002   0.000072  -0.012956  -0.034625   0.646850  -0.032690
    18  H   -0.000026   0.000039  -0.011109  -0.025991  -0.032690   0.644314
    19  H    0.000209  -0.000336   0.043233   0.007386   0.007459   0.010735
    20  H    0.000023  -0.000008   0.000017  -0.000006   0.000001   0.000001
    21  H   -0.000005   0.000000  -0.000001   0.000002   0.000000   0.000000
    22  H    0.018880  -0.010246   0.003217  -0.000339   0.000136   0.000160
              19         20         21         22
     1  C   -0.004891   0.000330  -0.000046  -0.076890
     2  C    0.221499  -0.005060   0.000796  -0.198102
     3  C    0.161652   0.000046  -0.000127   0.087697
     4  N   -0.769733  -0.000316  -0.000109  -0.061628
     5  C    0.012754  -0.000001   0.000006   0.004409
     6  C   -0.138682  -0.004728   0.000853   0.025825
     7  C   -0.567657  -0.051130   0.011085  -0.309557
     8  C   -0.052032   0.037262  -0.015306  -0.090930
     9  N    0.000400   0.337376   0.351669  -0.041947
    10  O    0.084682  -0.014347  -0.037844  -0.009860
    11  C    0.080260   0.007708   0.014476  -0.764442
    12  H    0.000184   0.000017   0.000001   0.027407
    13  H    0.000209   0.000023  -0.000005   0.018880
    14  H   -0.000336  -0.000008   0.000000  -0.010246
    15  H    0.043233   0.000017  -0.000001   0.003217
    16  H    0.007386  -0.000006   0.000002  -0.000339
    17  H    0.007459   0.000001   0.000000   0.000136
    18  H    0.010735   0.000001   0.000000   0.000160
    19  H    2.053638   0.001841   0.000053   0.029299
    20  H    0.001841   1.102988  -0.312771   0.016591
    21  H    0.000053  -0.312771   0.926492   0.005098
    22  H    0.029299   0.016591   0.005098   1.629904
          Atomic-Atomic Spin Densities.
               1          2          3          4          5          6
     1  C    0.053842   0.018845  -0.010538  -0.004550  -0.000466  -0.003369
     2  C    0.018845  -0.328890   0.003215   0.047365  -0.000779   0.063771
     3  C   -0.010538   0.003215   0.581018  -0.066024   0.015901  -0.014656
     4  N   -0.004550   0.047365  -0.066024   0.114095  -0.041231  -0.054327
     5  C   -0.000466  -0.000779   0.015901  -0.041231  -0.037291   0.016107
     6  C   -0.003369   0.063771  -0.014656  -0.054327   0.016107   0.083574
     7  C   -0.008529  -0.031491   0.043532   0.029723   0.002393  -0.006397
     8  C    0.000400  -0.016249   0.003264   0.000303  -0.000629   0.016245
     9  N   -0.000027   0.001094  -0.001020  -0.000288   0.000035  -0.000288
    10  O    0.000010   0.003037  -0.001590  -0.002220   0.000139  -0.007119
    11  C    0.000985  -0.047169  -0.079038   0.038827  -0.001826   0.035682
    12  H   -0.002197  -0.003452   0.006109  -0.000008  -0.000012   0.000578
    13  H   -0.009510   0.002770   0.004308  -0.000091   0.000010  -0.000751
    14  H    0.014095  -0.007017  -0.007998   0.000584  -0.000015   0.000297
    15  H    0.002978   0.030566   0.017120   0.037819   0.002657  -0.004839
    16  H    0.000003  -0.000868  -0.002376   0.008344   0.002967  -0.003296
    17  H    0.000015  -0.001235   0.001889   0.002492   0.003661  -0.000064
    18  H    0.000052  -0.000562   0.002001   0.000868   0.002941  -0.001617
    19  H    0.000205  -0.013477  -0.005443   0.061055   0.006014   0.026381
    20  H   -0.000009  -0.000189   0.000092   0.000106  -0.000001  -0.000038
    21  H   -0.000000  -0.000084   0.000068   0.000034  -0.000002  -0.000314
    22  H   -0.028035  -0.008497  -0.003084  -0.010131   0.000180  -0.013353
               7          8          9         10         11         12
     1  C   -0.008529   0.000400  -0.000027   0.000010   0.000985  -0.002197
     2  C   -0.031491  -0.016249   0.001094   0.003037  -0.047169  -0.003452
     3  C    0.043532   0.003264  -0.001020  -0.001590  -0.079038   0.006109
     4  N    0.029723   0.000303  -0.000288  -0.002220   0.038827  -0.000008
     5  C    0.002393  -0.000629   0.000035   0.000139  -0.001826  -0.000012
     6  C   -0.006397   0.016245  -0.000288  -0.007119   0.035682   0.000578
     7  C    0.070301  -0.106511   0.054758   0.032195  -0.043748  -0.000448
     8  C   -0.106511   0.476574  -0.193774  -0.160909  -0.021282   0.000352
     9  N    0.054758  -0.193774   0.111027   0.056634   0.011120  -0.000023
    10  O    0.032195  -0.160909   0.056634   0.109630  -0.004202  -0.000033
    11  C   -0.043748  -0.021282   0.011120  -0.004202   0.854079  -0.007550
    12  H   -0.000448   0.000352  -0.000023  -0.000033  -0.007550   0.009215
    13  H    0.000128  -0.000364   0.000043   0.000029  -0.005445  -0.008063
    14  H   -0.000571   0.000031  -0.000004  -0.000001   0.002365  -0.001535
    15  H   -0.011223  -0.000549   0.000028   0.000104  -0.006044  -0.001711
    16  H   -0.000387   0.000226  -0.000009  -0.000114  -0.000005   0.000000
    17  H   -0.001290   0.000231  -0.000007  -0.000127   0.000105   0.000002
    18  H   -0.000037  -0.000193   0.000007   0.000114  -0.000322   0.000003
    19  H   -0.001815  -0.026685   0.003304   0.016019  -0.012343  -0.000018
    20  H   -0.011100   0.030587  -0.021758  -0.007234   0.000139   0.000003
    21  H   -0.010696   0.038377  -0.029745  -0.011944  -0.000889  -0.000000
    22  H   -0.044302  -0.028714   0.005193   0.000988  -0.049406   0.002194
              13         14         15         16         17         18
     1  C   -0.009510   0.014095   0.002978   0.000003   0.000015   0.000052
     2  C    0.002770  -0.007017   0.030566  -0.000868  -0.001235  -0.000562
     3  C    0.004308  -0.007998   0.017120  -0.002376   0.001889   0.002001
     4  N   -0.000091   0.000584   0.037819   0.008344   0.002492   0.000868
     5  C    0.000010  -0.000015   0.002657   0.002967   0.003661   0.002941
     6  C   -0.000751   0.000297  -0.004839  -0.003296  -0.000064  -0.001617
     7  C    0.000128  -0.000571  -0.011223  -0.000387  -0.001290  -0.000037
     8  C   -0.000364   0.000031  -0.000549   0.000226   0.000231  -0.000193
     9  N    0.000043  -0.000004   0.000028  -0.000009  -0.000007   0.000007
    10  O    0.000029  -0.000001   0.000104  -0.000114  -0.000127   0.000114
    11  C   -0.005445   0.002365  -0.006044  -0.000005   0.000105  -0.000322
    12  H   -0.008063  -0.001535  -0.001711   0.000000   0.000002   0.000003
    13  H    0.009072  -0.003282  -0.000610  -0.000001   0.000006   0.000002
    14  H   -0.003282   0.005404   0.002515  -0.000000  -0.000006   0.000000
    15  H   -0.000610   0.002515  -0.119433  -0.001086   0.001908   0.001374
    16  H   -0.000001  -0.000000  -0.001086  -0.002113  -0.000889  -0.000547
    17  H    0.000006  -0.000006   0.001908  -0.000889   0.010400   0.000831
    18  H    0.000002   0.000000   0.001374  -0.000547   0.000831   0.012527
    19  H    0.000016  -0.000007  -0.003686  -0.001296  -0.001750   0.000024
    20  H    0.000010  -0.000001  -0.000004   0.000000   0.000000  -0.000000
    21  H    0.000000   0.000000  -0.000001   0.000000   0.000000  -0.000000
    22  H    0.005102  -0.002255   0.001050   0.000014   0.000017   0.000026
              19         20         21         22
     1  C    0.000205  -0.000009  -0.000000  -0.028035
     2  C   -0.013477  -0.000189  -0.000084  -0.008497
     3  C   -0.005443   0.000092   0.000068  -0.003084
     4  N    0.061055   0.000106   0.000034  -0.010131
     5  C    0.006014  -0.000001  -0.000002   0.000180
     6  C    0.026381  -0.000038  -0.000314  -0.013353
     7  C   -0.001815  -0.011100  -0.010696  -0.044302
     8  C   -0.026685   0.030587   0.038377  -0.028714
     9  N    0.003304  -0.021758  -0.029745   0.005193
    10  O    0.016019  -0.007234  -0.011944   0.000988
    11  C   -0.012343   0.000139  -0.000889  -0.049406
    12  H   -0.000018   0.000003  -0.000000   0.002194
    13  H    0.000016   0.000010   0.000000   0.005102
    14  H   -0.000007  -0.000001   0.000000  -0.002255
    15  H   -0.003686  -0.000004  -0.000001   0.001050
    16  H   -0.001296   0.000000   0.000000   0.000014
    17  H   -0.001750   0.000000   0.000000   0.000017
    18  H    0.000024  -0.000000  -0.000000   0.000026
    19  H   -0.066849  -0.000232  -0.000268   0.002567
    20  H   -0.000232   0.004955   0.007687  -0.000012
    21  H   -0.000268   0.007687   0.008899  -0.000438
    22  H    0.002567  -0.000012  -0.000438   0.078604
 Mulliken charges and spin densities:
               1          2
     1  C    0.789197   0.024198
     2  C   -1.645161  -0.289295
     3  C    0.254014   0.486748
     4  N   -0.895753   0.162746
     5  C    0.852104  -0.029247
     6  C    0.820099   0.132209
     7  C   -1.201909  -0.045513
     8  C    0.782919   0.010734
     9  N    0.020403  -0.003701
    10  O   -0.693398   0.023405
    11  C   -0.030231   0.664033
    12  H    0.093200  -0.006594
    13  H    0.095670  -0.006619
    14  H    0.133448   0.002600
    15  H    0.094932  -0.051067
    16  H   -0.114819  -0.001433
    17  H    0.090077   0.016189
    18  H    0.082001   0.017494
    19  H   -0.181954  -0.018285
    20  H   -0.115835   0.003002
    21  H    0.055676   0.000685
    22  H    0.715319  -0.092289
 Sum of Mulliken charges =  -0.00000   1.00000
 Mulliken charges and spin densities with hydrogens summed into heavy atoms:
               1          2
     1  C    1.111515   0.013585
     2  C   -1.645161  -0.289295
     3  C    0.348946   0.435681
     4  N   -0.895753   0.162746
     5  C    0.909364   0.003003
     6  C    0.638145   0.113924
     7  C   -1.201909  -0.045513
     8  C    0.782919   0.010734
     9  N   -0.039755  -0.000015
    10  O   -0.693398   0.023405
    11  C    0.685088   0.571744
 Electronic spatial extent (au):  <R**2>=           1959.6316
 Charge=             -0.0000 electrons
 Dipole moment (field-independent basis, Debye):
    X=             -3.4423    Y=              1.5447    Z=             -1.8491  Tot=              4.2018
 Quadrupole moment (field-independent basis, Debye-Ang):
   XX=            -59.4350   YY=            -55.4896   ZZ=            -69.2470
   XY=             16.3038   XZ=             -5.2771   YZ=              0.2444
 Traceless Quadrupole moment (field-independent basis, Debye-Ang):
   XX=              1.9556   YY=              5.9009   ZZ=             -7.8565
   XY=             16.3038   XZ=             -5.2771   YZ=              0.2444
 Octapole moment (field-independent basis, Debye-Ang**2):
  XXX=              4.0097  YYY=             -9.0442  ZZZ=             -0.3980  XYY=            -10.8512
  XXY=             32.9268  XXZ=            -16.8355  XZZ=              2.0154  YZZ=             -0.9845
  YYZ=             -6.3065  XYZ=             -1.7425
 Hexadecapole moment (field-independent basis, Debye-Ang**3):
 XXXX=          -1373.8603 YYYY=           -860.8252 ZZZZ=           -102.0841 XXXY=            165.6489
 XXXZ=            -53.6525 YYYX=             60.1086 YYYZ=             -4.9504 ZZZX=             -0.6686
 ZZZY=             -1.5376 XXYY=           -392.7664 XXZZ=           -286.3372 YYZZ=           -172.2030
 XXYZ=             -2.7599 YYXZ=            -15.4944 ZZXY=             10.2218
 N-N= 5.995840303393D+02 E-N=-2.350942763469D+03  KE= 4.904740630813D+02
                          Isotropic Fermi Contact Couplings
        Atom                 a.u.       MegaHertz       Gauss      10(-4) cm-1
     1  C(13)              0.00366       4.11521       1.46841       1.37269
     2  C(13)             -0.04855     -54.57445     -19.47352     -18.20408
     3  C(13)              0.04722      53.07912      18.93995      17.70529
     4  N(14)              0.07748      25.03443       8.93291       8.35059
     5  C(13)             -0.01366     -15.36173      -5.48145      -5.12412
     6  C(13)              0.00026       0.28804       0.10278       0.09608
     7  C(13)             -0.01627     -18.28551      -6.52472      -6.09939
     8  C(13)             -0.00055      -0.61882      -0.22081      -0.20642
     9  N(14)             -0.00158      -0.51192      -0.18267      -0.17076
    10  O(17)              0.01288      -7.80504      -2.78503      -2.60348
    11  C(13)              0.08029      90.25918      32.20672      30.10722
    12  H(1)              -0.00191      -8.53487      -3.04545      -2.84693
    13  H(1)              -0.00194      -8.68766      -3.09997      -2.89789
    14  H(1)              -0.00039      -1.72208      -0.61448      -0.57442
    15  H(1)              -0.00596     -26.62532      -9.50058      -8.88125
    16  H(1)               0.00009       0.38034       0.13571       0.12687
    17  H(1)               0.00442      19.74819       7.04665       6.58729
    18  H(1)               0.00475      21.24979       7.58246       7.08817
    19  H(1)              -0.00168      -7.51592      -2.68187      -2.50704
    20  H(1)               0.00005       0.23852       0.08511       0.07956
    21  H(1)              -0.00009      -0.39757      -0.14186      -0.13262
    22  H(1)              -0.00810     -36.18535     -12.91183     -12.07013
 --------------------------------------------------------
       Center         ----  Spin Dipole Couplings  ----
                      3XX-RR        3YY-RR        3ZZ-RR
 --------------------------------------------------------
     1   Atom        0.001440      0.003562     -0.005001
     2   Atom        0.065908      0.056400     -0.122308
     3   Atom       -0.176739     -0.179377      0.356116
     4   Atom       -0.316048     -0.309911      0.625959
     5   Atom       -0.001773      0.009681     -0.007908
     6   Atom       -0.035445     -0.049416      0.084861
     7   Atom       -0.021331     -0.012261      0.033592
     8   Atom       -0.004295     -0.007490      0.011785
     9   Atom        0.004763      0.003127     -0.007891
    10   Atom       -0.043283     -0.046439      0.089722
    11   Atom       -0.261700     -0.248904      0.510604
    12   Atom        0.000763      0.002388     -0.003151
    13   Atom        0.000716      0.002069     -0.002785
    14   Atom       -0.000076      0.002809     -0.002732
    15   Atom        0.024103     -0.025654      0.001550
    16   Atom       -0.004416      0.008440     -0.004024
    17   Atom       -0.000261      0.004416     -0.004155
    18   Atom       -0.000398      0.003977     -0.003579
    19   Atom       -0.002974      0.006598     -0.003624
    20   Atom        0.004979     -0.002501     -0.002478
    21   Atom        0.002450     -0.000767     -0.001683
    22   Atom       -0.021602      0.017208      0.004394
 --------------------------------------------------------
                        XY            XZ            YZ
 --------------------------------------------------------
     1   Atom       -0.003059     -0.000379      0.000822
     2   Atom        0.008107     -0.000402      0.009299
     3   Atom       -0.003384     -0.001015     -0.022620
     4   Atom        0.000674      0.002024     -0.038451
     5   Atom        0.006587      0.000186      0.000651
     6   Atom        0.001246      0.004839      0.003598
     7   Atom       -0.005704      0.009560     -0.005710
     8   Atom       -0.002367     -0.001662      0.009310
     9   Atom        0.000413     -0.002154      0.002542
    10   Atom       -0.015429     -0.044308      0.043380
    11   Atom        0.004576      0.009560     -0.062646
    12   Atom       -0.003018      0.000923     -0.000997
    13   Atom       -0.002843     -0.001348      0.001635
    14   Atom       -0.003913     -0.000263      0.000321
    15   Atom        0.003882      0.000164     -0.001249
    16   Atom        0.001303      0.000026      0.000387
    17   Atom        0.005493     -0.001707     -0.002859
    18   Atom        0.005225      0.002132      0.003591
    19   Atom       -0.007459     -0.000301      0.000665
    20   Atom        0.002665     -0.001356     -0.000975
    21   Atom        0.000678     -0.000473      0.000046
    22   Atom        0.029470      0.001999      0.000387
 --------------------------------------------------------


 ---------------------------------------------------------------------------------
              Anisotropic Spin Dipole Couplings in Principal Axis System
 ---------------------------------------------------------------------------------

       Atom             a.u.   MegaHertz   Gauss  10(-4) cm-1        Axes

              Baa    -0.0051    -0.682    -0.243    -0.227  0.0161 -0.0890  0.9959
     1 C(13)  Bbb    -0.0007    -0.098    -0.035    -0.033  0.8172  0.5751  0.0382
              Bcc     0.0058     0.780     0.278     0.260 -0.5761  0.8132  0.0820
 
              Baa    -0.1228   -16.478    -5.880    -5.496  0.0044 -0.0520  0.9986
     2 C(13)  Bbb     0.0521     6.997     2.497     2.334 -0.5059  0.8613  0.0471
              Bcc     0.0706     9.480     3.383     3.162  0.8626  0.5055  0.0226
 
              Baa    -0.1824   -24.477    -8.734    -8.164  0.5175  0.8549  0.0369
     3 C(13)  Bbb    -0.1747   -23.439    -8.364    -7.818  0.8557 -0.5171 -0.0204
              Bcc     0.3571    47.916    17.097    15.983 -0.0016 -0.0421  0.9991
 
              Baa    -0.3162   -12.194    -4.351    -4.068  0.9872 -0.1591 -0.0086
     4 N(14)  Bbb    -0.3114   -12.009    -4.285    -4.006  0.1593  0.9864  0.0401
              Bcc     0.6275    24.203     8.636     8.073  0.0021 -0.0410  0.9992
 
              Baa    -0.0079    -1.065    -0.380    -0.355  0.0155 -0.0428  0.9990
     5 C(13)  Bbb    -0.0048    -0.640    -0.228    -0.214  0.9100 -0.4133 -0.0318
              Bcc     0.0127     1.705     0.608     0.569  0.4142  0.9096  0.0325
 
              Baa    -0.0496    -6.656    -2.375    -2.220 -0.0796  0.9965 -0.0238
     6 C(13)  Bbb    -0.0356    -4.771    -1.702    -1.591  0.9960  0.0785 -0.0424
              Bcc     0.0852    11.427     4.077     3.812  0.0404  0.0271  0.9988
 
              Baa    -0.0248    -3.327    -1.187    -1.110  0.9229  0.3675 -0.1152
     7 C(13)  Bbb    -0.0113    -1.518    -0.542    -0.506 -0.3427  0.9201  0.1899
              Bcc     0.0361     4.846     1.729     1.616  0.1758 -0.1358  0.9750
 
              Baa    -0.0116    -1.557    -0.555    -0.519  0.2164  0.9123 -0.3478
     8 C(13)  Bbb    -0.0042    -0.569    -0.203    -0.190  0.9689 -0.1568  0.1916
              Bcc     0.0158     2.126     0.759     0.709 -0.1202  0.3784  0.9178
 
              Baa    -0.0088    -0.340    -0.121    -0.113  0.1595 -0.2110  0.9644
     9 N(14)  Bbb     0.0037     0.142     0.051     0.047  0.0398  0.9775  0.2073
              Bcc     0.0051     0.197     0.070     0.066  0.9864 -0.0053 -0.1643
 
              Baa    -0.0606     4.385     1.565     1.463  0.5254  0.8461 -0.0893
    10 O(17)  Bbb    -0.0555     4.019     1.434     1.341  0.8027 -0.4582  0.3817
              Bcc     0.1161    -8.404    -2.999    -2.803 -0.2820  0.2722  0.9200
 
              Baa    -0.2645   -35.497   -12.666   -11.841  0.8911 -0.4513 -0.0475
    11 C(13)  Bbb    -0.2513   -33.724   -12.034   -11.249  0.4536  0.8886  0.0674
              Bcc     0.5158    69.221    24.700    23.090  0.0118 -0.0816  0.9966
 
              Baa    -0.0034    -1.807    -0.645    -0.603 -0.1538  0.0895  0.9840
    12 H(1)   Bbb    -0.0015    -0.823    -0.294    -0.274  0.7831  0.6183  0.0662
              Bcc     0.0049     2.629     0.938     0.877 -0.6025  0.7808 -0.1652
 
              Baa    -0.0034    -1.798    -0.642    -0.600  0.1827 -0.1943  0.9638
    13 H(1)   Bbb    -0.0015    -0.816    -0.291    -0.272  0.7796  0.6259 -0.0216
              Bcc     0.0049     2.614     0.933     0.872 -0.5990  0.7553  0.2658
 
              Baa    -0.0028    -1.504    -0.537    -0.502  0.7512  0.4976  0.4337
    14 H(1)   Bbb    -0.0027    -1.461    -0.521    -0.487 -0.3305 -0.2852  0.8997
              Bcc     0.0056     2.965     1.058     0.989 -0.5713  0.8192  0.0498
 
              Baa    -0.0260   -13.879    -4.952    -4.629 -0.0773  0.9960  0.0456
    15 H(1)   Bbb     0.0016     0.858     0.306     0.286  0.0006 -0.0457  0.9990
              Bcc     0.0244    13.021     4.646     4.343  0.9970  0.0772  0.0029
 
              Baa    -0.0045    -2.426    -0.866    -0.809  0.9946 -0.1005  0.0243
    16 H(1)   Bbb    -0.0040    -2.153    -0.768    -0.718 -0.0273 -0.0281  0.9992
              Bcc     0.0086     4.579     1.634     1.527  0.0998  0.9945  0.0307
 
              Baa    -0.0050    -2.679    -0.956    -0.894  0.0263  0.2758  0.9609
    17 H(1)   Bbb    -0.0039    -2.067    -0.737    -0.689  0.8464 -0.5176  0.1254
              Bcc     0.0089     4.746     1.694     1.583  0.5320  0.8099 -0.2470
 
              Baa    -0.0050    -2.675    -0.955    -0.892 -0.0267 -0.3573  0.9336
    18 H(1)   Bbb    -0.0038    -2.048    -0.731    -0.683  0.8533 -0.4947 -0.1649
              Bcc     0.0089     4.724     1.685     1.576  0.5207  0.7922  0.3181
 
              Baa    -0.0071    -3.762    -1.342    -1.255  0.8771  0.4801 -0.0162
    19 H(1)   Bbb    -0.0037    -1.953    -0.697    -0.651  0.0385 -0.0368  0.9986
              Bcc     0.0107     5.715     2.039     1.906 -0.4788  0.8765  0.0507
 
              Baa    -0.0036    -1.946    -0.695    -0.649 -0.1848  0.8496  0.4941
    20 H(1)   Bbb    -0.0025    -1.322    -0.472    -0.441  0.3074 -0.4275  0.8501
              Bcc     0.0061     3.269     1.166     1.090  0.9335  0.3090 -0.1822
 
              Baa    -0.0018    -0.935    -0.334    -0.312  0.1326 -0.1366  0.9817
    21 H(1)   Bbb    -0.0009    -0.470    -0.168    -0.157 -0.1753  0.9716  0.1589
              Bcc     0.0026     1.406     0.502     0.469  0.9755  0.1932 -0.1049
 
              Baa    -0.0375   -20.030    -7.147    -6.681  0.8800 -0.4734 -0.0376
    22 H(1)   Bbb     0.0044     2.345     0.837     0.782  0.0118 -0.0573  0.9983
              Bcc     0.0331    17.685     6.311     5.899  0.4748  0.8790  0.0448
 

 ---------------------------------------------------------------------------------

   1 Symmetry operations used in ECPInt.
 ECPInt:  NShTT=    8911 NPrTT=   24707 LenC2=    8782 LenP2D=   20148.
 LDataN:  DoStor=T MaxTD1= 5 Len=  102
 D1PCM: PCM CHGder 1st derivatives, ID1Alg=3 FixD1E=F DoIter=F DoCFld=F I1PDM=0.
 Calling FoFJK, ICntrl=      2127 FMM=F ISym2X=0 I1Cent= 0 IOpClX= 1 NMat=1 NMatS=1 NMatT=0.
 ***** Axes restored to original set *****
 -------------------------------------------------------------------
 Center     Atomic                   Forces (Hartrees/Bohr)
 Number     Number              X              Y              Z
 -------------------------------------------------------------------
      1        6           0.002742285    0.003890982   -0.000076676
      2        6          -0.002516791    0.018256908    0.000284396
      3        6          -0.038215586   -0.046160193    0.002631000
      4        7           0.011201399    0.047476207   -0.002218580
      5        6          -0.000245654   -0.003671613    0.000670976
      6        6           0.036197643   -0.029824225   -0.000297740
      7        6           0.030904054    0.040685689   -0.005276325
      8        6          -0.050637772   -0.007555913    0.011312408
      9        7           0.010190850   -0.001976471   -0.002408762
     10        8           0.032028275    0.020769794   -0.012299273
     11        6          -0.015251609   -0.034272927    0.004498721
     12        1           0.000127202   -0.004912076    0.006292409
     13        1          -0.000192214   -0.005321845   -0.005977384
     14        1          -0.007713679    0.002653983   -0.000002730
     15        1          -0.005541819    0.003087470   -0.000134037
     16        1           0.004582078    0.001508769   -0.000196923
     17        1          -0.003873455    0.000817766   -0.005139221
     18        1          -0.003485904    0.001663231    0.005351350
     19        1           0.000272777    0.005999888   -0.000079449
     20        1          -0.005115833   -0.002303826    0.002162125
     21        1           0.002225847   -0.002556417    0.000901466
     22        1           0.002317904   -0.008255179    0.000002249
 -------------------------------------------------------------------
 Cartesian Forces:  Max     0.050637772 RMS     0.016328704

 GradGradGradGradGradGradGradGradGradGradGradGradGradGradGradGradGradGrad
 Berny optimization.
 FormGI is forming the generalized inverse of G from B-inverse, IUseBI=4.
 Internal  Forces:  Max     0.052571767 RMS     0.009425422
 Search for a local minimum.
 Step number   1 out of a maximum of  112
 All quantities printed in internal units (Hartrees-Bohrs-Radians)
 Mixed Optimization -- RFO/linear search
 Second derivative matrix not updated -- first step.
 ITU=  0
     Eigenvalues ---    0.00521   0.00938   0.01084   0.01554   0.01660
     Eigenvalues ---    0.01736   0.01954   0.02171   0.02201   0.02284
     Eigenvalues ---    0.02374   0.02425   0.02469   0.02527   0.02528
     Eigenvalues ---    0.07265   0.07525   0.07539   0.07599   0.15995
     Eigenvalues ---    0.15997   0.15999   0.16000   0.16000   0.16000
     Eigenvalues ---    0.16000   0.16000   0.16000   0.16000   0.16000
     Eigenvalues ---    0.23412   0.23488   0.23511   0.24930   0.24999
     Eigenvalues ---    0.25000   0.25000   0.25000   0.30512   0.33782
     Eigenvalues ---    0.34710   0.34731   0.34926   0.34933   0.35112
     Eigenvalues ---    0.35346   0.35797   0.35945   0.36041   0.38777
     Eigenvalues ---    0.43145   0.44135   0.46185   0.46976   0.47168
     Eigenvalues ---    0.47853   0.55209   0.56932   0.58359   1.01310
 RFO step:  Lambda=-1.79627478D-02 EMin= 5.21258961D-03
 Linear search not attempted -- first point.
 Iteration  1 RMS(Cart)=  0.04881434 RMS(Int)=  0.00157986
 Iteration  2 RMS(Cart)=  0.00207496 RMS(Int)=  0.00012315
 Iteration  3 RMS(Cart)=  0.00000374 RMS(Int)=  0.00012313
 Iteration  4 RMS(Cart)=  0.00000000 RMS(Int)=  0.00012313
 Variable       Old X    -DE/DX   Delta X   Delta X   Delta X     New X
                                 (Linear)    (Quad)   (Total)
    R1        2.80999   0.00618   0.00000   0.01738   0.01738   2.82737
    R2        2.05784   0.00793   0.00000   0.02160   0.02160   2.07944
    R3        2.05796   0.00795   0.00000   0.02164   0.02164   2.07960
    R4        2.05116   0.00813   0.00000   0.02188   0.02188   2.07304
    R5        2.61748  -0.00537   0.00000  -0.01019  -0.01019   2.60729
    R6        2.64646   0.01477   0.00000   0.02940   0.02946   2.67592
    R7        2.53386   0.05257   0.00000   0.09125   0.09119   2.62505
    R8        2.04168   0.00622   0.00000   0.01648   0.01648   2.05817
    R9        2.73250   0.00113   0.00000   0.00278   0.00278   2.73528
   R10        2.51032   0.03183   0.00000   0.05299   0.05293   2.56326
   R11        2.05494   0.00458   0.00000   0.01241   0.01241   2.06735
   R12        2.06115   0.00648   0.00000   0.01775   0.01775   2.07890
   R13        2.06149   0.00660   0.00000   0.01808   0.01808   2.07957
   R14        2.62755  -0.01365   0.00000  -0.02825  -0.02826   2.59928
   R15        2.04400   0.00450   0.00000   0.01196   0.01196   2.05596
   R16        2.86954  -0.01208   0.00000  -0.03739  -0.03739   2.83216
   R17        2.61948   0.04338   0.00000   0.08495   0.08500   2.70449
   R18        2.53454   0.00870   0.00000   0.01481   0.01481   2.54936
   R19        2.28119   0.03812   0.00000   0.03697   0.03697   2.31816
   R20        1.89746   0.00547   0.00000   0.01121   0.01121   1.90868
   R21        1.90623   0.00256   0.00000   0.00534   0.00534   1.91157
   R22        2.04018   0.00857   0.00000   0.02265   0.02265   2.06284
    A1        1.92457   0.00090   0.00000   0.00515   0.00514   1.92971
    A2        1.92161   0.00109   0.00000   0.00620   0.00619   1.92779
    A3        1.94893   0.00053   0.00000   0.00276   0.00275   1.95168
    A4        1.87061  -0.00089   0.00000  -0.00457  -0.00459   1.86602
    A5        1.89817  -0.00081   0.00000  -0.00472  -0.00472   1.89345
    A6        1.89800  -0.00092   0.00000  -0.00538  -0.00539   1.89261
    A7        2.11591  -0.00453   0.00000  -0.01598  -0.01604   2.09988
    A8        2.11195  -0.00148   0.00000  -0.00457  -0.00462   2.10733
    A9        2.05531   0.00601   0.00000   0.02056   0.02067   2.07598
   A10        2.12920  -0.00452   0.00000  -0.01295  -0.01296   2.11623
   A11        2.11304   0.00353   0.00000   0.01363   0.01363   2.12666
   A12        2.04092   0.00099   0.00000  -0.00062  -0.00063   2.04029
   A13        2.07523  -0.00099   0.00000  -0.00747  -0.00744   2.06779
   A14        2.10221  -0.00285   0.00000  -0.00305  -0.00313   2.09908
   A15        2.10574   0.00384   0.00000   0.01055   0.01058   2.11631
   A16        1.92687  -0.00229   0.00000  -0.01362  -0.01363   1.91324
   A17        1.92188   0.00014   0.00000   0.00113   0.00112   1.92300
   A18        1.92246   0.00057   0.00000   0.00358   0.00358   1.92603
   A19        1.90000   0.00091   0.00000   0.00432   0.00431   1.90430
   A20        1.90101   0.00072   0.00000   0.00339   0.00339   1.90440
   A21        1.89101   0.00001   0.00000   0.00152   0.00151   1.89252
   A22        2.11837  -0.00089   0.00000  -0.00050  -0.00055   2.11782
   A23        2.08718  -0.00360   0.00000  -0.02241  -0.02242   2.06477
   A24        2.07746   0.00450   0.00000   0.02311   0.02311   2.10057
   A25        2.01127   0.00260   0.00000   0.01281   0.01248   2.02376
   A26        2.07234   0.00437   0.00000   0.01274   0.01254   2.08488
   A27        2.19733  -0.00688   0.00000  -0.02273  -0.02308   2.17424
   A28        2.03090  -0.00749   0.00000  -0.02795  -0.02795   2.00295
   A29        2.07771   0.01788   0.00000   0.06674   0.06674   2.14445
   A30        2.17453  -0.01039   0.00000  -0.03877  -0.03877   2.13576
   A31        2.16601  -0.00466   0.00000  -0.02602  -0.02602   2.13999
   A32        2.04975   0.00462   0.00000   0.02610   0.02610   2.07585
   A33        2.05957   0.00005   0.00000   0.00044   0.00044   2.06001
   A34        2.08874  -0.00211   0.00000  -0.01661  -0.01645   2.07229
   A35        2.07625   0.00127   0.00000   0.00954   0.00945   2.08570
   A36        2.11790   0.00084   0.00000   0.00717   0.00709   2.12499
    D1       -2.11773   0.00011   0.00000   0.00174   0.00170  -2.11602
    D2        1.02784   0.00001   0.00000  -0.00054  -0.00050   1.02734
    D3        2.10492  -0.00001   0.00000   0.00040   0.00035   2.10527
    D4       -1.03270  -0.00012   0.00000  -0.00188  -0.00185  -1.03455
    D5       -0.00528   0.00005   0.00000   0.00114   0.00110  -0.00418
    D6        3.14028  -0.00005   0.00000  -0.00114  -0.00110   3.13918
    D7       -3.12413  -0.00040   0.00000  -0.00904  -0.00894  -3.13307
    D8        0.00826  -0.00005   0.00000  -0.00042  -0.00035   0.00791
    D9        0.01362  -0.00031   0.00000  -0.00688  -0.00683   0.00679
   D10       -3.13718   0.00003   0.00000   0.00173   0.00176  -3.13542
   D11        3.13452  -0.00010   0.00000  -0.00155  -0.00143   3.13309
   D12        0.01860  -0.00032   0.00000  -0.00593  -0.00577   0.01283
   D13       -0.00324  -0.00018   0.00000  -0.00367  -0.00352  -0.00676
   D14       -3.11915  -0.00039   0.00000  -0.00806  -0.00786  -3.12701
   D15        3.12958   0.00054   0.00000   0.01431   0.01427  -3.13934
   D16       -0.00693   0.00037   0.00000   0.00945   0.00942   0.00249
   D17       -0.00317   0.00020   0.00000   0.00595   0.00600   0.00284
   D18       -3.13968   0.00003   0.00000   0.00110   0.00116  -3.13852
   D19       -3.11439  -0.00010   0.00000  -0.00365  -0.00367  -3.11806
   D20       -1.01590  -0.00035   0.00000  -0.00627  -0.00628  -1.02218
   D21        1.06866   0.00011   0.00000  -0.00143  -0.00144   1.06721
   D22        0.02211   0.00005   0.00000   0.00117   0.00118   0.02329
   D23        2.12061  -0.00020   0.00000  -0.00145  -0.00143   2.11918
   D24       -2.07803   0.00026   0.00000   0.00339   0.00341  -2.07462
   D25       -0.01049  -0.00017   0.00000  -0.00158  -0.00148  -0.01197
   D26        3.11131   0.00033   0.00000   0.01016   0.01022   3.12152
   D27        3.13627  -0.00033   0.00000  -0.00647  -0.00641   3.12986
   D28       -0.02512   0.00017   0.00000   0.00528   0.00529  -0.01983
   D29        3.09426   0.00095   0.00000   0.03307   0.03372   3.12797
   D30        0.02034  -0.00021   0.00000  -0.00850  -0.00861   0.01173
   D31       -0.02765   0.00054   0.00000   0.02189   0.02229  -0.00536
   D32       -3.10157  -0.00062   0.00000  -0.01968  -0.02003  -3.12160
   D33        2.78979   0.00049   0.00000   0.03532   0.03543   2.82522
   D34       -0.36231   0.00047   0.00000   0.03707   0.03724  -0.32507
   D35       -0.42507   0.00229   0.00000   0.08206   0.08188  -0.34318
   D36        2.70602   0.00227   0.00000   0.08381   0.08370   2.78972
   D37       -0.01301   0.00021   0.00000   0.01066   0.01076  -0.00225
   D38        3.10228   0.00044   0.00000   0.01518   0.01523   3.11751
   D39       -3.07902  -0.00155   0.00000  -0.03749  -0.03714  -3.11615
   D40        0.03627  -0.00132   0.00000  -0.03298  -0.03267   0.00360
   D41       -0.12622   0.00033   0.00000   0.00695   0.00692  -0.11930
   D42       -3.13046   0.00012   0.00000   0.00209   0.00206  -3.12839
   D43        3.02653   0.00016   0.00000   0.00438   0.00441   3.03094
   D44        0.02229  -0.00005   0.00000  -0.00048  -0.00045   0.02184
         Item               Value     Threshold  Converged?
 Maximum Force            0.052572     0.000450     NO 
 RMS     Force            0.009425     0.000300     NO 
 Maximum Displacement     0.217203     0.001800     NO 
 RMS     Displacement     0.049038     0.001200     NO 
 Predicted change in Energy=-9.528449D-03
 GradGradGradGradGradGradGradGradGradGradGradGradGradGradGradGradGradGrad

                          Input orientation:                          
 ---------------------------------------------------------------------
 Center     Atomic      Atomic             Coordinates (Angstroms)
 Number     Number       Type             X           Y           Z
 ---------------------------------------------------------------------
      1          6           0       -2.237477   -1.813656    0.161648
      2          6           0       -1.174364   -0.763058    0.093898
      3          6           0       -1.517230    0.572471    0.044604
      4          7           0       -0.546563    1.563468   -0.028736
      5          6           0       -0.973607    2.945719   -0.074714
      6          6           0        0.768395    1.231819   -0.056319
      7          6           0        1.176647   -0.080427    0.001043
      8          6           0        2.656565   -0.310004   -0.056225
      9          7           0        3.057425   -1.522780    0.377886
     10          8           0        3.445239    0.531975   -0.473235
     11          6           0        0.195871   -1.119894    0.077120
     12          1           0       -2.117203   -2.427426    1.067009
     13          1           0       -2.160604   -2.494650   -0.699392
     14          1           0       -3.243387   -1.376036    0.169183
     15          1           0       -2.555774    0.900169    0.060584
     16          1           0       -0.098963    3.597960   -0.154717
     17          1           0       -1.627637    3.112158   -0.943491
     18          1           0       -1.533466    3.203880    0.836835
     19          1           0        1.500850    2.032616   -0.133186
     20          1           0        2.425683   -2.183206    0.807883
     21          1           0        4.045201   -1.740840    0.377593
     22          1           0        0.477100   -2.174359    0.101927
 ---------------------------------------------------------------------
                    Distance matrix (angstroms):
                    1          2          3          4          5
     1  C    0.000000
     2  C    1.496181   0.000000
     3  C    2.495206   1.379718   0.000000
     4  N    3.781587   2.412860   1.389118   0.000000
     5  C    4.929998   3.718031   2.437636   1.447446   0.000000
     6  C    4.284588   2.788622   2.380968   1.356417   2.443842
     7  C    3.832247   2.449869   2.772209   2.381749   3.713071
     8  C    5.124459   3.860545   4.267258   3.710887   4.876292
     9  N    5.307292   4.308812   5.042679   4.762247   6.035027
    10  O    6.180479   4.831095   4.989578   4.146810   5.050859
    11  C    2.531725   1.416035   2.408291   2.786188   4.233195
    12  H    1.100391   2.146163   3.225626   4.426602   5.610885
    13  H    1.100478   2.144852   3.220977   4.418510   5.603285
    14  H    1.097006   2.159228   2.606111   3.994085   4.887632
    15  H    2.734295   2.162343   1.089135   2.117752   2.589562
    16  H    5.827427   4.498529   3.347356   2.086953   1.093993
    17  H    5.084966   4.037193   2.727368   2.098557   1.100105
    18  H    5.111475   4.051852   2.748129   2.100986   1.100459
    19  H    5.371761   3.876096   3.357445   2.103071   2.638203
    20  H    4.722208   3.935343   4.870617   4.855074   6.216110
    21  H    6.286810   5.317932   6.033484   5.671671   6.881632
    22  H    2.739088   2.172365   3.394954   3.877668   5.324561
                    6          7          8          9         10
     6  C    0.000000
     7  C    1.375482   0.000000
     8  C    2.437704   1.498713   0.000000
     9  N    3.607770   2.399941   1.349061   0.000000
    10  O    2.798051   2.397183   1.226717   2.257615   0.000000
    11  C    2.424076   1.431154   2.593977   2.905386   3.686456
    12  H    4.793602   4.182599   5.341722   5.298117   6.486229
    13  H    4.783216   4.178077   5.328363   5.415984   6.374722
    14  H    4.790214   4.609075   5.999722   6.305975   6.985050
    15  H    3.342717   3.859544   5.352255   6.122039   6.035949
    16  H    2.522026   3.896405   4.782762   6.038909   4.697135
    17  H    3.172337   4.353017   5.554532   6.721495   5.710740
    18  H    3.159955   4.339347   5.540875   6.605166   5.800246
    19  H    1.087967   2.141979   2.613325   3.914710   2.479557
    20  H    3.893051   2.575415   2.075783   1.010029   3.170642
    21  H    4.445496   3.335770   2.040539   1.011560   2.499911
    22  H    3.422272   2.209999   2.872438   2.675591   4.057697
                   11         12         13         14         15
    11  C    0.000000
    12  H    2.835460   0.000000
    13  H    2.836529   1.768212   0.000000
    14  H    3.450011   1.783200   1.782734   0.000000
    15  H    3.413572   3.504016   3.501217   2.380276   0.000000
    16  H    4.732739   6.470795   6.454993   5.893466   3.655181
    17  H    4.719861   5.913441   5.637370   4.898222   2.600481
    18  H    4.718347   5.666158   5.935196   4.934088   2.637189
    19  H    3.418408   5.867090   5.850040   5.849625   4.216180
    20  H    2.576181   4.556819   4.837654   5.761754   5.905977
    21  H    3.910653   6.238743   6.343512   7.300687   7.116762
    22  H    1.091605   2.779538   2.775280   3.805767   4.318884
                   16         17         18         19         20
    16  H    0.000000
    17  H    1.787460   0.000000
    18  H    1.787812   1.785173   0.000000
    19  H    2.238340   3.407262   3.394093   0.000000
    20  H    6.381404   6.894751   6.685536   4.417474   0.000000
    21  H    6.779398   7.581421   7.468781   4.579693   1.733112
    22  H    5.806667   5.785333   5.788603   4.336125   2.072541
                   21         22
    21  H    0.000000
    22  H    3.604896   0.000000
 Stoichiometry    C8H11N2O(2)
 Framework group  C1[X(C8H11N2O)]
 Deg. of freedom    60
 Full point group                 C1      NOp   1
 Largest Abelian subgroup         C1      NOp   1
 Largest concise Abelian subgroup C1      NOp   1
                         Standard orientation:                         
 ---------------------------------------------------------------------
 Center     Atomic      Atomic             Coordinates (Angstroms)
 Number     Number       Type             X           Y           Z
 ---------------------------------------------------------------------
      1          6           0       -2.166349    2.460997    0.103687
      2          6           0       -1.359355    1.202373    0.047252
      3          6           0       -1.986705   -0.025190   -0.008809
      4          7           0       -1.256736   -1.206274   -0.051656
      5          6           0       -1.976504   -2.460600   -0.112467
      6          6           0        0.099182   -1.172945   -0.036079
      7          6           0        0.785110    0.018491    0.007911
      8          6           0        2.279850   -0.086006    0.039104
      9          7           0        2.932512    1.044791   -0.300449
     10          8           0        2.868858   -1.114034    0.357008
     11          6           0        0.055898    1.249124    0.052545
     12          1           0       -1.924261    3.113890   -0.748360
     13          1           0       -1.932137    3.027343    1.017716
     14          1           0       -3.243849    2.255549    0.089339
     15          1           0       -3.071983   -0.115948   -0.021031
     16          1           0       -1.265702   -3.292204   -0.116354
     17          1           0       -2.641394   -2.559217    0.758410
     18          1           0       -2.589530   -2.506262   -1.025224
     19          1           0        0.638603   -2.117644   -0.051570
     20          1           0        2.456558    1.863406   -0.651868
     21          1           0        3.944003    1.041503   -0.311781
     22          1           0        0.561640    2.214766    0.110536
 ---------------------------------------------------------------------
 Rotational constants (GHZ):           1.5653198           0.8572908           0.5631887
 Basis read from rwf:  (5D, 7F)
 Pseudo-potential data read from rwf file.
 There are   333 symmetry adapted cartesian basis functions of A   symmetry.
 There are   311 symmetry adapted basis functions of A   symmetry.
   311 basis functions,   465 primitive gaussians,   333 cartesian basis functions
    41 alpha electrons       40 beta electrons
       nuclear repulsion energy       594.7977120083 Hartrees.
 NAtoms=   22 NActive=   22 NUniq=   22 SFac= 1.00D+00 NAtFMM=   60 NAOKFM=F Big=F
 Integral buffers will be    131072 words long.
 Raffenetti 2 integral format.
 Two-electron integral symmetry is turned on.
 Nuclear repulsion after empirical dispersion term =      594.7778776448 Hartrees.
 ------------------------------------------------------------------------------
 Polarizable Continuum Model (PCM)
 =================================
 Model                : PCM.
 Atomic radii         : SMD-Coulomb.
 Polarization charges : Total charges.
 Charge compensation  : None.
 Solution method      : On-the-fly selection.
 Cavity type          : VdW (van der Waals Surface) (Alpha=1.000).
 Cavity algorithm     : GePol (No added spheres)
                        Default sphere list used, NSphG=   22.
                        Lebedev-Laikov grids with approx.  5.0 points / Ang**2.
                        Smoothing algorithm: York/Karplus (Gamma=1.0000).
                        Polarization charges: spherical gaussians, with
                                              point-specific exponents (IZeta= 3).
                        Self-potential: point-specific (ISelfS= 7).
                        Self-field    : sphere-specific E.n sum rule (ISelfD= 2).
 1st derivatives      : Analytical E(r).r(x)/FMM algorithm (CHGder, D1EAlg=3).
                        Cavity 1st derivative terms included.
 Solvent              : DiMethylSulfoxide, Eps=  46.826000 Eps(inf)=   2.007889
 ------------------------------------------------------------------------------
 ------------------------------------------------------------------------------
 Atomic radii for non-electrostatic terms: SMD-CDS.
 ------------------------------------------------------------------------------
 Nuclear repulsion after PCM non-electrostatic terms =      594.7783102976 Hartrees.
 One-electron integrals computed using PRISM.
   1 Symmetry operations used in ECPInt.
 ECPInt:  NShTT=    8911 NPrTT=   24707 LenC2=    8781 LenP2D=   20114.
 LDataN:  DoStor=T MaxTD1= 4 Len=   56
 NBasis=   311 RedAO= T EigKep=  1.11D-05  NBF=   311
 NBsUse=   311 1.00D-06 EigRej= -1.00D+00 NBFU=   311
 Initial guess from the checkpoint file:  "/scratch/aplatt/job_46371443/Gau-3795827.chk"
 B after Tr=    -0.000000   -0.000000   -0.000000
         Rot=    0.999981   -0.000442   -0.001550   -0.005937 Ang=  -0.70 deg.
 Initial guess <Sx>= 0.0000 <Sy>= 0.0000 <Sz>= 0.5000 <S**2>= 0.7667 S= 0.5083
 ExpMin= 6.71D-02 ExpMax= 2.27D+03 ExpMxC= 3.41D+02 IAcc=3 IRadAn=         5 AccDes= 0.00D+00
 Harris functional with IExCor= 1009 and IRadAn=       5 diagonalized for initial guess.
 HarFok:  IExCor= 1009 AccDes= 0.00D+00 IRadAn=         5 IDoV= 1 UseB2=F ITyADJ=14
 ICtDFT=  3500011 ScaDFX=  1.000000  1.000000  1.000000  1.000000
 FoFCou: FMM=F IPFlag=           0 FMFlag=      100000 FMFlg1=           0
         NFxFlg=           0 DoJE=T BraDBF=F KetDBF=T FulRan=T
         wScrn=  0.000000 ICntrl=       500 IOpCl=  0 I1Cent=   200000004 NGrid=           0
         NMat0=    1 NMatS0=      1 NMatT0=    0 NMatD0=    1 NMtDS0=    0 NMtDT0=    0
 Petite list used in FoFCou.
 Requested convergence on RMS density matrix=1.00D-08 within 128 cycles.
 Requested convergence on MAX density matrix=1.00D-06.
 Requested convergence on             energy=1.00D-06.
 No special actions if energy rises.
 Inv3:  Mode=1 IEnd=     9473187.
 Iteration    1 A*A^-1 deviation from unit magnitude is 3.33D-15 for    235.
 Iteration    1 A*A^-1 deviation from orthogonality  is 2.46D-15 for   1119    473.
 Iteration    1 A^-1*A deviation from unit magnitude is 3.55D-15 for    235.
 Iteration    1 A^-1*A deviation from orthogonality  is 4.00D-14 for   1210   1118.
 Error on total polarization charges =  0.03925
 SCF Done:  E(UPBE1PBE) =  -495.323094061     A.U. after   18 cycles
            NFock= 18  Conv=0.37D-08     -V/T= 2.0109
 <Sx>= 0.0000 <Sy>= 0.0000 <Sz>= 0.5000 <S**2>= 0.7682 S= 0.5090
 <L.S>= 0.000000000000E+00
 SMD-CDS (non-electrostatic) energy       (kcal/mol) =       0.27
 (included in total energy above)
 Annihilation of the first spin contaminant:
 S**2 before annihilation     0.7682,   after     0.7502
   1 Symmetry operations used in ECPInt.
 ECPInt:  NShTT=    8911 NPrTT=   24707 LenC2=    8781 LenP2D=   20114.
 LDataN:  DoStor=T MaxTD1= 5 Len=  102
 D1PCM: PCM CHGder 1st derivatives, ID1Alg=3 FixD1E=F DoIter=F DoCFld=F I1PDM=0.
 Calling FoFJK, ICntrl=      2127 FMM=F ISym2X=0 I1Cent= 0 IOpClX= 1 NMat=1 NMatS=1 NMatT=0.
 ***** Axes restored to original set *****
 -------------------------------------------------------------------
 Center     Atomic                   Forces (Hartrees/Bohr)
 Number     Number              X              Y              Z
 -------------------------------------------------------------------
      1        6           0.000479330   -0.000336145   -0.000039748
      2        6           0.006130163    0.005283762    0.000369487
      3        6          -0.006718815   -0.010029210    0.000605021
      4        7           0.004428539    0.010434126   -0.000521979
      5        6          -0.000514025   -0.002131605    0.000366797
      6        6           0.000373865   -0.009171125   -0.000798483
      7        6           0.008968146    0.009776909   -0.003537528
      8        6          -0.015258965   -0.004081565    0.003238931
      9        7           0.004358344   -0.003093957   -0.000250120
     10        8           0.005049673    0.005361620   -0.001283245
     11        6          -0.005352607   -0.007461987    0.002358549
     12        1          -0.000222600   -0.000172757    0.000154515
     13        1          -0.000301123   -0.000222402   -0.000100816
     14        1          -0.000190405    0.000058698    0.000009472
     15        1           0.001300713    0.002140891   -0.000301555
     16        1           0.000266686    0.000237183    0.000029132
     17        1           0.000009429    0.000151986   -0.000045759
     18        1           0.000008146    0.000098657   -0.000011653
     19        1          -0.001543032    0.001939622    0.000079519
     20        1          -0.000187513    0.000278204   -0.000139826
     21        1          -0.000839001   -0.000257255    0.000413854
     22        1          -0.000244948    0.001196350   -0.000594565
 -------------------------------------------------------------------
 Cartesian Forces:  Max     0.015258965 RMS     0.004025449

 GradGradGradGradGradGradGradGradGradGradGradGradGradGradGradGradGradGrad
 Berny optimization.
 Using GEDIIS/GDIIS optimizer.
 FormGI is forming the generalized inverse of G from B-inverse, IUseBI=4.
 Internal  Forces:  Max     0.007366926 RMS     0.001671493
 Search for a local minimum.
 Step number   2 out of a maximum of  112
 All quantities printed in internal units (Hartrees-Bohrs-Radians)
 Mixed Optimization -- RFO/linear search
 Update second derivatives using D2CorX and points    1    2
 DE= -9.91D-03 DEPred=-9.53D-03 R= 1.04D+00
 TightC=F SS=  1.41D+00  RLast= 2.47D-01 DXNew= 5.0454D-01 7.4006D-01
 Trust test= 1.04D+00 RLast= 2.47D-01 DXMaxT set to 5.05D-01
 ITU=  1  0
 Use linear search instead of GDIIS.
     Eigenvalues ---    0.00521   0.00938   0.01084   0.01490   0.01669
     Eigenvalues ---    0.01739   0.01952   0.02169   0.02200   0.02283
     Eigenvalues ---    0.02372   0.02418   0.02469   0.02525   0.02527
     Eigenvalues ---    0.07223   0.07463   0.07579   0.07624   0.15526
     Eigenvalues ---    0.15996   0.16000   0.16000   0.16000   0.16000
     Eigenvalues ---    0.16000   0.16000   0.16000   0.16000   0.16084
     Eigenvalues ---    0.22779   0.23474   0.23548   0.24675   0.24995
     Eigenvalues ---    0.25000   0.25000   0.25976   0.29679   0.33782
     Eigenvalues ---    0.34718   0.34767   0.34929   0.35013   0.35117
     Eigenvalues ---    0.35390   0.35792   0.35968   0.36370   0.38787
     Eigenvalues ---    0.43437   0.44557   0.45671   0.46260   0.47018
     Eigenvalues ---    0.47859   0.54206   0.57085   0.59662   0.99279
 RFO step:  Lambda=-1.79640174D-03 EMin= 5.21337393D-03
 Quartic linear search produced a step of  0.15758.
 Iteration  1 RMS(Cart)=  0.07857238 RMS(Int)=  0.00516786
 Iteration  2 RMS(Cart)=  0.00768351 RMS(Int)=  0.00010455
 Iteration  3 RMS(Cart)=  0.00005661 RMS(Int)=  0.00009814
 Iteration  4 RMS(Cart)=  0.00000000 RMS(Int)=  0.00009814
 Variable       Old X    -DE/DX   Delta X   Delta X   Delta X     New X
                                 (Linear)    (Quad)   (Total)
    R1        2.82737   0.00064   0.00274   0.00020   0.00294   2.83031
    R2        2.07944   0.00020   0.00340  -0.00179   0.00161   2.08105
    R3        2.07960   0.00020   0.00341  -0.00181   0.00160   2.08121
    R4        2.07304   0.00019   0.00345  -0.00186   0.00159   2.07463
    R5        2.60729  -0.00215  -0.00161  -0.00373  -0.00538   2.60191
    R6        2.67592  -0.00298   0.00464  -0.01092  -0.00627   2.66965
    R7        2.62505   0.00576   0.01437   0.00135   0.01567   2.64073
    R8        2.05817  -0.00060   0.00260  -0.00379  -0.00119   2.05698
    R9        2.73528  -0.00151   0.00044  -0.00479  -0.00435   2.73092
   R10        2.56326  -0.00017   0.00834  -0.00638   0.00195   2.56521
   R11        2.06735   0.00035   0.00196  -0.00028   0.00168   2.06902
   R12        2.07890   0.00006   0.00280  -0.00183   0.00097   2.07986
   R13        2.07957   0.00001   0.00285  -0.00201   0.00084   2.08040
   R14        2.59928  -0.00331  -0.00445  -0.00502  -0.00943   2.58985
   R15        2.05596   0.00038   0.00189  -0.00013   0.00175   2.05771
   R16        2.83216  -0.00659  -0.00589  -0.02048  -0.02637   2.80578
   R17        2.70449   0.00479   0.01340   0.00146   0.01491   2.71940
   R18        2.54936   0.00375   0.00233   0.00586   0.00819   2.55755
   R19        2.31816   0.00737   0.00583   0.00409   0.00991   2.32807
   R20        1.90868  -0.00013   0.00177  -0.00160   0.00017   1.90884
   R21        1.91157  -0.00076   0.00084  -0.00250  -0.00166   1.90991
   R22        2.06284  -0.00123   0.00357  -0.00649  -0.00292   2.05991
    A1        1.92971   0.00028   0.00081   0.00162   0.00243   1.93213
    A2        1.92779   0.00044   0.00097   0.00277   0.00373   1.93153
    A3        1.95168  -0.00015   0.00043  -0.00189  -0.00146   1.95022
    A4        1.86602  -0.00020  -0.00072   0.00012  -0.00062   1.86540
    A5        1.89345  -0.00017  -0.00074  -0.00135  -0.00209   1.89136
    A6        1.89261  -0.00022  -0.00085  -0.00129  -0.00214   1.89047
    A7        2.09988  -0.00122  -0.00253  -0.00393  -0.00647   2.09341
    A8        2.10733  -0.00153  -0.00073  -0.00662  -0.00737   2.09996
    A9        2.07598   0.00274   0.00326   0.01055   0.01383   2.08981
   A10        2.11623  -0.00089  -0.00204  -0.00215  -0.00423   2.11200
   A11        2.12666   0.00295   0.00215   0.01816   0.02032   2.14698
   A12        2.04029  -0.00207  -0.00010  -0.01601  -0.01610   2.02419
   A13        2.06779   0.00020  -0.00117   0.00147   0.00028   2.06807
   A14        2.09908  -0.00221  -0.00049  -0.00921  -0.00970   2.08938
   A15        2.11631   0.00201   0.00167   0.00774   0.00939   2.12570
   A16        1.91324  -0.00002  -0.00215   0.00113  -0.00102   1.91223
   A17        1.92300   0.00019   0.00018   0.00138   0.00155   1.92455
   A18        1.92603   0.00010   0.00056   0.00035   0.00091   1.92694
   A19        1.90430  -0.00009   0.00068  -0.00115  -0.00047   1.90383
   A20        1.90440  -0.00010   0.00053  -0.00140  -0.00087   1.90353
   A21        1.89252  -0.00008   0.00024  -0.00037  -0.00013   1.89239
   A22        2.11782   0.00210  -0.00009   0.01062   0.01060   2.12842
   A23        2.06477  -0.00357  -0.00353  -0.02068  -0.02430   2.04047
   A24        2.10057   0.00147   0.00364   0.01015   0.01371   2.11428
   A25        2.02376   0.00204   0.00197   0.00875   0.01026   2.03401
   A26        2.08488  -0.00007   0.00198  -0.00227  -0.00051   2.08437
   A27        2.17424  -0.00195  -0.00364  -0.00555  -0.00964   2.16461
   A28        2.00295   0.00279  -0.00440   0.01597   0.01150   2.01445
   A29        2.14445  -0.00110   0.01052  -0.01249  -0.00204   2.14241
   A30        2.13576  -0.00169  -0.00611  -0.00332  -0.00949   2.12627
   A31        2.13999  -0.00078  -0.00410  -0.00286  -0.00696   2.13303
   A32        2.07585   0.00091   0.00411   0.00340   0.00751   2.08336
   A33        2.06001  -0.00014   0.00007  -0.00121  -0.00114   2.05887
   A34        2.07229  -0.00167  -0.00259  -0.00751  -0.00999   2.06231
   A35        2.08570   0.00094   0.00149   0.00436   0.00578   2.09148
   A36        2.12499   0.00073   0.00112   0.00311   0.00417   2.12916
    D1       -2.11602   0.00009   0.00027   0.00033   0.00058  -2.11544
    D2        1.02734   0.00012  -0.00008   0.00193   0.00187   1.02921
    D3        2.10527  -0.00011   0.00006  -0.00256  -0.00252   2.10275
    D4       -1.03455  -0.00008  -0.00029  -0.00095  -0.00123  -1.03578
    D5       -0.00418  -0.00004   0.00017  -0.00155  -0.00139  -0.00558
    D6        3.13918  -0.00001  -0.00017   0.00005  -0.00010   3.13908
    D7       -3.13307  -0.00008  -0.00141  -0.00393  -0.00531  -3.13838
    D8        0.00791  -0.00001  -0.00005  -0.00029  -0.00030   0.00761
    D9        0.00679  -0.00011  -0.00108  -0.00552  -0.00662   0.00017
   D10       -3.13542  -0.00005   0.00028  -0.00188  -0.00161  -3.13702
   D11        3.13309   0.00002  -0.00022  -0.00020  -0.00038   3.13271
   D12        0.01283   0.00005  -0.00091   0.00202   0.00119   0.01402
   D13       -0.00676   0.00005  -0.00055   0.00140   0.00093  -0.00583
   D14       -3.12701   0.00009  -0.00124   0.00362   0.00249  -3.12452
   D15       -3.13934   0.00025   0.00225   0.01210   0.01425  -3.12508
   D16        0.00249   0.00013   0.00148   0.00557   0.00699   0.00948
   D17        0.00284   0.00018   0.00095   0.00862   0.00957   0.01240
   D18       -3.13852   0.00006   0.00018   0.00209   0.00230  -3.13622
   D19       -3.11806  -0.00011  -0.00058  -0.00636  -0.00697  -3.12503
   D20       -1.02218  -0.00012  -0.00099  -0.00621  -0.00722  -1.02940
   D21        1.06721  -0.00004  -0.00023  -0.00556  -0.00582   1.06140
   D22        0.02329   0.00001   0.00019   0.00024   0.00045   0.02374
   D23        2.11918   0.00000  -0.00023   0.00040   0.00020   2.11937
   D24       -2.07462   0.00008   0.00054   0.00104   0.00160  -2.07301
   D25       -0.01197  -0.00009  -0.00023  -0.00129  -0.00147  -0.01344
   D26        3.12152   0.00024   0.00161   0.01128   0.01283   3.13435
   D27        3.12986  -0.00021  -0.00101  -0.00801  -0.00898   3.12088
   D28       -0.01983   0.00012   0.00083   0.00456   0.00532  -0.01451
   D29        3.12797   0.00069   0.00531   0.03593   0.04165  -3.11357
   D30        0.01173   0.00004  -0.00136  -0.00275  -0.00413   0.00760
   D31       -0.00536   0.00038   0.00351   0.02325   0.02692   0.02157
   D32       -3.12160  -0.00027  -0.00316  -0.01543  -0.01885  -3.14045
   D33        2.82522   0.00056   0.00558   0.14700   0.15256   2.97778
   D34       -0.32507   0.00086   0.00587   0.16723   0.17314  -0.15193
   D35       -0.34318   0.00128   0.01290   0.18797   0.20084  -0.14234
   D36        2.78972   0.00158   0.01319   0.20821   0.22141   3.01113
   D37       -0.00225  -0.00002   0.00170   0.00271   0.00439   0.00215
   D38        3.11751  -0.00005   0.00240   0.00045   0.00280   3.12031
   D39       -3.11615  -0.00079  -0.00585  -0.03975  -0.04534   3.12169
   D40        0.00360  -0.00082  -0.00515  -0.04201  -0.04693  -0.04333
   D41       -0.11930   0.00020   0.00109   0.01186   0.01292  -0.10638
   D42       -3.12839   0.00033   0.00032   0.01789   0.01818  -3.11021
   D43        3.03094  -0.00010   0.00069  -0.00821  -0.00749   3.02345
   D44        0.02184   0.00004  -0.00007  -0.00218  -0.00223   0.01962
         Item               Value     Threshold  Converged?
 Maximum Force            0.007367     0.000450     NO 
 RMS     Force            0.001671     0.000300     NO 
 Maximum Displacement     0.512137     0.001800     NO 
 RMS     Displacement     0.080698     0.001200     NO 
 Predicted change in Energy=-1.002080D-03
 GradGradGradGradGradGradGradGradGradGradGradGradGradGradGradGradGradGrad

                          Input orientation:                          
 ---------------------------------------------------------------------
 Center     Atomic      Atomic             Coordinates (Angstroms)
 Number     Number       Type             X           Y           Z
 ---------------------------------------------------------------------
      1          6           0       -2.219816   -1.812640    0.195264
      2          6           0       -1.160357   -0.757432    0.109819
      3          6           0       -1.517227    0.570234    0.034204
      4          7           0       -0.547342    1.572717   -0.050132
      5          6           0       -0.982240    2.949730   -0.106120
      6          6           0        0.767727    1.236701   -0.069115
      7          6           0        1.184418   -0.066636    0.007858
      8          6           0        2.651519   -0.294849    0.013843
      9          7           0        3.041290   -1.561478    0.288442
     10          8           0        3.466609    0.603303   -0.202224
     11          6           0        0.205722   -1.117358    0.102625
     12          1           0       -2.101491   -2.409718    1.112997
     13          1           0       -2.142206   -2.510977   -0.652806
     14          1           0       -3.227888   -1.377841    0.193018
     15          1           0       -2.552184    0.907391    0.039784
     16          1           0       -0.110040    3.606668   -0.186517
     17          1           0       -1.633972    3.108561   -0.978687
     18          1           0       -1.546842    3.211178    0.802094
     19          1           0        1.484068    2.053477   -0.142743
     20          1           0        2.385741   -2.278758    0.564307
     21          1           0        4.027515   -1.777505    0.334987
     22          1           0        0.489695   -2.168870    0.146304
 ---------------------------------------------------------------------
                    Distance matrix (angstroms):
                    1          2          3          4          5
     1  C    0.000000
     2  C    1.497738   0.000000
     3  C    2.489510   1.376871   0.000000
     4  N    3.783918   2.414740   1.397413   0.000000
     5  C    4.929767   3.717716   2.442929   1.445142   0.000000
     6  C    4.277124   2.779585   2.382408   1.357451   2.449126
     7  C    3.830464   2.446541   2.775821   2.385337   3.715624
     8  C    5.105537   3.841040   4.257608   3.704674   4.872975
     9  N    5.267922   4.281616   5.038742   4.776620   6.057679
    10  O    6.191139   4.832989   4.989550   4.132154   5.030627
    11  C    2.524922   1.412716   2.412716   2.797667   4.242173
    12  H    1.101243   2.149917   3.222619   4.430354   5.609158
    13  H    1.101327   2.149545   3.218143   4.425309   5.609252
    14  H    1.097845   2.160212   2.597418   3.993775   4.884700
    15  H    2.744670   2.171112   1.088505   2.114270   2.580148
    16  H    5.828020   4.498484   3.353927   2.084896   1.094881
    17  H    5.093093   4.044139   2.735448   2.098045   1.100616
    18  H    5.104888   4.047034   2.750476   2.099963   1.100901
    19  H    5.364687   3.867555   3.352475   2.089577   2.624363
    20  H    4.643771   3.885331   4.861165   4.879997   6.255386
    21  H    6.248992   5.292000   6.028808   5.683452   6.902099
    22  H    2.733266   2.171671   3.397498   3.887609   5.332014
                    6          7          8          9         10
     6  C    0.000000
     7  C    1.370490   0.000000
     8  C    2.429239   1.484757   0.000000
     9  N    3.623086   2.400262   1.353395   0.000000
    10  O    2.775406   2.387750   1.231963   2.260072   0.000000
    11  C    2.426301   1.439042   2.581923   2.876147   3.699594
    12  H    4.788128   4.184323   5.317134   5.277082   6.466207
    13  H    4.780533   4.180634   5.323105   5.353142   6.431218
    14  H    4.782204   4.606732   5.981003   6.272593   6.992670
    15  H    3.337980   3.861598   5.340841   6.119159   6.031327
    16  H    2.530020   3.899560   4.784160   6.071755   4.670425
    17  H    3.177945   4.358722   5.561811   6.728518   5.735428
    18  H    3.164615   4.339891   5.526282   6.640259   5.739717
    19  H    1.088894   2.146474   2.627184   3.959642   2.457033
    20  H    3.921434   2.578041   2.075944   1.010117   3.172084
    21  H    4.458134   3.334261   2.048114   1.010680   2.504288
    22  H    3.423685   2.218377   2.864086   2.626741   4.082699
                   11         12         13         14         15
    11  C    0.000000
    12  H    2.830949   0.000000
    13  H    2.832951   1.769173   0.000000
    14  H    3.444662   1.783228   1.782728   0.000000
    15  H    3.421930   3.515412   3.511837   2.387957   0.000000
    16  H    4.743388   6.469275   6.463181   5.891549   3.647106
    17  H    4.734141   5.919891   5.651876   4.903189   2.593366
    18  H    4.721966   5.656745   5.934159   4.925036   2.626645
    19  H    3.427619   5.861162   5.851860   5.838596   4.199781
    20  H    2.512864   4.522550   4.694421   5.697573   5.899981
    21  H    3.885344   6.210452   6.291199   7.267790   7.112543
    22  H    1.090058   2.776102   2.771735   3.801096   4.327558
                   16         17         18         19         20
    16  H    0.000000
    17  H    1.788299   0.000000
    18  H    1.788341   1.785862   0.000000
    19  H    2.226095   3.396200   3.379260   0.000000
    20  H    6.436684   6.896530   6.757303   4.481204   0.000000
    21  H    6.810335   7.592879   7.495239   4.623178   1.731839
    22  H    5.816124   5.798865   5.789858   4.347475   1.944683
                   21         22
    21  H    0.000000
    22  H    3.564399   0.000000
 Stoichiometry    C8H11N2O(2)
 Framework group  C1[X(C8H11N2O)]
 Deg. of freedom    60
 Full point group                 C1      NOp   1
 Largest Abelian subgroup         C1      NOp   1
 Largest concise Abelian subgroup C1      NOp   1
                         Standard orientation:                         
 ---------------------------------------------------------------------
 Center     Atomic      Atomic             Coordinates (Angstroms)
 Number     Number       Type             X           Y           Z
 ---------------------------------------------------------------------
      1          6           0       -2.138637    2.476247    0.041700
      2          6           0       -1.342280    1.207899    0.023611
      3          6           0       -1.987262   -0.008202   -0.005859
      4          7           0       -1.266418   -1.205266   -0.019352
      5          6           0       -1.998404   -2.450229   -0.071315
      6          6           0        0.090398   -1.173966    0.007924
      7          6           0        0.788252    0.005274    0.033137
      8          6           0        2.269250   -0.099939    0.024339
      9          7           0        2.933470    1.066290   -0.150017
     10          8           0        2.862006   -1.172229    0.153058
     11          6           0        0.069648    1.252030    0.040367
     12          1           0       -1.886051    3.106927   -0.825006
     13          1           0       -1.910336    3.065753    0.943521
     14          1           0       -3.218403    2.278728    0.022831
     15          1           0       -3.071370   -0.104238   -0.024030
     16          1           0       -1.295499   -3.289590   -0.058626
     17          1           0       -2.672721   -2.532488    0.794644
     18          1           0       -2.603440   -2.501729   -0.989608
     19          1           0        0.605683   -2.133208    0.002925
     20          1           0        2.456021    1.932360   -0.355689
     21          1           0        3.943211    1.059950   -0.193109
     22          1           0        0.581706    2.213521    0.079839
 ---------------------------------------------------------------------
 Rotational constants (GHZ):           1.5631197           0.8646726           0.5619163
 Basis read from rwf:  (5D, 7F)
 Pseudo-potential data read from rwf file.
 There are   333 symmetry adapted cartesian basis functions of A   symmetry.
 There are   311 symmetry adapted basis functions of A   symmetry.
   311 basis functions,   465 primitive gaussians,   333 cartesian basis functions
    41 alpha electrons       40 beta electrons
       nuclear repulsion energy       595.0717491248 Hartrees.
 NAtoms=   22 NActive=   22 NUniq=   22 SFac= 1.00D+00 NAtFMM=   60 NAOKFM=F Big=F
 Integral buffers will be    131072 words long.
 Raffenetti 2 integral format.
 Two-electron integral symmetry is turned on.
 Nuclear repulsion after empirical dispersion term =      595.0518960108 Hartrees.
 ------------------------------------------------------------------------------
 Polarizable Continuum Model (PCM)
 =================================
 Model                : PCM.
 Atomic radii         : SMD-Coulomb.
 Polarization charges : Total charges.
 Charge compensation  : None.
 Solution method      : On-the-fly selection.
 Cavity type          : VdW (van der Waals Surface) (Alpha=1.000).
 Cavity algorithm     : GePol (No added spheres)
                        Default sphere list used, NSphG=   22.
                        Lebedev-Laikov grids with approx.  5.0 points / Ang**2.
                        Smoothing algorithm: York/Karplus (Gamma=1.0000).
                        Polarization charges: spherical gaussians, with
                                              point-specific exponents (IZeta= 3).
                        Self-potential: point-specific (ISelfS= 7).
                        Self-field    : sphere-specific E.n sum rule (ISelfD= 2).
 1st derivatives      : Analytical E(r).r(x)/FMM algorithm (CHGder, D1EAlg=3).
                        Cavity 1st derivative terms included.
 Solvent              : DiMethylSulfoxide, Eps=  46.826000 Eps(inf)=   2.007889
 ------------------------------------------------------------------------------
 ------------------------------------------------------------------------------
 Atomic radii for non-electrostatic terms: SMD-CDS.
 ------------------------------------------------------------------------------
 Nuclear repulsion after PCM non-electrostatic terms =      595.0523520243 Hartrees.
 One-electron integrals computed using PRISM.
   1 Symmetry operations used in ECPInt.
 ECPInt:  NShTT=    8911 NPrTT=   24707 LenC2=    8778 LenP2D=   20116.
 LDataN:  DoStor=T MaxTD1= 4 Len=   56
 NBasis=   311 RedAO= T EigKep=  9.60D-06  NBF=   311
 NBsUse=   311 1.00D-06 EigRej= -1.00D+00 NBFU=   311
 Initial guess from the checkpoint file:  "/scratch/aplatt/job_46371443/Gau-3795827.chk"
 B after Tr=     0.000000    0.000000    0.000000
         Rot=    0.999994   -0.000691   -0.000019    0.003410 Ang=  -0.40 deg.
 Initial guess <Sx>= 0.0000 <Sy>= 0.0000 <Sz>= 0.5000 <S**2>= 0.7681 S= 0.5090
 ExpMin= 6.71D-02 ExpMax= 2.27D+03 ExpMxC= 3.41D+02 IAcc=3 IRadAn=         5 AccDes= 0.00D+00
 Harris functional with IExCor= 1009 and IRadAn=       5 diagonalized for initial guess.
 HarFok:  IExCor= 1009 AccDes= 0.00D+00 IRadAn=         5 IDoV= 1 UseB2=F ITyADJ=14
 ICtDFT=  3500011 ScaDFX=  1.000000  1.000000  1.000000  1.000000
 FoFCou: FMM=F IPFlag=           0 FMFlag=      100000 FMFlg1=           0
         NFxFlg=           0 DoJE=T BraDBF=F KetDBF=T FulRan=T
         wScrn=  0.000000 ICntrl=       500 IOpCl=  0 I1Cent=   200000004 NGrid=           0
         NMat0=    1 NMatS0=      1 NMatT0=    0 NMatD0=    1 NMtDS0=    0 NMtDT0=    0
 Petite list used in FoFCou.
 Requested convergence on RMS density matrix=1.00D-08 within 128 cycles.
 Requested convergence on MAX density matrix=1.00D-06.
 Requested convergence on             energy=1.00D-06.
 No special actions if energy rises.
 Inv3:  Mode=1 IEnd=     9377472.
 Iteration    1 A*A^-1 deviation from unit magnitude is 3.89D-15 for    248.
 Iteration    1 A*A^-1 deviation from orthogonality  is 3.55D-15 for   1503    352.
 Iteration    1 A^-1*A deviation from unit magnitude is 3.22D-15 for    248.
 Iteration    1 A^-1*A deviation from orthogonality  is 4.88D-15 for   1112   1110.
 Error on total polarization charges =  0.03909
 SCF Done:  E(UPBE1PBE) =  -495.324134610     A.U. after   19 cycles
            NFock= 19  Conv=0.92D-08     -V/T= 2.0110
 <Sx>= 0.0000 <Sy>= 0.0000 <Sz>= 0.5000 <S**2>= 0.7682 S= 0.5090
 <L.S>= 0.000000000000E+00
 SMD-CDS (non-electrostatic) energy       (kcal/mol) =       0.29
 (included in total energy above)
 Annihilation of the first spin contaminant:
 S**2 before annihilation     0.7682,   after     0.7502
   1 Symmetry operations used in ECPInt.
 ECPInt:  NShTT=    8911 NPrTT=   24707 LenC2=    8778 LenP2D=   20116.
 LDataN:  DoStor=T MaxTD1= 5 Len=  102
 D1PCM: PCM CHGder 1st derivatives, ID1Alg=3 FixD1E=F DoIter=F DoCFld=F I1PDM=0.
 Calling FoFJK, ICntrl=      2127 FMM=F ISym2X=0 I1Cent= 0 IOpClX= 1 NMat=1 NMatS=1 NMatT=0.
 ***** Axes restored to original set *****
 -------------------------------------------------------------------
 Center     Atomic                   Forces (Hartrees/Bohr)
 Number     Number              X              Y              Z
 -------------------------------------------------------------------
      1        6          -0.000734707   -0.000623108    0.000069474
      2        6           0.003741050   -0.001522176    0.000079238
      3        6          -0.002123938    0.000114105    0.000349280
      4        7           0.004240462   -0.000088047   -0.000586066
      5        6           0.000110655   -0.000536871   -0.000082189
      6        6          -0.005034008    0.001648810    0.000007861
      7        6           0.004123807   -0.000141013   -0.000280962
      8        6          -0.003500308   -0.000955585    0.002630799
      9        7           0.000433497   -0.000876270   -0.000632614
     10        8           0.002445512    0.001308216   -0.001327497
     11        6          -0.004165150    0.000116226    0.000390554
     12        1          -0.000075306    0.000303984   -0.000297714
     13        1          -0.000059153    0.000328158    0.000276860
     14        1           0.000221063   -0.000230890    0.000015873
     15        1           0.000457005    0.000288885   -0.000136757
     16        1          -0.000233058    0.000081722    0.000034216
     17        1           0.000207187   -0.000006666    0.000223417
     18        1           0.000197641   -0.000199002   -0.000256863
     19        1           0.000030942   -0.000192206    0.000169225
     20        1           0.001424397    0.000185716   -0.000437774
     21        1          -0.000359872    0.000533443    0.000177016
     22        1          -0.001347718    0.000462569   -0.000385376
 -------------------------------------------------------------------
 Cartesian Forces:  Max     0.005034008 RMS     0.001457202

 GradGradGradGradGradGradGradGradGradGradGradGradGradGradGradGradGradGrad
 Berny optimization.
 Using GEDIIS/GDIIS optimizer.
 FormGI is forming the generalized inverse of G from B-inverse, IUseBI=4.
 Internal  Forces:  Max     0.003793121 RMS     0.000955259
 Search for a local minimum.
 Step number   3 out of a maximum of  112
 All quantities printed in internal units (Hartrees-Bohrs-Radians)
 Mixed Optimization -- En-DIIS/RFO-DIIS
 Update second derivatives using D2CorX and points    1    2    3
 DE= -1.04D-03 DEPred=-1.00D-03 R= 1.04D+00
 TightC=F SS=  1.41D+00  RLast= 3.94D-01 DXNew= 8.4853D-01 1.1829D+00
 Trust test= 1.04D+00 RLast= 3.94D-01 DXMaxT set to 8.49D-01
 ITU=  1  1  0
 Use linear search instead of GDIIS.
     Eigenvalues ---    0.00481   0.00938   0.01083   0.01528   0.01689
     Eigenvalues ---    0.01786   0.01945   0.02153   0.02207   0.02290
     Eigenvalues ---    0.02372   0.02411   0.02469   0.02529   0.02537
     Eigenvalues ---    0.07223   0.07427   0.07568   0.07626   0.14579
     Eigenvalues ---    0.15999   0.16000   0.16000   0.16000   0.16000
     Eigenvalues ---    0.16000   0.16000   0.16000   0.16045   0.16555
     Eigenvalues ---    0.20983   0.23534   0.23749   0.24404   0.24999
     Eigenvalues ---    0.25000   0.25885   0.26767   0.31006   0.33779
     Eigenvalues ---    0.34719   0.34771   0.34929   0.35048   0.35134
     Eigenvalues ---    0.35408   0.35790   0.35967   0.36379   0.38659
     Eigenvalues ---    0.42605   0.44537   0.44750   0.46248   0.47091
     Eigenvalues ---    0.48591   0.54089   0.57120   0.62338   0.97590
 RFO step:  Lambda=-4.50083601D-04 EMin= 4.81154559D-03
 Quartic linear search produced a step of  0.06436.
 Iteration  1 RMS(Cart)=  0.03676211 RMS(Int)=  0.00092232
 Iteration  2 RMS(Cart)=  0.00154192 RMS(Int)=  0.00008636
 Iteration  3 RMS(Cart)=  0.00000165 RMS(Int)=  0.00008635
 Iteration  4 RMS(Cart)=  0.00000000 RMS(Int)=  0.00008635
 Variable       Old X    -DE/DX   Delta X   Delta X   Delta X     New X
                                 (Linear)    (Quad)   (Total)
    R1        2.83031   0.00062   0.00019   0.00274   0.00293   2.83324
    R2        2.08105  -0.00042   0.00010  -0.00046  -0.00035   2.08069
    R3        2.08121  -0.00043   0.00010  -0.00048  -0.00038   2.08083
    R4        2.07463  -0.00029   0.00010  -0.00007   0.00003   2.07466
    R5        2.60191   0.00056  -0.00035   0.00029  -0.00006   2.60185
    R6        2.66965  -0.00250  -0.00040  -0.00546  -0.00586   2.66378
    R7        2.64073   0.00052   0.00101   0.00519   0.00619   2.64692
    R8        2.05698  -0.00035  -0.00008  -0.00070  -0.00078   2.05620
    R9        2.73092  -0.00071  -0.00028  -0.00237  -0.00265   2.72827
   R10        2.56521  -0.00379   0.00013  -0.00509  -0.00496   2.56025
   R11        2.06902  -0.00014   0.00011   0.00014   0.00024   2.06927
   R12        2.07986  -0.00030   0.00006  -0.00028  -0.00022   2.07964
   R13        2.08040  -0.00036   0.00005  -0.00049  -0.00044   2.07996
   R14        2.58985   0.00113  -0.00061   0.00050  -0.00010   2.58975
   R15        2.05771  -0.00014   0.00011   0.00015   0.00026   2.05797
   R16        2.80578   0.00041  -0.00170  -0.00292  -0.00462   2.80117
   R17        2.71940   0.00285   0.00096   0.01048   0.01145   2.73084
   R18        2.55755   0.00040   0.00053   0.00214   0.00267   2.56022
   R19        2.32807   0.00280   0.00064   0.00509   0.00573   2.33380
   R20        1.90884  -0.00117   0.00001  -0.00227  -0.00226   1.90658
   R21        1.90991  -0.00046  -0.00011  -0.00109  -0.00120   1.90871
   R22        2.05991  -0.00081  -0.00019  -0.00209  -0.00228   2.05763
    A1        1.93213  -0.00007   0.00016   0.00003   0.00018   1.93232
    A2        1.93153  -0.00005   0.00024   0.00042   0.00065   1.93218
    A3        1.95022   0.00018  -0.00009   0.00095   0.00086   1.95108
    A4        1.86540   0.00009  -0.00004   0.00052   0.00048   1.86588
    A5        1.89136  -0.00008  -0.00013  -0.00106  -0.00119   1.89016
    A6        1.89047  -0.00007  -0.00014  -0.00093  -0.00106   1.88941
    A7        2.09341  -0.00042  -0.00042  -0.00319  -0.00361   2.08980
    A8        2.09996   0.00022  -0.00047  -0.00035  -0.00082   2.09914
    A9        2.08981   0.00020   0.00089   0.00352   0.00441   2.09422
   A10        2.11200  -0.00061  -0.00027  -0.00416  -0.00444   2.10756
   A11        2.14698   0.00074   0.00131   0.00738   0.00869   2.15567
   A12        2.02419  -0.00013  -0.00104  -0.00320  -0.00424   2.01995
   A13        2.06807  -0.00047   0.00002  -0.00170  -0.00169   2.06639
   A14        2.08938   0.00065  -0.00062   0.00056  -0.00007   2.08931
   A15        2.12570  -0.00018   0.00060   0.00112   0.00172   2.12742
   A16        1.91223   0.00034  -0.00007   0.00184   0.00177   1.91400
   A17        1.92455   0.00002   0.00010   0.00036   0.00046   1.92501
   A18        1.92694  -0.00024   0.00006  -0.00154  -0.00148   1.92546
   A19        1.90383  -0.00012  -0.00003  -0.00036  -0.00040   1.90344
   A20        1.90353  -0.00005  -0.00006  -0.00035  -0.00040   1.90313
   A21        1.89239   0.00005  -0.00001   0.00004   0.00003   1.89242
   A22        2.12842   0.00114   0.00068   0.00605   0.00673   2.13516
   A23        2.04047  -0.00041  -0.00156  -0.00501  -0.00658   2.03389
   A24        2.11428  -0.00073   0.00088  -0.00103  -0.00015   2.11413
   A25        2.03401  -0.00134   0.00066  -0.00405  -0.00342   2.03059
   A26        2.08437  -0.00199  -0.00003  -0.00780  -0.00784   2.07653
   A27        2.16461   0.00334  -0.00062   0.01192   0.01128   2.17588
   A28        2.01445   0.00351   0.00074   0.01541   0.01568   2.03013
   A29        2.14241  -0.00080  -0.00013  -0.00155  -0.00216   2.14024
   A30        2.12627  -0.00270  -0.00061  -0.01325  -0.01433   2.11194
   A31        2.13303   0.00141  -0.00045   0.00747   0.00703   2.14006
   A32        2.08336  -0.00108   0.00048  -0.00540  -0.00491   2.07844
   A33        2.05887  -0.00034  -0.00007  -0.00237  -0.00245   2.05642
   A34        2.06231   0.00061  -0.00064   0.00191   0.00127   2.06358
   A35        2.09148  -0.00151   0.00037  -0.00868  -0.00831   2.08317
   A36        2.12916   0.00090   0.00027   0.00661   0.00687   2.13603
    D1       -2.11544  -0.00001   0.00004  -0.00120  -0.00115  -2.11660
    D2        1.02921   0.00006   0.00012   0.00290   0.00301   1.03222
    D3        2.10275  -0.00004  -0.00016  -0.00212  -0.00228   2.10047
    D4       -1.03578   0.00002  -0.00008   0.00197   0.00189  -1.03390
    D5       -0.00558  -0.00004  -0.00009  -0.00188  -0.00196  -0.00754
    D6        3.13908   0.00003  -0.00001   0.00222   0.00220   3.14128
    D7       -3.13838   0.00005  -0.00034   0.00206   0.00171  -3.13668
    D8        0.00761  -0.00006  -0.00002  -0.00182  -0.00185   0.00576
    D9        0.00017  -0.00001  -0.00043  -0.00202  -0.00246  -0.00229
   D10       -3.13702  -0.00012  -0.00010  -0.00590  -0.00601   3.14015
   D11        3.13271   0.00005  -0.00002   0.00168   0.00165   3.13436
   D12        0.01402   0.00018   0.00008   0.00878   0.00882   0.02284
   D13       -0.00583   0.00011   0.00006   0.00578   0.00584   0.00002
   D14       -3.12452   0.00024   0.00016   0.01287   0.01301  -3.11151
   D15       -3.12508  -0.00007   0.00092  -0.00021   0.00071  -3.12437
   D16        0.00948  -0.00013   0.00045  -0.00449  -0.00403   0.00545
   D17        0.01240   0.00004   0.00062   0.00343   0.00403   0.01643
   D18       -3.13622  -0.00002   0.00015  -0.00085  -0.00071  -3.13693
   D19       -3.12503  -0.00008  -0.00045  -0.00513  -0.00558  -3.13061
   D20       -1.02940  -0.00000  -0.00046  -0.00419  -0.00466  -1.03406
   D21        1.06140  -0.00008  -0.00037  -0.00490  -0.00528   1.05612
   D22        0.02374  -0.00002   0.00003  -0.00075  -0.00072   0.02302
   D23        2.11937   0.00006   0.00001   0.00018   0.00020   2.11957
   D24       -2.07301  -0.00002   0.00010  -0.00053  -0.00042  -2.07344
   D25       -0.01344   0.00017  -0.00009   0.00712   0.00704  -0.00640
   D26        3.13435   0.00007   0.00083   0.00548   0.00630   3.14066
   D27        3.12088   0.00011  -0.00058   0.00268   0.00211   3.12299
   D28       -0.01451   0.00001   0.00034   0.00104   0.00138  -0.01313
   D29       -3.11357  -0.00031   0.00268  -0.00735  -0.00466  -3.11822
   D30        0.00760  -0.00008  -0.00027  -0.00322  -0.00350   0.00410
   D31        0.02157  -0.00021   0.00173  -0.00565  -0.00391   0.01766
   D32       -3.14045   0.00002  -0.00121  -0.00153  -0.00276   3.13998
   D33        2.97778   0.00065   0.00982   0.07743   0.08735   3.06513
   D34       -0.15193  -0.00023   0.01114   0.01995   0.03100  -0.12093
   D35       -0.14234   0.00047   0.01293   0.07336   0.08638  -0.05596
   D36        3.01113  -0.00041   0.01425   0.01588   0.03003   3.04116
   D37        0.00215  -0.00006   0.00028  -0.00326  -0.00297  -0.00083
   D38        3.12031  -0.00023   0.00018  -0.01073  -0.01059   3.10973
   D39        3.12169   0.00013  -0.00292   0.00097  -0.00192   3.11977
   D40       -0.04333  -0.00004  -0.00302  -0.00650  -0.00954  -0.05286
   D41       -0.10638  -0.00028   0.00083  -0.02106  -0.02013  -0.12650
   D42       -3.11021  -0.00022   0.00117  -0.01831  -0.01703  -3.12724
   D43        3.02345   0.00061  -0.00048   0.03592   0.03533   3.05878
   D44        0.01962   0.00066  -0.00014   0.03868   0.03843   0.05804
         Item               Value     Threshold  Converged?
 Maximum Force            0.003793     0.000450     NO 
 RMS     Force            0.000955     0.000300     NO 
 Maximum Displacement     0.189065     0.001800     NO 
 RMS     Displacement     0.037000     0.001200     NO 
 Predicted change in Energy=-2.333417D-04
 GradGradGradGradGradGradGradGradGradGradGradGradGradGradGradGradGradGrad

                          Input orientation:                          
 ---------------------------------------------------------------------
 Center     Atomic      Atomic             Coordinates (Angstroms)
 Number     Number       Type             X           Y           Z
 ---------------------------------------------------------------------
      1          6           0       -2.230331   -1.809045    0.205561
      2          6           0       -1.166229   -0.756065    0.123199
      3          6           0       -1.523686    0.570392    0.031428
      4          7           0       -0.547292    1.571159   -0.052536
      5          6           0       -0.978790    2.946996   -0.125081
      6          6           0        0.764268    1.231524   -0.049882
      7          6           0        1.184280   -0.069853    0.040157
      8          6           0        2.650305   -0.287890    0.062171
      9          7           0        3.064988   -1.564863    0.243508
     10          8           0        3.462039    0.624612   -0.121230
     11          6           0        0.195596   -1.119916    0.130634
     12          1           0       -2.123938   -2.398820    1.129232
     13          1           0       -2.146316   -2.514118   -0.636043
     14          1           0       -3.237598   -1.372637    0.189352
     15          1           0       -2.555697    0.915007    0.019455
     16          1           0       -0.105545    3.603727   -0.197148
     17          1           0       -1.617775    3.100596   -1.007805
     18          1           0       -1.556066    3.214408    0.773091
     19          1           0        1.478989    2.050367   -0.118172
     20          1           0        2.429578   -2.316822    0.464258
     21          1           0        4.055558   -1.759229    0.277957
     22          1           0        0.466360   -2.173629    0.175093
 ---------------------------------------------------------------------
                    Distance matrix (angstroms):
                    1          2          3          4          5
     1  C    0.000000
     2  C    1.499287   0.000000
     3  C    2.488250   1.376839   0.000000
     4  N    3.784840   2.414527   1.400689   0.000000
     5  C    4.929057   3.716105   2.443287   1.443738   0.000000
     6  C    4.275270   2.776200   2.382948   1.354824   2.446784
     7  C    3.835585   2.450036   2.782637   2.387436   3.715851
     8  C    5.114204   3.845627   4.261431   3.700520   4.865170
     9  N    5.301082   4.309505   5.065592   4.792791   6.069998
    10  O    6.199400   4.835999   4.988356   4.120121   5.011431
    11  C    2.523021   1.409614   2.413071   2.797734   4.240795
    12  H    1.101055   2.151267   3.222064   4.432056   5.609137
    13  H    1.101128   2.151225   3.216736   4.425703   5.607849
    14  H    1.097862   2.162199   2.595726   3.995271   4.884702
    15  H    2.749719   2.175744   1.088094   2.114098   2.576142
    16  H    5.828807   4.498384   3.356262   2.085038   1.095010
    17  H    5.094316   4.044366   2.736931   2.097058   1.100499
    18  H    5.100177   4.042152   2.746258   2.097512   1.100668
    19  H    5.362734   3.864130   3.350935   2.083209   2.616231
    20  H    4.694627   3.934732   4.914433   4.923944   6.298577
    21  H    6.286504   5.319526   6.051105   5.690952   6.903307
    22  H    2.721396   2.162760   3.392724   3.886225   5.329105
                    6          7          8          9         10
     6  C    0.000000
     7  C    1.370437   0.000000
     8  C    2.424523   1.482314   0.000000
     9  N    3.633066   2.411114   1.354808   0.000000
    10  O    2.766116   2.386737   1.234993   2.254880   0.000000
    11  C    2.425952   1.445100   2.592789   2.905879   3.711666
    12  H    4.786590   4.189806   5.328043   5.329629   6.473634
    13  H    4.779636   4.186233   5.333964   5.369580   6.447503
    14  H    4.780566   4.612212   5.988343   6.305749   6.997899
    15  H    3.335740   3.867532   5.343336   6.147525   6.026381
    16  H    2.530930   3.900660   4.775629   6.079538   4.648499
    17  H    3.175717   4.359069   5.553665   6.727598   5.720229
    18  H    3.161181   4.339708   5.519516   6.669036   5.717363
    19  H    1.089033   2.146452   2.621441   3.964353   2.442391
    20  H    3.953272   2.603747   2.080135   1.008920   3.171877
    21  H    4.459223   3.339877   2.046005   1.010046   2.488838
    22  H    3.425555   2.226991   2.887625   2.669858   4.109994
                   11         12         13         14         15
    11  C    0.000000
    12  H    2.830730   0.000000
    13  H    2.831279   1.769177   0.000000
    14  H    3.442983   1.782320   1.781896   0.000000
    15  H    3.423869   3.521288   3.515134   2.393150   0.000000
    16  H    4.744568   6.470221   6.464163   5.892651   3.644088
    17  H    4.732555   5.921715   5.651776   4.905795   2.590706
    18  H    4.718839   5.653110   5.928749   4.920293   2.618106
    19  H    3.429241   5.859383   5.851970   5.835899   4.193647
    20  H    2.556280   4.602545   4.710456   5.751864   5.957813
    21  H    3.915320   6.270559   6.314150   7.303932   7.136319
    22  H    1.088853   2.769610   2.756801   3.789604   4.323971
                   16         17         18         19         20
    16  H    0.000000
    17  H    1.788057   0.000000
    18  H    1.788000   1.785596   0.000000
    19  H    2.220340   3.388860   3.370594   0.000000
    20  H    6.474350   6.920727   6.824606   4.507237   0.000000
    21  H    6.804542   7.580092   7.514822   4.616129   1.728996
    22  H    5.817515   5.793127   5.786083   4.353569   1.989559
                   21         22
    21  H    0.000000
    22  H    3.614505   0.000000
 Stoichiometry    C8H11N2O(2)
 Framework group  C1[X(C8H11N2O)]
 Deg. of freedom    60
 Full point group                 C1      NOp   1
 Largest Abelian subgroup         C1      NOp   1
 Largest concise Abelian subgroup C1      NOp   1
                         Standard orientation:                         
 ---------------------------------------------------------------------
 Center     Atomic      Atomic             Coordinates (Angstroms)
 Number     Number       Type             X           Y           Z
 ---------------------------------------------------------------------
      1          6           0       -2.159725    2.466752    0.025863
      2          6           0       -1.352664    1.203295    0.012039
      3          6           0       -1.992576   -0.015729   -0.001308
      4          7           0       -1.259677   -1.209353   -0.008449
      5          6           0       -1.982474   -2.458618   -0.044286
      6          6           0        0.094392   -1.165936    0.004241
      7          6           0        0.789835    0.014870    0.016678
      8          6           0        2.268170   -0.092173   -0.001300
      9          7           0        2.953865    1.073524   -0.081792
     10          8           0        2.858864   -1.172055    0.099411
     11          6           0        0.055792    1.259647    0.021465
     12          1           0       -1.918804    3.092333   -0.847595
     13          1           0       -1.930727    3.065227    0.921335
     14          1           0       -3.238191    2.261537    0.015921
     15          1           0       -3.075056   -0.125929   -0.007750
     16          1           0       -1.274812   -3.294177   -0.034254
     17          1           0       -2.647224   -2.540187    0.828955
     18          1           0       -2.596464   -2.518970   -0.955792
     19          1           0        0.611929   -2.124122   -0.001218
     20          1           0        2.500396    1.961765   -0.234481
     21          1           0        3.963219    1.048536   -0.109612
     22          1           0        0.551007    2.228583    0.060538
 ---------------------------------------------------------------------
 Rotational constants (GHZ):           1.5650118           0.8619220           0.5601965
 Basis read from rwf:  (5D, 7F)
 Pseudo-potential data read from rwf file.
 There are   333 symmetry adapted cartesian basis functions of A   symmetry.
 There are   311 symmetry adapted basis functions of A   symmetry.
   311 basis functions,   465 primitive gaussians,   333 cartesian basis functions
    41 alpha electrons       40 beta electrons
       nuclear repulsion energy       594.6857155515 Hartrees.
 NAtoms=   22 NActive=   22 NUniq=   22 SFac= 1.00D+00 NAtFMM=   60 NAOKFM=F Big=F
 Integral buffers will be    131072 words long.
 Raffenetti 2 integral format.
 Two-electron integral symmetry is turned on.
 Nuclear repulsion after empirical dispersion term =      594.6658880097 Hartrees.
 ------------------------------------------------------------------------------
 Polarizable Continuum Model (PCM)
 =================================
 Model                : PCM.
 Atomic radii         : SMD-Coulomb.
 Polarization charges : Total charges.
 Charge compensation  : None.
 Solution method      : On-the-fly selection.
 Cavity type          : VdW (van der Waals Surface) (Alpha=1.000).
 Cavity algorithm     : GePol (No added spheres)
                        Default sphere list used, NSphG=   22.
                        Lebedev-Laikov grids with approx.  5.0 points / Ang**2.
                        Smoothing algorithm: York/Karplus (Gamma=1.0000).
                        Polarization charges: spherical gaussians, with
                                              point-specific exponents (IZeta= 3).
                        Self-potential: point-specific (ISelfS= 7).
                        Self-field    : sphere-specific E.n sum rule (ISelfD= 2).
 1st derivatives      : Analytical E(r).r(x)/FMM algorithm (CHGder, D1EAlg=3).
                        Cavity 1st derivative terms included.
 Solvent              : DiMethylSulfoxide, Eps=  46.826000 Eps(inf)=   2.007889
 ------------------------------------------------------------------------------
 ------------------------------------------------------------------------------
 Atomic radii for non-electrostatic terms: SMD-CDS.
 ------------------------------------------------------------------------------
 Nuclear repulsion after PCM non-electrostatic terms =      594.6663652674 Hartrees.
 One-electron integrals computed using PRISM.
   1 Symmetry operations used in ECPInt.
 ECPInt:  NShTT=    8911 NPrTT=   24707 LenC2=    8776 LenP2D=   20101.
 LDataN:  DoStor=T MaxTD1= 4 Len=   56
 NBasis=   311 RedAO= T EigKep=  9.35D-06  NBF=   311
 NBsUse=   311 1.00D-06 EigRej= -1.00D+00 NBFU=   311
 Initial guess from the checkpoint file:  "/scratch/aplatt/job_46371443/Gau-3795827.chk"
 B after Tr=     0.000000    0.000000   -0.000000
         Rot=    0.999998    0.000081    0.000094   -0.001871 Ang=   0.21 deg.
 Initial guess <Sx>= 0.0000 <Sy>= 0.0000 <Sz>= 0.5000 <S**2>= 0.7681 S= 0.5090
 ExpMin= 6.71D-02 ExpMax= 2.27D+03 ExpMxC= 3.41D+02 IAcc=3 IRadAn=         5 AccDes= 0.00D+00
 Harris functional with IExCor= 1009 and IRadAn=       5 diagonalized for initial guess.
 HarFok:  IExCor= 1009 AccDes= 0.00D+00 IRadAn=         5 IDoV= 1 UseB2=F ITyADJ=14
 ICtDFT=  3500011 ScaDFX=  1.000000  1.000000  1.000000  1.000000
 FoFCou: FMM=F IPFlag=           0 FMFlag=      100000 FMFlg1=           0
         NFxFlg=           0 DoJE=T BraDBF=F KetDBF=T FulRan=T
         wScrn=  0.000000 ICntrl=       500 IOpCl=  0 I1Cent=   200000004 NGrid=           0
         NMat0=    1 NMatS0=      1 NMatT0=    0 NMatD0=    1 NMtDS0=    0 NMtDT0=    0
 Petite list used in FoFCou.
 Requested convergence on RMS density matrix=1.00D-08 within 128 cycles.
 Requested convergence on MAX density matrix=1.00D-06.
 Requested convergence on             energy=1.00D-06.
 No special actions if energy rises.
 Inv3:  Mode=1 IEnd=     9292800.
 Iteration    1 A*A^-1 deviation from unit magnitude is 3.11D-15 for   1697.
 Iteration    1 A*A^-1 deviation from orthogonality  is 2.83D-15 for    609    360.
 Iteration    1 A^-1*A deviation from unit magnitude is 2.89D-15 for     22.
 Iteration    1 A^-1*A deviation from orthogonality  is 4.05D-15 for   1198   1107.
 Error on total polarization charges =  0.03902
 SCF Done:  E(UPBE1PBE) =  -495.324237719     A.U. after   16 cycles
            NFock= 16  Conv=0.36D-08     -V/T= 2.0110
 <Sx>= 0.0000 <Sy>= 0.0000 <Sz>= 0.5000 <S**2>= 0.7682 S= 0.5091
 <L.S>= 0.000000000000E+00
 SMD-CDS (non-electrostatic) energy       (kcal/mol) =       0.30
 (included in total energy above)
 Annihilation of the first spin contaminant:
 S**2 before annihilation     0.7682,   after     0.7501
   1 Symmetry operations used in ECPInt.
 ECPInt:  NShTT=    8911 NPrTT=   24707 LenC2=    8776 LenP2D=   20101.
 LDataN:  DoStor=T MaxTD1= 5 Len=  102
 D1PCM: PCM CHGder 1st derivatives, ID1Alg=3 FixD1E=F DoIter=F DoCFld=F I1PDM=0.
 Calling FoFJK, ICntrl=      2127 FMM=F ISym2X=0 I1Cent= 0 IOpClX= 1 NMat=1 NMatS=1 NMatT=0.
 ***** Axes restored to original set *****
 -------------------------------------------------------------------
 Center     Atomic                   Forces (Hartrees/Bohr)
 Number     Number              X              Y              Z
 -------------------------------------------------------------------
      1        6          -0.000442504   -0.000346005    0.000128230
      2        6           0.001723667   -0.002523062   -0.000352802
      3        6          -0.000160773    0.003137025    0.000186340
      4        7           0.002721461   -0.003260771   -0.000232443
      5        6           0.000049020    0.000457360   -0.000180539
      6        6          -0.004722479    0.003720759    0.000149332
      7        6           0.001618271   -0.002879334    0.002281823
      8        6           0.000864688   -0.000999087   -0.005628222
      9        7          -0.001837612    0.000386017    0.001363136
     10        8           0.000041948    0.000724184    0.001931907
     11        6          -0.001059065    0.002182482   -0.000259775
     12        1          -0.000003270    0.000257506   -0.000244108
     13        1           0.000047609    0.000294799    0.000195663
     14        1           0.000316985   -0.000088109    0.000006305
     15        1           0.000118866   -0.000226612    0.000049488
     16        1          -0.000203139   -0.000083507    0.000010226
     17        1           0.000149900   -0.000042014    0.000189469
     18        1           0.000100059   -0.000102441   -0.000184724
     19        1           0.000429587   -0.000583309    0.000169608
     20        1          -0.000138777   -0.000437791    0.000065417
     21        1           0.000059983    0.000560964    0.000142761
     22        1           0.000325572   -0.000149053    0.000212906
 -------------------------------------------------------------------
 Cartesian Forces:  Max     0.005628222 RMS     0.001462705

 GradGradGradGradGradGradGradGradGradGradGradGradGradGradGradGradGradGrad
 Berny optimization.
 Using GEDIIS/GDIIS optimizer.
 FormGI is forming the generalized inverse of G from B-inverse, IUseBI=4.
 Internal  Forces:  Max     0.003396085 RMS     0.000660286
 Search for a local minimum.
 Step number   4 out of a maximum of  112
 All quantities printed in internal units (Hartrees-Bohrs-Radians)
 Mixed Optimization -- En-DIIS/RFO-DIIS
 Swapping is turned off.
 Update second derivatives using D2CorX and points    2    3    4
 DE= -1.03D-04 DEPred=-2.33D-04 R= 4.42D-01
 Trust test= 4.42D-01 RLast= 1.50D-01 DXMaxT set to 8.49D-01
 ITU=  0  1  1  0
     Eigenvalues ---    0.00360   0.00938   0.01083   0.01681   0.01747
     Eigenvalues ---    0.01933   0.02093   0.02206   0.02286   0.02367
     Eigenvalues ---    0.02395   0.02452   0.02518   0.02534   0.02895
     Eigenvalues ---    0.07218   0.07417   0.07573   0.07616   0.14610
     Eigenvalues ---    0.15999   0.16000   0.16000   0.16000   0.16000
     Eigenvalues ---    0.16000   0.16000   0.16011   0.16180   0.16660
     Eigenvalues ---    0.20547   0.23545   0.24088   0.24660   0.24998
     Eigenvalues ---    0.25023   0.26130   0.27086   0.32152   0.33814
     Eigenvalues ---    0.34719   0.34767   0.34929   0.35033   0.35135
     Eigenvalues ---    0.35415   0.35799   0.35979   0.36447   0.38707
     Eigenvalues ---    0.42042   0.44662   0.45026   0.46259   0.47261
     Eigenvalues ---    0.48912   0.54099   0.57232   0.62023   0.96671
 En-DIIS/RFO-DIIS/Sim-DIIS IScMMF=       -3 using points:     4    3
 RFO step:  Lambda=-3.14210317D-04.
 DidBck=F Rises=F RFO-DIIS coefs:    1.19775   -0.19775
 Iteration  1 RMS(Cart)=  0.02018910 RMS(Int)=  0.00053638
 Iteration  2 RMS(Cart)=  0.00062560 RMS(Int)=  0.00011264
 Iteration  3 RMS(Cart)=  0.00000045 RMS(Int)=  0.00011264
 Variable       Old X    -DE/DX   Delta X   Delta X   Delta X     New X
                                 (Linear)    (Quad)   (Total)
    R1        2.83324  -0.00002   0.00058   0.00069   0.00127   2.83451
    R2        2.08069  -0.00033  -0.00007  -0.00078  -0.00085   2.07984
    R3        2.08083  -0.00034  -0.00007  -0.00079  -0.00086   2.07997
    R4        2.07466  -0.00033   0.00001  -0.00067  -0.00067   2.07399
    R5        2.60185   0.00158  -0.00001   0.00207   0.00206   2.60391
    R6        2.66378  -0.00151  -0.00116  -0.00389  -0.00505   2.65874
    R7        2.64692  -0.00115   0.00122   0.00016   0.00138   2.64830
    R8        2.05620  -0.00019  -0.00015  -0.00065  -0.00081   2.05540
    R9        2.72827   0.00020  -0.00052  -0.00047  -0.00100   2.72727
   R10        2.56025  -0.00340  -0.00098  -0.00525  -0.00624   2.55401
   R11        2.06927  -0.00022   0.00005  -0.00036  -0.00031   2.06896
   R12        2.07964  -0.00024  -0.00004  -0.00057  -0.00062   2.07903
   R13        2.07996  -0.00023  -0.00009  -0.00061  -0.00069   2.07927
   R14        2.58975   0.00175  -0.00002   0.00220   0.00219   2.59194
   R15        2.05797  -0.00017   0.00005  -0.00025  -0.00020   2.05778
   R16        2.80117  -0.00106  -0.00091  -0.00401  -0.00492   2.79625
   R17        2.73084  -0.00128   0.00226   0.00113   0.00339   2.73423
   R18        2.56022  -0.00087   0.00053  -0.00017   0.00035   2.56057
   R19        2.33380   0.00028   0.00113   0.00169   0.00282   2.33662
   R20        1.90658   0.00042  -0.00045  -0.00004  -0.00048   1.90610
   R21        1.90871  -0.00004  -0.00024  -0.00044  -0.00067   1.90804
   R22        2.05763   0.00023  -0.00045  -0.00035  -0.00080   2.05683
    A1        1.93232  -0.00008   0.00004  -0.00022  -0.00018   1.93213
    A2        1.93218  -0.00014   0.00013  -0.00029  -0.00016   1.93202
    A3        1.95108  -0.00002   0.00017   0.00006   0.00023   1.95131
    A4        1.86588   0.00013   0.00009   0.00069   0.00079   1.86667
    A5        1.89016   0.00004  -0.00024  -0.00019  -0.00043   1.88973
    A6        1.88941   0.00008  -0.00021  -0.00001  -0.00022   1.88919
    A7        2.08980   0.00012  -0.00071  -0.00083  -0.00154   2.08826
    A8        2.09914   0.00035  -0.00016   0.00039   0.00023   2.09937
    A9        2.09422  -0.00047   0.00087   0.00045   0.00132   2.09554
   A10        2.10756  -0.00038  -0.00088  -0.00224  -0.00313   2.10443
   A11        2.15567  -0.00000   0.00172   0.00247   0.00419   2.15986
   A12        2.01995   0.00038  -0.00084  -0.00022  -0.00106   2.01889
   A13        2.06639  -0.00033  -0.00033  -0.00114  -0.00147   2.06492
   A14        2.08931   0.00084  -0.00001   0.00167   0.00165   2.09096
   A15        2.12742  -0.00051   0.00034  -0.00056  -0.00022   2.12721
   A16        1.91400   0.00011   0.00035   0.00101   0.00136   1.91535
   A17        1.92501  -0.00003   0.00009  -0.00002   0.00007   1.92508
   A18        1.92546  -0.00008  -0.00029  -0.00071  -0.00100   1.92446
   A19        1.90344  -0.00002  -0.00008  -0.00017  -0.00025   1.90319
   A20        1.90313   0.00001  -0.00008  -0.00003  -0.00011   1.90302
   A21        1.89242   0.00002   0.00001  -0.00008  -0.00008   1.89234
   A22        2.13516  -0.00007   0.00133   0.00149   0.00281   2.13797
   A23        2.03389   0.00076  -0.00130   0.00096  -0.00034   2.03355
   A24        2.11413  -0.00069  -0.00003  -0.00243  -0.00246   2.11166
   A25        2.03059   0.00087  -0.00068   0.00170   0.00102   2.03162
   A26        2.07653  -0.00041  -0.00155  -0.00316  -0.00471   2.07182
   A27        2.17588  -0.00045   0.00223   0.00151   0.00374   2.17962
   A28        2.03013  -0.00184   0.00310   0.00056   0.00300   2.03313
   A29        2.14024   0.00064  -0.00043   0.00165   0.00057   2.14081
   A30        2.11194   0.00127  -0.00283   0.00066  -0.00283   2.10911
   A31        2.14006   0.00056   0.00139   0.00381   0.00519   2.14525
   A32        2.07844  -0.00082  -0.00097  -0.00459  -0.00557   2.07288
   A33        2.05642   0.00023  -0.00048   0.00014  -0.00035   2.05607
   A34        2.06358   0.00049   0.00025   0.00183   0.00208   2.06565
   A35        2.08317   0.00004  -0.00164  -0.00165  -0.00329   2.07988
   A36        2.13603  -0.00053   0.00136  -0.00018   0.00117   2.13720
    D1       -2.11660   0.00004  -0.00023   0.00124   0.00101  -2.11559
    D2        1.03222  -0.00002   0.00060  -0.00007   0.00053   1.03275
    D3        2.10047   0.00003  -0.00045   0.00071   0.00026   2.10072
    D4       -1.03390  -0.00004   0.00037  -0.00060  -0.00023  -1.03413
    D5       -0.00754   0.00003  -0.00039   0.00088   0.00049  -0.00705
    D6        3.14128  -0.00003   0.00044  -0.00043   0.00001   3.14129
    D7       -3.13668  -0.00001   0.00034  -0.00046  -0.00013  -3.13680
    D8        0.00576  -0.00007  -0.00037  -0.00279  -0.00316   0.00260
    D9       -0.00229   0.00005  -0.00049   0.00084   0.00035  -0.00194
   D10        3.14015  -0.00001  -0.00119  -0.00149  -0.00268   3.13746
   D11        3.13436   0.00007   0.00033   0.00275   0.00307   3.13743
   D12        0.02284   0.00001   0.00174   0.00281   0.00454   0.02738
   D13        0.00002   0.00001   0.00116   0.00144   0.00259   0.00261
   D14       -3.11151  -0.00005   0.00257   0.00151   0.00407  -3.10744
   D15       -3.12437  -0.00012   0.00014  -0.00238  -0.00223  -3.12660
   D16        0.00545  -0.00015  -0.00080  -0.00480  -0.00559  -0.00015
   D17        0.01643  -0.00006   0.00080  -0.00022   0.00058   0.01701
   D18       -3.13693  -0.00009  -0.00014  -0.00264  -0.00279  -3.13972
   D19       -3.13061  -0.00002  -0.00110  -0.00269  -0.00379  -3.13441
   D20       -1.03406   0.00000  -0.00092  -0.00228  -0.00320  -1.03726
   D21        1.05612  -0.00005  -0.00104  -0.00285  -0.00389   1.05223
   D22        0.02302   0.00001  -0.00014  -0.00023  -0.00037   0.02265
   D23        2.11957   0.00003   0.00004   0.00019   0.00022   2.11980
   D24       -2.07344  -0.00003  -0.00008  -0.00038  -0.00047  -2.07390
   D25       -0.00640   0.00019   0.00139   0.00653   0.00793   0.00153
   D26        3.14066   0.00007   0.00125   0.00373   0.00498  -3.13755
   D27        3.12299   0.00016   0.00042   0.00402   0.00444   3.12743
   D28       -0.01313   0.00004   0.00027   0.00122   0.00149  -0.01164
   D29       -3.11822  -0.00024  -0.00092  -0.00701  -0.00793  -3.12615
   D30        0.00410  -0.00013  -0.00069  -0.00420  -0.00489  -0.00079
   D31        0.01766  -0.00012  -0.00077  -0.00407  -0.00484   0.01281
   D32        3.13998  -0.00000  -0.00055  -0.00126  -0.00180   3.13818
   D33        3.06513  -0.00086   0.01727  -0.00070   0.01657   3.08171
   D34       -0.12093   0.00116   0.00613   0.07241   0.07855  -0.04238
   D35       -0.05596  -0.00098   0.01708  -0.00364   0.01343  -0.04254
   D36        3.04116   0.00104   0.00594   0.06947   0.07541   3.11657
   D37       -0.00083   0.00003  -0.00059   0.00013  -0.00046  -0.00128
   D38        3.10973   0.00010  -0.00209   0.00004  -0.00206   3.10767
   D39        3.11977   0.00017  -0.00038   0.00320   0.00282   3.12259
   D40       -0.05286   0.00024  -0.00189   0.00311   0.00121  -0.05165
   D41       -0.12650   0.00100  -0.00398   0.03836   0.03437  -0.09213
   D42       -3.12724   0.00118  -0.00337   0.04382   0.04044  -3.08681
   D43        3.05878  -0.00097   0.00699  -0.03350  -0.02650   3.03229
   D44        0.05804  -0.00079   0.00760  -0.02804  -0.02043   0.03761
         Item               Value     Threshold  Converged?
 Maximum Force            0.003396     0.000450     NO 
 RMS     Force            0.000660     0.000300     NO 
 Maximum Displacement     0.138012     0.001800     NO 
 RMS     Displacement     0.020119     0.001200     NO 
 Predicted change in Energy=-1.600499D-04
 GradGradGradGradGradGradGradGradGradGradGradGradGradGradGradGradGradGrad

                          Input orientation:                          
 ---------------------------------------------------------------------
 Center     Atomic      Atomic             Coordinates (Angstroms)
 Number     Number       Type             X           Y           Z
 ---------------------------------------------------------------------
      1          6           0       -2.232175   -1.808347    0.214433
      2          6           0       -1.166753   -0.756150    0.127053
      3          6           0       -1.525453    0.570913    0.032554
      4          7           0       -0.546165    1.569489   -0.055876
      5          6           0       -0.976237    2.944918   -0.133912
      6          6           0        0.762001    1.229981   -0.048395
      7          6           0        1.184989   -0.071646    0.041707
      8          6           0        2.648671   -0.288197    0.058581
      9          7           0        3.068711   -1.566314    0.219818
     10          8           0        3.461427    0.637503   -0.048197
     11          6           0        0.192244   -1.120264    0.133135
     12          1           0       -2.124916   -2.394793    1.139587
     13          1           0       -2.150340   -2.515461   -0.625073
     14          1           0       -3.238835   -1.371408    0.198721
     15          1           0       -2.555870    0.918870    0.018773
     16          1           0       -0.103296    3.601869   -0.205138
     17          1           0       -1.612547    3.096239   -1.018554
     18          1           0       -1.555989    3.214307    0.761622
     19          1           0        1.477036    2.048490   -0.115718
     20          1           0        2.437582   -2.331851    0.401562
     21          1           0        4.059890   -1.747548    0.284559
     22          1           0        0.458725   -2.174699    0.175959
 ---------------------------------------------------------------------
                    Distance matrix (angstroms):
                    1          2          3          4          5
     1  C    0.000000
     2  C    1.499960   0.000000
     3  C    2.488658   1.377930   0.000000
     4  N    3.784901   2.413957   1.401420   0.000000
     5  C    4.928717   3.715144   2.442385   1.443210   0.000000
     6  C    4.273828   2.774092   2.381883   1.351524   2.443315
     7  C    3.837053   2.450820   2.785581   2.387412   3.715023
     8  C    5.114470   3.844623   4.261697   3.697441   4.861074
     9  N    5.306411   4.313249   5.070419   4.793390   6.069426
    10  O    6.202279   4.836634   4.987979   4.114541   5.002437
    11  C    2.521483   1.406943   2.412608   2.795665   4.238203
    12  H    1.100605   2.151384   3.221846   4.431378   5.608366
    13  H    1.100671   2.151352   3.216934   4.425402   5.606737
    14  H    1.097509   2.162685   2.595362   3.995519   4.884738
    15  H    2.753320   2.178775   1.087668   2.113715   2.573601
    16  H    5.829117   4.498179   3.356445   2.085421   1.094844
    17  H    5.095013   4.043766   2.736728   2.096398   1.100173
    18  H    5.097421   4.039642   2.742262   2.096061   1.100302
    19  H    5.361198   3.861937   3.349651   2.079992   2.611985
    20  H    4.702733   3.943275   4.926241   4.932793   6.307549
    21  H    6.292749   5.322168   6.052670   5.686331   6.896152
    22  H    2.715997   2.157974   3.390562   3.883618   5.325937
                    6          7          8          9         10
     6  C    0.000000
     7  C    1.371594   0.000000
     8  C    2.424012   1.479711   0.000000
     9  N    3.634848   2.411258   1.354996   0.000000
    10  O    2.763681   2.386032   1.236485   2.254522   0.000000
    11  C    2.425124   1.446894   2.594596   2.912136   3.716206
    12  H    4.783783   4.190206   5.328551   5.339112   6.466288
    13  H    4.779396   4.188227   5.334660   5.371518   6.462654
    14  H    4.778596   4.613486   5.987964   6.310591   6.999300
    15  H    3.333102   3.869841   5.342831   6.152435   6.024244
    16  H    2.529656   3.900682   4.772367   6.078843   4.638896
    17  H    3.172160   4.357276   5.547306   6.722138   5.721205
    18  H    3.157016   4.339207   5.517333   6.673510   5.698262
    19  H    1.088928   2.145938   2.619773   3.963940   2.435826
    20  H    3.961904   2.609025   2.082959   1.008663   3.172949
    21  H    4.455626   3.336567   2.042623   1.009690   2.481401
    22  H    3.425515   2.228971   2.892841   2.680313   4.120066
                   11         12         13         14         15
    11  C    0.000000
    12  H    2.829594   0.000000
    13  H    2.830045   1.768963   0.000000
    14  H    3.440883   1.781392   1.781100   0.000000
    15  H    3.423926   3.524528   3.517616   2.396705   0.000000
    16  H    4.743449   6.469558   6.464400   5.893063   3.641942
    17  H    4.728906   5.922121   5.651126   4.907794   2.589757
    18  H    4.715911   5.650534   5.925067   4.917073   2.611631
    19  H    3.428355   5.855989   5.852089   5.833868   4.190282
    20  H    2.565451   4.622232   4.704967   5.760668   5.970617
    21  H    3.921109   6.277087   6.323296   7.308914   7.137835
    22  H    1.088430   2.766265   2.750453   3.783880   4.322344
                   16         17         18         19         20
    16  H    0.000000
    17  H    1.787497   0.000000
    18  H    1.787497   1.784983   0.000000
    19  H    2.217755   3.385028   3.365724   0.000000
    20  H    6.483300   6.919858   6.843838   4.514157   0.000000
    21  H    6.796189   7.572114   7.509040   4.608823   1.728289
    22  H    5.816342   5.787902   5.783031   4.354004   1.997865
                   21         22
    21  H    0.000000
    22  H    3.628035   0.000000
 Stoichiometry    C8H11N2O(2)
 Framework group  C1[X(C8H11N2O)]
 Deg. of freedom    60
 Full point group                 C1      NOp   1
 Largest Abelian subgroup         C1      NOp   1
 Largest concise Abelian subgroup C1      NOp   1
                         Standard orientation:                         
 ---------------------------------------------------------------------
 Center     Atomic      Atomic             Coordinates (Angstroms)
 Number     Number       Type             X           Y           Z
 ---------------------------------------------------------------------
      1          6           0       -2.166581    2.462800    0.008445
      2          6           0       -1.355417    1.201101    0.005551
      3          6           0       -1.994088   -0.019841   -0.003910
      4          7           0       -1.255407   -1.210774   -0.000988
      5          6           0       -1.974034   -2.462002   -0.030299
      6          6           0        0.095236   -1.163463    0.011039
      7          6           0        0.791104    0.018445    0.022483
      8          6           0        2.267042   -0.086857    0.014450
      9          7           0        2.955769    1.078436   -0.046868
     10          8           0        2.858725   -1.172225    0.042431
     11          6           0        0.050160    1.261223    0.020637
     12          1           0       -1.924092    3.083277   -0.867648
     13          1           0       -1.943327    3.066740    0.901134
     14          1           0       -3.244092    2.254668   -0.004883
     15          1           0       -3.075497   -0.136090   -0.011935
     16          1           0       -1.264982   -3.296114   -0.016691
     17          1           0       -2.638273   -2.541193    0.843140
     18          1           0       -2.587900   -2.527649   -0.941081
     19          1           0        0.615198   -2.120227    0.008796
     20          1           0        2.507576    1.974510   -0.163388
     21          1           0        3.963359    1.044996   -0.102697
     22          1           0        0.539161    2.232807    0.060419
 ---------------------------------------------------------------------
 Rotational constants (GHZ):           1.5656611           0.8621524           0.5600732
 Basis read from rwf:  (5D, 7F)
 Pseudo-potential data read from rwf file.
 There are   333 symmetry adapted cartesian basis functions of A   symmetry.
 There are   311 symmetry adapted basis functions of A   symmetry.
   311 basis functions,   465 primitive gaussians,   333 cartesian basis functions
    41 alpha electrons       40 beta electrons
       nuclear repulsion energy       594.7470787078 Hartrees.
 NAtoms=   22 NActive=   22 NUniq=   22 SFac= 1.00D+00 NAtFMM=   60 NAOKFM=F Big=F
 Integral buffers will be    131072 words long.
 Raffenetti 2 integral format.
 Two-electron integral symmetry is turned on.
 Nuclear repulsion after empirical dispersion term =      594.7272518574 Hartrees.
 ------------------------------------------------------------------------------
 Polarizable Continuum Model (PCM)
 =================================
 Model                : PCM.
 Atomic radii         : SMD-Coulomb.
 Polarization charges : Total charges.
 Charge compensation  : None.
 Solution method      : On-the-fly selection.
 Cavity type          : VdW (van der Waals Surface) (Alpha=1.000).
 Cavity algorithm     : GePol (No added spheres)
                        Default sphere list used, NSphG=   22.
                        Lebedev-Laikov grids with approx.  5.0 points / Ang**2.
                        Smoothing algorithm: York/Karplus (Gamma=1.0000).
                        Polarization charges: spherical gaussians, with
                                              point-specific exponents (IZeta= 3).
                        Self-potential: point-specific (ISelfS= 7).
                        Self-field    : sphere-specific E.n sum rule (ISelfD= 2).
 1st derivatives      : Analytical E(r).r(x)/FMM algorithm (CHGder, D1EAlg=3).
                        Cavity 1st derivative terms included.
 Solvent              : DiMethylSulfoxide, Eps=  46.826000 Eps(inf)=   2.007889
 ------------------------------------------------------------------------------
 ------------------------------------------------------------------------------
 Atomic radii for non-electrostatic terms: SMD-CDS.
 ------------------------------------------------------------------------------
 Nuclear repulsion after PCM non-electrostatic terms =      594.7277321523 Hartrees.
 One-electron integrals computed using PRISM.
   1 Symmetry operations used in ECPInt.
 ECPInt:  NShTT=    8911 NPrTT=   24707 LenC2=    8776 LenP2D=   20101.
 LDataN:  DoStor=T MaxTD1= 4 Len=   56
 NBasis=   311 RedAO= T EigKep=  9.05D-06  NBF=   311
 NBsUse=   311 1.00D-06 EigRej= -1.00D+00 NBFU=   311
 Initial guess from the checkpoint file:  "/scratch/aplatt/job_46371443/Gau-3795827.chk"
 B after Tr=    -0.000000    0.000000   -0.000000
         Rot=    1.000000    0.000071    0.000044   -0.000929 Ang=   0.11 deg.
 Initial guess <Sx>= 0.0000 <Sy>= 0.0000 <Sz>= 0.5000 <S**2>= 0.7682 S= 0.5091
 ExpMin= 6.71D-02 ExpMax= 2.27D+03 ExpMxC= 3.41D+02 IAcc=3 IRadAn=         5 AccDes= 0.00D+00
 Harris functional with IExCor= 1009 and IRadAn=       5 diagonalized for initial guess.
 HarFok:  IExCor= 1009 AccDes= 0.00D+00 IRadAn=         5 IDoV= 1 UseB2=F ITyADJ=14
 ICtDFT=  3500011 ScaDFX=  1.000000  1.000000  1.000000  1.000000
 FoFCou: FMM=F IPFlag=           0 FMFlag=      100000 FMFlg1=           0
         NFxFlg=           0 DoJE=T BraDBF=F KetDBF=T FulRan=T
         wScrn=  0.000000 ICntrl=       500 IOpCl=  0 I1Cent=   200000004 NGrid=           0
         NMat0=    1 NMatS0=      1 NMatT0=    0 NMatD0=    1 NMtDS0=    0 NMtDT0=    0
 Petite list used in FoFCou.
 Requested convergence on RMS density matrix=1.00D-08 within 128 cycles.
 Requested convergence on MAX density matrix=1.00D-06.
 Requested convergence on             energy=1.00D-06.
 No special actions if energy rises.
 Inv3:  Mode=1 IEnd=     9335088.
 Iteration    1 A*A^-1 deviation from unit magnitude is 3.11D-15 for   1522.
 Iteration    1 A*A^-1 deviation from orthogonality  is 3.44D-15 for   1326    117.
 Iteration    1 A^-1*A deviation from unit magnitude is 3.00D-15 for    737.
 Iteration    1 A^-1*A deviation from orthogonality  is 8.62D-15 for   1150   1114.
 Error on total polarization charges =  0.03898
 SCF Done:  E(UPBE1PBE) =  -495.324297714     A.U. after   16 cycles
            NFock= 16  Conv=0.29D-08     -V/T= 2.0110
 <Sx>= 0.0000 <Sy>= 0.0000 <Sz>= 0.5000 <S**2>= 0.7682 S= 0.5091
 <L.S>= 0.000000000000E+00
 SMD-CDS (non-electrostatic) energy       (kcal/mol) =       0.30
 (included in total energy above)
 Annihilation of the first spin contaminant:
 S**2 before annihilation     0.7682,   after     0.7501
   1 Symmetry operations used in ECPInt.
 ECPInt:  NShTT=    8911 NPrTT=   24707 LenC2=    8776 LenP2D=   20101.
 LDataN:  DoStor=T MaxTD1= 5 Len=  102
 D1PCM: PCM CHGder 1st derivatives, ID1Alg=3 FixD1E=F DoIter=F DoCFld=F I1PDM=0.
 Calling FoFJK, ICntrl=      2127 FMM=F ISym2X=0 I1Cent= 0 IOpClX= 1 NMat=1 NMatS=1 NMatT=0.
 ***** Axes restored to original set *****
 -------------------------------------------------------------------
 Center     Atomic                   Forces (Hartrees/Bohr)
 Number     Number              X              Y              Z
 -------------------------------------------------------------------
      1        6          -0.000133259    0.000005045    0.000058289
      2        6           0.000093693   -0.002112749   -0.000335447
      3        6           0.000635261    0.003208644   -0.000005133
      4        7           0.001153736   -0.003441222    0.000279924
      5        6          -0.000068176    0.000911828   -0.000068836
      6        6          -0.002670832    0.002972463   -0.000295571
      7        6          -0.000151230   -0.002930531   -0.000092371
      8        6           0.002258333    0.001178163    0.003260616
      9        7          -0.001635683    0.000361490   -0.000583948
     10        8          -0.000956160   -0.000762939   -0.001590623
     11        6           0.000423138    0.002170246   -0.000842202
     12        1           0.000042366    0.000096952   -0.000046667
     13        1           0.000077356    0.000098626    0.000015326
     14        1           0.000140337    0.000050331   -0.000014922
     15        1          -0.000154206   -0.000392309    0.000123494
     16        1          -0.000050350   -0.000130026   -0.000002351
     17        1           0.000033766   -0.000090288    0.000035337
     18        1          -0.000033623    0.000011233   -0.000034843
     19        1           0.000522205   -0.000509278    0.000074436
     20        1          -0.000574224   -0.000520105   -0.000349360
     21        1           0.000332420    0.000213073   -0.000069839
     22        1           0.000715131   -0.000388646    0.000484689
 -------------------------------------------------------------------
 Cartesian Forces:  Max     0.003441222 RMS     0.001145214

 GradGradGradGradGradGradGradGradGradGradGradGradGradGradGradGradGradGrad
 Berny optimization.
 Using GEDIIS/GDIIS optimizer.
 FormGI is forming the generalized inverse of G from B-inverse, IUseBI=4.
 Internal  Forces:  Max     0.002432735 RMS     0.000600424
 Search for a local minimum.
 Step number   5 out of a maximum of  112
 All quantities printed in internal units (Hartrees-Bohrs-Radians)
 Mixed Optimization -- En-DIIS/RFO-DIIS
 Swapping is turned off.
 Update second derivatives using D2CorX and points    3    4    5
 DE= -6.00D-05 DEPred=-1.60D-04 R= 3.75D-01
 Trust test= 3.75D-01 RLast= 1.30D-01 DXMaxT set to 8.49D-01
 ITU=  0  0  1  1  0
     Eigenvalues ---    0.00349   0.00938   0.01082   0.01680   0.01747
     Eigenvalues ---    0.01934   0.02193   0.02211   0.02284   0.02330
     Eigenvalues ---    0.02379   0.02418   0.02511   0.02535   0.05284
     Eigenvalues ---    0.07219   0.07416   0.07574   0.07610   0.14539
     Eigenvalues ---    0.15996   0.15999   0.16000   0.16000   0.16000
     Eigenvalues ---    0.16000   0.16000   0.16006   0.16133   0.16352
     Eigenvalues ---    0.20348   0.23471   0.23613   0.24661   0.24990
     Eigenvalues ---    0.24998   0.25765   0.28075   0.33384   0.34392
     Eigenvalues ---    0.34726   0.34771   0.34929   0.34993   0.35120
     Eigenvalues ---    0.35380   0.35798   0.35962   0.37031   0.39388
     Eigenvalues ---    0.41464   0.44647   0.45389   0.46258   0.47023
     Eigenvalues ---    0.50414   0.54151   0.57273   0.57637   0.97062
 En-DIIS/RFO-DIIS/Sim-DIIS IScMMF=       -3 using points:     5    4    3
 RFO step:  Lambda=-1.59581777D-04.
 DidBck=T Rises=F RFO-DIIS coefs:    0.71822    0.40748   -0.12571
 Iteration  1 RMS(Cart)=  0.00707365 RMS(Int)=  0.00004804
 Iteration  2 RMS(Cart)=  0.00007020 RMS(Int)=  0.00002282
 Iteration  3 RMS(Cart)=  0.00000000 RMS(Int)=  0.00002282
 Variable       Old X    -DE/DX   Delta X   Delta X   Delta X     New X
                                 (Linear)    (Quad)   (Total)
    R1        2.83451  -0.00026   0.00001  -0.00060  -0.00059   2.83392
    R2        2.07984  -0.00008   0.00019  -0.00053  -0.00034   2.07951
    R3        2.07997  -0.00007   0.00020  -0.00052  -0.00032   2.07965
    R4        2.07399  -0.00012   0.00019  -0.00058  -0.00039   2.07360
    R5        2.60391   0.00138  -0.00059   0.00251   0.00192   2.60583
    R6        2.65874  -0.00038   0.00069  -0.00115  -0.00047   2.65827
    R7        2.64830  -0.00128   0.00039  -0.00265  -0.00226   2.64604
    R8        2.05540   0.00002   0.00013  -0.00017  -0.00004   2.05536
    R9        2.72727   0.00071  -0.00005   0.00113   0.00108   2.72835
   R10        2.55401  -0.00175   0.00113  -0.00327  -0.00213   2.55188
   R11        2.06896  -0.00013   0.00012  -0.00046  -0.00034   2.06861
   R12        2.07903  -0.00006   0.00015  -0.00039  -0.00024   2.07878
   R13        2.07927  -0.00000   0.00014  -0.00030  -0.00016   2.07910
   R14        2.59194   0.00124  -0.00063   0.00261   0.00198   2.59392
   R15        2.05778  -0.00005   0.00009  -0.00031  -0.00022   2.05756
   R16        2.79625  -0.00062   0.00081  -0.00099  -0.00018   2.79606
   R17        2.73423  -0.00198   0.00048  -0.00375  -0.00326   2.73097
   R18        2.56057  -0.00078   0.00024  -0.00142  -0.00119   2.55938
   R19        2.33662  -0.00106  -0.00007  -0.00098  -0.00105   2.33557
   R20        1.90610   0.00068  -0.00015   0.00091   0.00076   1.90686
   R21        1.90804   0.00029   0.00004   0.00029   0.00033   1.90837
   R22        2.05683   0.00057  -0.00006   0.00092   0.00086   2.05769
    A1        1.93213  -0.00007   0.00008  -0.00042  -0.00035   1.93179
    A2        1.93202  -0.00011   0.00013  -0.00071  -0.00058   1.93143
    A3        1.95131  -0.00009   0.00004  -0.00030  -0.00026   1.95105
    A4        1.86667   0.00009  -0.00016   0.00055   0.00039   1.86706
    A5        1.88973   0.00009  -0.00003   0.00043   0.00041   1.89014
    A6        1.88919   0.00011  -0.00007   0.00053   0.00046   1.88965
    A7        2.08826   0.00024  -0.00002   0.00079   0.00077   2.08903
    A8        2.09937   0.00037  -0.00017   0.00119   0.00103   2.10039
    A9        2.09554  -0.00060   0.00018  -0.00196  -0.00178   2.09376
   A10        2.10443  -0.00017   0.00032  -0.00048  -0.00016   2.10427
   A11        2.15986  -0.00036  -0.00009  -0.00202  -0.00211   2.15776
   A12        2.01889   0.00054  -0.00023   0.00250   0.00226   2.02116
   A13        2.06492  -0.00026   0.00020  -0.00071  -0.00051   2.06441
   A14        2.09096   0.00069  -0.00047   0.00235   0.00188   2.09284
   A15        2.12721  -0.00043   0.00028  -0.00164  -0.00136   2.12585
   A16        1.91535  -0.00007  -0.00016   0.00011  -0.00005   1.91531
   A17        1.92508  -0.00013   0.00004  -0.00057  -0.00053   1.92454
   A18        1.92446   0.00008   0.00010   0.00008   0.00018   1.92464
   A19        1.90319   0.00008   0.00002   0.00014   0.00016   1.90335
   A20        1.90302   0.00005  -0.00002   0.00031   0.00029   1.90332
   A21        1.89234   0.00001   0.00003  -0.00007  -0.00004   1.89229
   A22        2.13797  -0.00046   0.00005  -0.00174  -0.00168   2.13629
   A23        2.03355   0.00098  -0.00073   0.00497   0.00424   2.03778
   A24        2.11166  -0.00051   0.00067  -0.00323  -0.00255   2.10911
   A25        2.03162   0.00106  -0.00072   0.00279   0.00207   2.03368
   A26        2.07182   0.00019   0.00034  -0.00008   0.00026   2.07208
   A27        2.17962  -0.00124   0.00036  -0.00262  -0.00226   2.17737
   A28        2.03313  -0.00243   0.00113  -0.00716  -0.00590   2.02723
   A29        2.14081   0.00081  -0.00043   0.00196   0.00166   2.14247
   A30        2.10911   0.00164  -0.00100   0.00522   0.00434   2.11346
   A31        2.14525   0.00004  -0.00058   0.00146   0.00088   2.14613
   A32        2.07288  -0.00028   0.00095  -0.00232  -0.00138   2.07150
   A33        2.05607   0.00028  -0.00021   0.00147   0.00126   2.05734
   A34        2.06565   0.00037  -0.00043   0.00191   0.00149   2.06714
   A35        2.07988   0.00042  -0.00012   0.00150   0.00138   2.08125
   A36        2.13720  -0.00079   0.00053  -0.00327  -0.00274   2.13446
    D1       -2.11559   0.00005  -0.00043   0.00226   0.00184  -2.11375
    D2        1.03275  -0.00004   0.00023  -0.00145  -0.00122   1.03153
    D3        2.10072   0.00005  -0.00036   0.00229   0.00194   2.10266
    D4       -1.03413  -0.00004   0.00030  -0.00142  -0.00112  -1.03525
    D5       -0.00705   0.00006  -0.00039   0.00232   0.00194  -0.00511
    D6        3.14129  -0.00004   0.00028  -0.00139  -0.00112   3.14016
    D7       -3.13680   0.00000   0.00025  -0.00048  -0.00023  -3.13703
    D8        0.00260  -0.00002   0.00066  -0.00183  -0.00117   0.00143
    D9       -0.00194   0.00010  -0.00041   0.00324   0.00283   0.00089
   D10        3.13746   0.00008   0.00000   0.00189   0.00189   3.13935
   D11        3.13743   0.00005  -0.00066   0.00244   0.00179   3.13922
   D12        0.02738  -0.00013  -0.00017  -0.00248  -0.00267   0.02472
   D13        0.00261  -0.00005   0.00000  -0.00130  -0.00129   0.00132
   D14       -3.10744  -0.00023   0.00049  -0.00622  -0.00574  -3.11318
   D15       -3.12660  -0.00009   0.00072  -0.00377  -0.00305  -3.12965
   D16       -0.00015  -0.00006   0.00107  -0.00321  -0.00213  -0.00228
   D17        0.01701  -0.00007   0.00034  -0.00252  -0.00217   0.01484
   D18       -3.13972  -0.00004   0.00070  -0.00196  -0.00126  -3.14098
   D19       -3.13441   0.00005   0.00037   0.00018   0.00055  -3.13386
   D20       -1.03726   0.00001   0.00032   0.00007   0.00038  -1.03688
   D21        1.05223  -0.00001   0.00043  -0.00033   0.00010   1.05233
   D22        0.02265   0.00001   0.00001  -0.00043  -0.00041   0.02224
   D23        2.11980  -0.00003  -0.00004  -0.00054  -0.00058   2.11921
   D24       -2.07390  -0.00005   0.00008  -0.00094  -0.00086  -2.07476
   D25        0.00153  -0.00003  -0.00135   0.00119  -0.00016   0.00137
   D26       -3.13755   0.00001  -0.00061   0.00029  -0.00032  -3.13786
   D27        3.12743   0.00000  -0.00099   0.00178   0.00079   3.12822
   D28       -0.01164   0.00004  -0.00025   0.00088   0.00064  -0.01101
   D29       -3.12615  -0.00003   0.00165  -0.00517  -0.00353  -3.12969
   D30       -0.00079   0.00008   0.00094   0.00072   0.00166   0.00087
   D31        0.01281  -0.00007   0.00087  -0.00423  -0.00336   0.00945
   D32        3.13818   0.00004   0.00016   0.00166   0.00183   3.14001
   D33        3.08171   0.00073   0.00631   0.00360   0.00991   3.09162
   D34       -0.04238  -0.00071  -0.01824   0.00238  -0.01586  -0.05823
   D35       -0.04254   0.00060   0.00708  -0.00273   0.00435  -0.03819
   D36        3.11657  -0.00085  -0.01747  -0.00395  -0.02143   3.09514
   D37       -0.00128  -0.00004  -0.00025  -0.00067  -0.00092  -0.00220
   D38        3.10767   0.00017  -0.00075   0.00452   0.00376   3.11143
   D39        3.12259   0.00010  -0.00104   0.00582   0.00478   3.12737
   D40       -0.05165   0.00032  -0.00154   0.01101   0.00946  -0.04219
   D41       -0.09213  -0.00034  -0.01221   0.00584  -0.00637  -0.09851
   D42       -3.08681  -0.00074  -0.01354   0.00074  -0.01279  -3.09960
   D43        3.03229   0.00107   0.01191   0.00700   0.01891   3.05120
   D44        0.03761   0.00067   0.01059   0.00191   0.01249   0.05011
         Item               Value     Threshold  Converged?
 Maximum Force            0.002433     0.000450     NO 
 RMS     Force            0.000600     0.000300     NO 
 Maximum Displacement     0.026105     0.001800     NO 
 RMS     Displacement     0.007110     0.001200     NO 
 Predicted change in Energy=-7.967079D-05
 GradGradGradGradGradGradGradGradGradGradGradGradGradGradGradGradGradGrad

                          Input orientation:                          
 ---------------------------------------------------------------------
 Center     Atomic      Atomic             Coordinates (Angstroms)
 Number     Number       Type             X           Y           Z
 ---------------------------------------------------------------------
      1          6           0       -2.228066   -1.809687    0.212895
      2          6           0       -1.164302   -0.756132    0.127034
      3          6           0       -1.524074    0.571719    0.032834
      4          7           0       -0.546047    1.570011   -0.053788
      5          6           0       -0.977709    2.945334   -0.135384
      6          6           0        0.761857    1.234107   -0.042684
      7          6           0        1.186041   -0.068057    0.049980
      8          6           0        2.649322   -0.286673    0.066479
      9          7           0        3.059720   -1.568373    0.218563
     10          8           0        3.464416    0.633879   -0.058922
     11          6           0        0.195386   -1.116585    0.137719
     12          1           0       -2.121624   -2.394955    1.138676
     13          1           0       -2.142763   -2.516939   -0.625926
     14          1           0       -3.235060   -1.374143    0.194548
     15          1           0       -2.555433    0.916739    0.017385
     16          1           0       -0.105470    3.603059   -0.205278
     17          1           0       -1.611454    3.093855   -1.022178
     18          1           0       -1.560640    3.215571    0.757721
     19          1           0        1.478387    2.051233   -0.109025
     20          1           0        2.423767   -2.330785    0.398866
     21          1           0        4.050351   -1.757084    0.272113
     22          1           0        0.466092   -2.170195    0.185572
 ---------------------------------------------------------------------
                    Distance matrix (angstroms):
                    1          2          3          4          5
     1  C    0.000000
     2  C    1.499648   0.000000
     3  C    2.489803   1.378947   0.000000
     4  N    3.784530   2.413685   1.400224   0.000000
     5  C    4.928987   3.715445   2.441488   1.443781   0.000000
     6  C    4.274300   2.774878   2.381164   1.350396   2.441922
     7  C    3.836136   2.450204   2.784659   2.386245   3.714391
     8  C    5.111744   3.842889   4.260892   3.697584   4.862301
     9  N    5.293292   4.302381   5.062179   4.788025   6.066273
    10  O    6.200746   4.836502   4.989721   4.118275   5.008108
    11  C    2.521738   1.406696   2.412034   2.793599   4.236735
    12  H    1.100427   2.150726   3.221972   4.430053   5.608070
    13  H    1.100501   2.150529   3.218159   4.424930   5.606640
    14  H    1.097302   2.162066   2.596151   3.995060   4.884912
    15  H    2.752960   2.178477   1.087649   2.114110   2.574441
    16  H    5.829073   4.498233   3.355317   2.085747   1.094663
    17  H    5.094147   4.042651   2.735299   2.096419   1.100044
    18  H    5.098579   4.040949   2.741670   2.096620   1.100215
    19  H    5.361728   3.862749   3.350202   2.081576   2.613908
    20  H    4.684622   3.927807   4.913650   4.923505   6.300230
    21  H    6.278917   5.311833   6.046055   5.683542   6.896389
    22  H    2.718308   2.158979   3.391486   3.882121   5.325055
                    6          7          8          9         10
     6  C    0.000000
     7  C    1.372644   0.000000
     8  C    2.426358   1.479614   0.000000
     9  N    3.633500   2.406250   1.354368   0.000000
    10  O    2.768459   2.386539   1.235928   2.256256   0.000000
    11  C    2.424703   1.445166   2.591454   2.900872   3.713401
    12  H    4.783321   4.188121   5.325071   5.326929   6.466213
    13  H    4.779888   4.187458   5.330815   5.355256   6.456748
    14  H    4.778555   4.612254   5.985394   6.297822   6.998527
    15  H    3.332978   3.869045   5.342292   6.143793   6.026974
    16  H    2.527969   3.900032   4.774175   6.077975   4.645594
    17  H    3.170280   4.355823   5.546833   6.715331   5.722221
    18  H    3.156080   4.339052   5.519720   6.672671   5.708173
    19  H    1.088811   2.145260   2.620629   3.963518   2.440434
    20  H    3.957950   2.602619   2.083207   1.009068   3.175177
    21  H    4.456514   3.332631   2.041391   1.009866   2.483869
    22  H    3.424741   2.226139   2.885885   2.662740   4.112488
                   11         12         13         14         15
    11  C    0.000000
    12  H    2.829254   0.000000
    13  H    2.830386   1.768939   0.000000
    14  H    3.440570   1.781341   1.781088   0.000000
    15  H    3.422848   3.523180   3.517711   2.396126   0.000000
    16  H    4.741645   6.468945   6.463890   5.892938   3.642555
    17  H    4.726292   5.920861   5.649806   4.907089   2.590679
    18  H    4.715464   5.651356   5.925792   4.917959   2.611960
    19  H    3.426666   5.855375   5.852188   5.834546   4.192225
    20  H    2.551110   4.605650   4.683807   5.742755   5.956876
    21  H    3.910122   6.265068   6.303849   7.295880   7.130960
    22  H    1.088884   2.766803   2.754066   3.785803   4.322854
                   16         17         18         19         20
    16  H    0.000000
    17  H    1.787345   0.000000
    18  H    1.787466   1.784779   0.000000
    19  H    2.219466   3.386447   3.367880   0.000000
    20  H    6.478621   6.908625   6.838593   4.511516   0.000000
    21  H    6.799256   7.567221   7.513078   4.611241   1.729443
    22  H    5.814629   5.786630   5.782861   4.351090   1.975797
                   21         22
    21  H    0.000000
    22  H    3.609025   0.000000
 Stoichiometry    C8H11N2O(2)
 Framework group  C1[X(C8H11N2O)]
 Deg. of freedom    60
 Full point group                 C1      NOp   1
 Largest Abelian subgroup         C1      NOp   1
 Largest concise Abelian subgroup C1      NOp   1
                         Standard orientation:                         
 ---------------------------------------------------------------------
 Center     Atomic      Atomic             Coordinates (Angstroms)
 Number     Number       Type             X           Y           Z
 ---------------------------------------------------------------------
      1          6           0       -2.158595    2.466884    0.012349
      2          6           0       -1.351332    1.203064    0.007118
      3          6           0       -1.993156   -0.017370   -0.002787
      4          7           0       -1.257512   -1.208779   -0.002308
      5          6           0       -1.979704   -2.458689   -0.028118
      6          6           0        0.092209   -1.166774    0.005257
      7          6           0        0.791269    0.014490    0.014238
      8          6           0        2.267089   -0.091085    0.006084
      9          7           0        2.948906    1.077998   -0.045711
     10          8           0        2.860255   -1.174378    0.052448
     11          6           0        0.054274    1.257605    0.016737
     12          1           0       -1.916542    3.086321   -0.864378
     13          1           0       -1.930580    3.069634    0.904427
     14          1           0       -3.236491    2.261685    0.002160
     15          1           0       -3.075049   -0.128972   -0.008483
     16          1           0       -1.272808   -3.294422   -0.016447
     17          1           0       -2.640605   -2.535095    0.847935
     18          1           0       -2.597377   -2.523414   -0.936283
     19          1           0        0.612423   -2.123265    0.001630
     20          1           0        2.496680    1.972715   -0.160554
     21          1           0        3.957388    1.049481   -0.090225
     22          1           0        0.548832    2.227075    0.051495
 ---------------------------------------------------------------------
 Rotational constants (GHZ):           1.5652761           0.8633508           0.5605289
 Basis read from rwf:  (5D, 7F)
 Pseudo-potential data read from rwf file.
 There are   333 symmetry adapted cartesian basis functions of A   symmetry.
 There are   311 symmetry adapted basis functions of A   symmetry.
   311 basis functions,   465 primitive gaussians,   333 cartesian basis functions
    41 alpha electrons       40 beta electrons
       nuclear repulsion energy       594.9184899773 Hartrees.
 NAtoms=   22 NActive=   22 NUniq=   22 SFac= 1.00D+00 NAtFMM=   60 NAOKFM=F Big=F
 Integral buffers will be    131072 words long.
 Raffenetti 2 integral format.
 Two-electron integral symmetry is turned on.
 Nuclear repulsion after empirical dispersion term =      594.8986538744 Hartrees.
 ------------------------------------------------------------------------------
 Polarizable Continuum Model (PCM)
 =================================
 Model                : PCM.
 Atomic radii         : SMD-Coulomb.
 Polarization charges : Total charges.
 Charge compensation  : None.
 Solution method      : On-the-fly selection.
 Cavity type          : VdW (van der Waals Surface) (Alpha=1.000).
 Cavity algorithm     : GePol (No added spheres)
                        Default sphere list used, NSphG=   22.
                        Lebedev-Laikov grids with approx.  5.0 points / Ang**2.
                        Smoothing algorithm: York/Karplus (Gamma=1.0000).
                        Polarization charges: spherical gaussians, with
                                              point-specific exponents (IZeta= 3).
                        Self-potential: point-specific (ISelfS= 7).
                        Self-field    : sphere-specific E.n sum rule (ISelfD= 2).
 1st derivatives      : Analytical E(r).r(x)/FMM algorithm (CHGder, D1EAlg=3).
                        Cavity 1st derivative terms included.
 Solvent              : DiMethylSulfoxide, Eps=  46.826000 Eps(inf)=   2.007889
 ------------------------------------------------------------------------------
 ------------------------------------------------------------------------------
 Atomic radii for non-electrostatic terms: SMD-CDS.
 ------------------------------------------------------------------------------
 Nuclear repulsion after PCM non-electrostatic terms =      594.8991254125 Hartrees.
 One-electron integrals computed using PRISM.
   1 Symmetry operations used in ECPInt.
 ECPInt:  NShTT=    8911 NPrTT=   24707 LenC2=    8777 LenP2D=   20107.
 LDataN:  DoStor=T MaxTD1= 4 Len=   56
 NBasis=   311 RedAO= T EigKep=  9.04D-06  NBF=   311
 NBsUse=   311 1.00D-06 EigRej= -1.00D+00 NBFU=   311
 Initial guess from the checkpoint file:  "/scratch/aplatt/job_46371443/Gau-3795827.chk"
 B after Tr=    -0.000000   -0.000000   -0.000000
         Rot=    1.000000   -0.000009   -0.000060    0.000719 Ang=  -0.08 deg.
 Initial guess <Sx>= 0.0000 <Sy>= 0.0000 <Sz>= 0.5000 <S**2>= 0.7682 S= 0.5091
 ExpMin= 6.71D-02 ExpMax= 2.27D+03 ExpMxC= 3.41D+02 IAcc=3 IRadAn=         5 AccDes= 0.00D+00
 Harris functional with IExCor= 1009 and IRadAn=       5 diagonalized for initial guess.
 HarFok:  IExCor= 1009 AccDes= 0.00D+00 IRadAn=         5 IDoV= 1 UseB2=F ITyADJ=14
 ICtDFT=  3500011 ScaDFX=  1.000000  1.000000  1.000000  1.000000
 FoFCou: FMM=F IPFlag=           0 FMFlag=      100000 FMFlg1=           0
         NFxFlg=           0 DoJE=T BraDBF=F KetDBF=T FulRan=T
         wScrn=  0.000000 ICntrl=       500 IOpCl=  0 I1Cent=   200000004 NGrid=           0
         NMat0=    1 NMatS0=      1 NMatT0=    0 NMatD0=    1 NMtDS0=    0 NMtDT0=    0
 Petite list used in FoFCou.
 Requested convergence on RMS density matrix=1.00D-08 within 128 cycles.
 Requested convergence on MAX density matrix=1.00D-06.
 Requested convergence on             energy=1.00D-06.
 No special actions if energy rises.
 Inv3:  Mode=1 IEnd=     9377472.
 Iteration    1 A*A^-1 deviation from unit magnitude is 3.22D-15 for    592.
 Iteration    1 A*A^-1 deviation from orthogonality  is 2.37D-15 for    608    379.
 Iteration    1 A^-1*A deviation from unit magnitude is 2.78D-15 for   1120.
 Iteration    1 A^-1*A deviation from orthogonality  is 4.02D-15 for   1151   1115.
 Error on total polarization charges =  0.03898
 SCF Done:  E(UPBE1PBE) =  -495.324386554     A.U. after   14 cycles
            NFock= 14  Conv=0.60D-08     -V/T= 2.0109
 <Sx>= 0.0000 <Sy>= 0.0000 <Sz>= 0.5000 <S**2>= 0.7682 S= 0.5090
 <L.S>= 0.000000000000E+00
 SMD-CDS (non-electrostatic) energy       (kcal/mol) =       0.30
 (included in total energy above)
 Annihilation of the first spin contaminant:
 S**2 before annihilation     0.7682,   after     0.7501
   1 Symmetry operations used in ECPInt.
 ECPInt:  NShTT=    8911 NPrTT=   24707 LenC2=    8777 LenP2D=   20107.
 LDataN:  DoStor=T MaxTD1= 5 Len=  102
 D1PCM: PCM CHGder 1st derivatives, ID1Alg=3 FixD1E=F DoIter=F DoCFld=F I1PDM=0.
 Calling FoFJK, ICntrl=      2127 FMM=F ISym2X=0 I1Cent= 0 IOpClX= 1 NMat=1 NMatS=1 NMatT=0.
 ***** Axes restored to original set *****
 -------------------------------------------------------------------
 Center     Atomic                   Forces (Hartrees/Bohr)
 Number     Number              X              Y              Z
 -------------------------------------------------------------------
      1        6          -0.000028233    0.000089130   -0.000018929
      2        6           0.000175840   -0.001090561   -0.000072900
      3        6           0.000173585    0.001463761   -0.000026782
      4        7           0.000790567   -0.001625876    0.000200124
      5        6          -0.000128808    0.000616864   -0.000098139
      6        6          -0.001332305    0.001063385   -0.000049046
      7        6           0.000071309   -0.000840655    0.000383446
      8        6           0.000506914    0.000430285   -0.000284679
      9        7          -0.000237839    0.000091784    0.000343151
     10        8          -0.000391625   -0.000430728   -0.000020199
     11        6          -0.000085466    0.000939604   -0.000595325
     12        1           0.000024176    0.000015583    0.000032595
     13        1           0.000031005   -0.000003844   -0.000041522
     14        1           0.000005912    0.000062881   -0.000018622
     15        1          -0.000076952   -0.000175281    0.000076338
     16        1           0.000027732   -0.000064259    0.000001637
     17        1          -0.000009406   -0.000058443   -0.000021613
     18        1          -0.000038286   -0.000015516    0.000018429
     19        1           0.000284050   -0.000184484    0.000041527
     20        1          -0.000109615   -0.000120657   -0.000173876
     21        1           0.000176169   -0.000024273   -0.000044301
     22        1           0.000171275   -0.000138700    0.000368686
 -------------------------------------------------------------------
 Cartesian Forces:  Max     0.001625876 RMS     0.000454503

 GradGradGradGradGradGradGradGradGradGradGradGradGradGradGradGradGradGrad
 Berny optimization.
 Using GEDIIS/GDIIS optimizer.
 FormGI is forming the generalized inverse of G from B-inverse, IUseBI=4.
 Internal  Forces:  Max     0.000848014 RMS     0.000192176
 Search for a local minimum.
 Step number   6 out of a maximum of  112
 All quantities printed in internal units (Hartrees-Bohrs-Radians)
 Mixed Optimization -- En-DIIS/RFO-DIIS
 Swapping is turned off.
 Update second derivatives using D2CorX and points    2    3    4    5    6
 DE= -8.88D-05 DEPred=-7.97D-05 R= 1.12D+00
 TightC=F SS=  1.41D+00  RLast= 4.43D-02 DXNew= 1.4270D+00 1.3294D-01
 Trust test= 1.12D+00 RLast= 4.43D-02 DXMaxT set to 8.49D-01
 ITU=  1  0  0  1  1  0
     Eigenvalues ---    0.00395   0.00938   0.01081   0.01676   0.01692
     Eigenvalues ---    0.01945   0.02078   0.02201   0.02267   0.02330
     Eigenvalues ---    0.02372   0.02415   0.02509   0.02538   0.05478
     Eigenvalues ---    0.07223   0.07422   0.07574   0.07609   0.15006
     Eigenvalues ---    0.15222   0.15999   0.16000   0.16000   0.16000
     Eigenvalues ---    0.16000   0.16002   0.16014   0.16059   0.16315
     Eigenvalues ---    0.20556   0.22736   0.23551   0.24732   0.24966
     Eigenvalues ---    0.24998   0.25815   0.27934   0.33711   0.34716
     Eigenvalues ---    0.34765   0.34929   0.35020   0.35103   0.35334
     Eigenvalues ---    0.35627   0.35842   0.36026   0.37814   0.38690
     Eigenvalues ---    0.41879   0.44552   0.45522   0.45840   0.46416
     Eigenvalues ---    0.48649   0.54013   0.54978   0.57542   0.97193
 En-DIIS/RFO-DIIS/Sim-DIIS IScMMF=       -3 using points:     6    5    4    3
 RFO step:  Lambda=-2.41848152D-05.
 DidBck=F Rises=F RFO-DIIS coefs:    1.83762   -0.58795   -0.33178    0.08210
 Iteration  1 RMS(Cart)=  0.00412363 RMS(Int)=  0.00002551
 Iteration  2 RMS(Cart)=  0.00001629 RMS(Int)=  0.00002098
 Iteration  3 RMS(Cart)=  0.00000000 RMS(Int)=  0.00002098
 Variable       Old X    -DE/DX   Delta X   Delta X   Delta X     New X
                                 (Linear)    (Quad)   (Total)
    R1        2.83392  -0.00014  -0.00042  -0.00009  -0.00051   2.83342
    R2        2.07951   0.00003  -0.00047   0.00046  -0.00000   2.07951
    R3        2.07965   0.00004  -0.00045   0.00049   0.00004   2.07968
    R4        2.07360   0.00001  -0.00050   0.00045  -0.00005   2.07355
    R5        2.60583   0.00063   0.00213  -0.00002   0.00211   2.60794
    R6        2.65827  -0.00026  -0.00117  -0.00012  -0.00128   2.65699
    R7        2.64604  -0.00054  -0.00206   0.00055  -0.00151   2.64453
    R8        2.05536   0.00002  -0.00017   0.00012  -0.00005   2.05531
    R9        2.72835   0.00051   0.00087   0.00092   0.00179   2.73014
   R10        2.55188  -0.00085  -0.00294   0.00018  -0.00276   2.54912
   R11        2.06861  -0.00003  -0.00038   0.00023  -0.00015   2.06846
   R12        2.07878   0.00002  -0.00034   0.00033  -0.00001   2.07877
   R13        2.07910   0.00004  -0.00027   0.00032   0.00004   2.07915
   R14        2.59392   0.00043   0.00222  -0.00075   0.00147   2.59539
   R15        2.05756   0.00005  -0.00026   0.00040   0.00015   2.05770
   R16        2.79606  -0.00004  -0.00100   0.00081  -0.00020   2.79587
   R17        2.73097  -0.00057  -0.00283   0.00136  -0.00146   2.72951
   R18        2.55938  -0.00001  -0.00113   0.00117   0.00004   2.55942
   R19        2.33557  -0.00057  -0.00065  -0.00003  -0.00068   2.33489
   R20        1.90686   0.00012   0.00070  -0.00053   0.00018   1.90704
   R21        1.90837   0.00018   0.00021   0.00027   0.00048   1.90885
   R22        2.05769   0.00019   0.00071  -0.00013   0.00058   2.05827
    A1        1.93179  -0.00004  -0.00035  -0.00002  -0.00037   1.93142
    A2        1.93143  -0.00003  -0.00058   0.00029  -0.00030   1.93114
    A3        1.95105  -0.00006  -0.00023  -0.00029  -0.00052   1.95053
    A4        1.86706   0.00004   0.00048  -0.00004   0.00045   1.86750
    A5        1.89014   0.00005   0.00033   0.00009   0.00042   1.89056
    A6        1.88965   0.00005   0.00042  -0.00003   0.00039   1.89004
    A7        2.08903   0.00003   0.00055  -0.00060  -0.00005   2.08898
    A8        2.10039   0.00022   0.00098   0.00025   0.00123   2.10162
    A9        2.09376  -0.00025  -0.00152   0.00035  -0.00117   2.09259
   A10        2.10427  -0.00012  -0.00055  -0.00037  -0.00093   2.10334
   A11        2.15776  -0.00015  -0.00143   0.00023  -0.00120   2.15656
   A12        2.02116   0.00027   0.00198   0.00014   0.00212   2.02328
   A13        2.06441  -0.00020  -0.00065  -0.00056  -0.00121   2.06320
   A14        2.09284   0.00031   0.00199  -0.00019   0.00180   2.09463
   A15        2.12585  -0.00011  -0.00133   0.00077  -0.00056   2.12529
   A16        1.91531  -0.00006   0.00015  -0.00049  -0.00034   1.91497
   A17        1.92454  -0.00008  -0.00047  -0.00041  -0.00087   1.92367
   A18        1.92464   0.00000   0.00002  -0.00012  -0.00010   1.92455
   A19        1.90335   0.00007   0.00010   0.00046   0.00056   1.90390
   A20        1.90332   0.00006   0.00025   0.00044   0.00070   1.90401
   A21        1.89229   0.00003  -0.00006   0.00014   0.00009   1.89238
   A22        2.13629  -0.00007  -0.00126   0.00091  -0.00035   2.13594
   A23        2.03778   0.00037   0.00400  -0.00066   0.00334   2.04112
   A24        2.10911  -0.00030  -0.00274  -0.00025  -0.00299   2.10612
   A25        2.03368   0.00020   0.00227  -0.00131   0.00095   2.03463
   A26        2.07208  -0.00008  -0.00032  -0.00082  -0.00114   2.07094
   A27        2.17737  -0.00013  -0.00188   0.00212   0.00023   2.17759
   A28        2.02723  -0.00024  -0.00548   0.00526  -0.00034   2.02689
   A29        2.14247   0.00010   0.00171  -0.00140   0.00019   2.14266
   A30        2.11346   0.00015   0.00411  -0.00384   0.00015   2.11361
   A31        2.14613   0.00001   0.00146  -0.00032   0.00111   2.14724
   A32        2.07150  -0.00002  -0.00214   0.00185  -0.00031   2.07119
   A33        2.05734   0.00003   0.00117  -0.00064   0.00050   2.05784
   A34        2.06714   0.00020   0.00166   0.00013   0.00178   2.06892
   A35        2.08125   0.00003   0.00101  -0.00109  -0.00010   2.08116
   A36        2.13446  -0.00023  -0.00257   0.00111  -0.00149   2.13297
    D1       -2.11375   0.00003   0.00188   0.00066   0.00254  -2.11121
    D2        1.03153  -0.00001  -0.00114   0.00101  -0.00013   1.03139
    D3        2.10266   0.00002   0.00187   0.00053   0.00241   2.10507
    D4       -1.03525  -0.00001  -0.00115   0.00089  -0.00027  -1.03551
    D5       -0.00511   0.00002   0.00191   0.00056   0.00247  -0.00264
    D6        3.14016  -0.00001  -0.00112   0.00092  -0.00020   3.13996
    D7       -3.13703  -0.00001  -0.00037  -0.00015  -0.00051  -3.13755
    D8        0.00143  -0.00000  -0.00162   0.00078  -0.00084   0.00059
    D9        0.00089   0.00003   0.00266  -0.00050   0.00215   0.00304
   D10        3.13935   0.00003   0.00140   0.00043   0.00183   3.14118
   D11        3.13922   0.00003   0.00213   0.00002   0.00215   3.14136
   D12        0.02472  -0.00013  -0.00182  -0.00606  -0.00789   0.01683
   D13        0.00132  -0.00001  -0.00091   0.00038  -0.00054   0.00078
   D14       -3.11318  -0.00016  -0.00486  -0.00570  -0.01057  -3.12375
   D15       -3.12965  -0.00006  -0.00317  -0.00101  -0.00418  -3.13383
   D16       -0.00228  -0.00003  -0.00285   0.00084  -0.00202  -0.00429
   D17        0.01484  -0.00006  -0.00201  -0.00186  -0.00387   0.01097
   D18       -3.14098  -0.00003  -0.00169  -0.00002  -0.00171   3.14050
   D19       -3.13386   0.00003  -0.00003   0.00057   0.00054  -3.13332
   D20       -1.03688   0.00002  -0.00010   0.00056   0.00046  -1.03642
   D21        1.05233  -0.00000  -0.00045   0.00041  -0.00005   1.05228
   D22        0.02224  -0.00001  -0.00038  -0.00130  -0.00168   0.02056
   D23        2.11921  -0.00002  -0.00045  -0.00131  -0.00176   2.11746
   D24       -2.07476  -0.00004  -0.00080  -0.00147  -0.00227  -2.07703
   D25        0.00137   0.00000   0.00127  -0.00108   0.00018   0.00155
   D26       -3.13786   0.00000   0.00046  -0.00027   0.00019  -3.13768
   D27        3.12822   0.00004   0.00160   0.00082   0.00242   3.13064
   D28       -0.01101   0.00004   0.00079   0.00163   0.00242  -0.00858
   D29       -3.12969  -0.00003  -0.00456   0.00174  -0.00283  -3.13251
   D30        0.00087   0.00002   0.00046   0.00096   0.00142   0.00229
   D31        0.00945  -0.00003  -0.00370   0.00089  -0.00283   0.00663
   D32        3.14001   0.00002   0.00131   0.00011   0.00142   3.14142
   D33        3.09162   0.00001   0.00527  -0.00061   0.00465   3.09627
   D34       -0.05823   0.00000   0.00378   0.00071   0.00450  -0.05373
   D35       -0.03819  -0.00004  -0.00010   0.00024   0.00012  -0.03807
   D36        3.09514  -0.00005  -0.00159   0.00156  -0.00002   3.09512
   D37       -0.00220  -0.00001  -0.00064  -0.00059  -0.00122  -0.00342
   D38        3.11143   0.00015   0.00351   0.00565   0.00915   3.12058
   D39        3.12737   0.00004   0.00487  -0.00146   0.00340   3.13077
   D40       -0.04219   0.00020   0.00901   0.00478   0.01377  -0.02841
   D41       -0.09851   0.00016   0.00489   0.00479   0.00968  -0.08883
   D42       -3.09960  -0.00005   0.00078  -0.00269  -0.00192  -3.10152
   D43        3.05120   0.00016   0.00632   0.00349   0.00982   3.06102
   D44        0.05011  -0.00004   0.00221  -0.00399  -0.00178   0.04833
         Item               Value     Threshold  Converged?
 Maximum Force            0.000848     0.000450     NO 
 RMS     Force            0.000192     0.000300     YES
 Maximum Displacement     0.024024     0.001800     NO 
 RMS     Displacement     0.004124     0.001200     NO 
 Predicted change in Energy=-1.196411D-05
 GradGradGradGradGradGradGradGradGradGradGradGradGradGradGradGradGradGrad

                          Input orientation:                          
 ---------------------------------------------------------------------
 Center     Atomic      Atomic             Coordinates (Angstroms)
 Number     Number       Type             X           Y           Z
 ---------------------------------------------------------------------
      1          6           0       -2.227552   -1.809726    0.212459
      2          6           0       -1.163981   -0.756352    0.126685
      3          6           0       -1.524103    0.572655    0.033837
      4          7           0       -0.545757    1.569585   -0.051978
      5          6           0       -0.978257    2.945408   -0.137411
      6          6           0        0.761060    1.235377   -0.039348
      7          6           0        1.186249   -0.067219    0.054162
      8          6           0        2.649347   -0.286490    0.068751
      9          7           0        3.058891   -1.569043    0.216065
     10          8           0        3.464667    0.633712   -0.054174
     11          6           0        0.195512   -1.114832    0.139104
     12          1           0       -2.121668   -2.393889    1.139001
     13          1           0       -2.141175   -2.517530   -0.625811
     14          1           0       -3.234312   -1.373766    0.192726
     15          1           0       -2.555868    0.916403    0.018836
     16          1           0       -0.106060    3.603110   -0.206769
     17          1           0       -1.609999    3.090839   -1.026137
     18          1           0       -1.563761    3.216914    0.753652
     19          1           0        1.479619    2.050885   -0.104926
     20          1           0        2.422505   -2.333563    0.386152
     21          1           0        4.049783   -1.758606    0.266514
     22          1           0        0.467561   -2.167972    0.195811
 ---------------------------------------------------------------------
                    Distance matrix (angstroms):
                    1          2          3          4          5
     1  C    0.000000
     2  C    1.499379   0.000000
     3  C    2.490479   1.380061   0.000000
     4  N    3.783926   2.413318   1.399426   0.000000
     5  C    4.928940   3.715813   2.440744   1.444730   0.000000
     6  C    4.274091   2.774947   2.380446   1.348935   2.441116
     7  C    3.836068   2.450253   2.784934   2.385422   3.714527
     8  C    5.111266   3.842602   4.261107   3.697064   4.862837
     9  N    5.291920   4.301290   5.062006   4.787099   6.066611
    10  O    6.200228   4.836255   4.989919   4.118175   5.009036
    11  C    2.521804   1.406016   2.411590   2.791431   4.235534
    12  H    1.100427   2.150228   3.221624   4.428437   5.607559
    13  H    1.100520   2.150095   3.219497   4.424833   5.606657
    14  H    1.097277   2.161443   2.595885   3.993936   4.884060
    15  H    2.752645   2.178782   1.087624   2.114759   2.574904
    16  H    5.828830   4.498365   3.354458   2.086269   1.094582
    17  H    5.092252   4.040892   2.733528   2.096619   1.100037
    18  H    5.099080   4.042246   2.740768   2.097394   1.100238
    19  H    5.361731   3.863009   3.350636   2.082451   2.615795
    20  H    4.682692   3.926550   4.913852   4.923119   6.301337
    21  H    6.277775   5.311063   6.046248   5.683069   6.897252
    22  H    2.718869   2.158559   3.391754   3.880405   5.324292
                    6          7          8          9         10
     6  C    0.000000
     7  C    1.373422   0.000000
     8  C    2.427631   1.479509   0.000000
     9  N    3.634561   2.405924   1.354389   0.000000
    10  O    2.769785   2.386258   1.235568   2.256061   0.000000
    11  C    2.423875   1.444392   2.590832   2.900202   3.712430
    12  H    4.782280   4.187193   5.324392   5.326384   6.465073
    13  H    4.780295   4.187855   5.330015   5.352482   6.456203
    14  H    4.777498   4.611683   5.984562   6.296275   6.997660
    15  H    3.332737   3.869392   5.342631   6.143439   6.027610
    16  H    2.527070   3.899931   4.774637   6.078393   4.646579
    17  H    3.168345   4.354237   5.545012   6.712383   5.721400
    18  H    3.155967   4.340204   5.522065   6.675574   5.710569
    19  H    1.088889   2.144234   2.619494   3.962450   2.439543
    20  H    3.959644   2.602856   2.083917   1.009162   3.175644
    21  H    4.457935   3.332522   2.041435   1.010122   2.483623
    22  H    3.424066   2.224801   2.883801   2.659721   4.110301
                   11         12         13         14         15
    11  C    0.000000
    12  H    2.829329   0.000000
    13  H    2.830682   1.769246   0.000000
    14  H    3.440002   1.781591   1.781333   0.000000
    15  H    3.422056   3.521553   3.518442   2.394869   0.000000
    16  H    4.740205   6.468212   6.463708   5.891931   3.642918
    17  H    4.722851   5.918773   5.647673   4.904765   2.591295
    18  H    4.715584   5.651625   5.926227   4.917288   2.610858
    19  H    3.424944   5.854284   5.852511   5.834207   4.193747
    20  H    2.550655   4.606509   4.678150   5.740923   5.956626
    21  H    3.909742   6.265111   6.300807   7.294627   7.131033
    22  H    1.089188   2.764915   2.757309   3.786111   4.322708
                   16         17         18         19         20
    16  H    0.000000
    17  H    1.787629   0.000000
    18  H    1.787861   1.784848   0.000000
    19  H    2.221295   3.387605   3.370303   0.000000
    20  H    6.479914   6.905055   6.843476   4.511494   0.000000
    21  H    6.800222   7.564469   7.516979   4.610415   1.730007
    22  H    5.813475   5.784851   5.782253   4.348960   1.971156
                   21         22
    21  H    0.000000
    22  H    3.606230   0.000000
 Stoichiometry    C8H11N2O(2)
 Framework group  C1[X(C8H11N2O)]
 Deg. of freedom    60
 Full point group                 C1      NOp   1
 Largest Abelian subgroup         C1      NOp   1
 Largest concise Abelian subgroup C1      NOp   1
                         Standard orientation:                         
 ---------------------------------------------------------------------
 Center     Atomic      Atomic             Coordinates (Angstroms)
 Number     Number       Type             X           Y           Z
 ---------------------------------------------------------------------
      1          6           0       -2.156986    2.467808    0.012270
      2          6           0       -1.350404    1.203869    0.007641
      3          6           0       -1.993322   -0.017238   -0.003420
      4          7           0       -1.257565   -1.207639   -0.003012
      5          6           0       -1.981251   -2.457859   -0.024760
      6          6           0        0.090759   -1.167494    0.003237
      7          6           0        0.791402    0.013744    0.011152
      8          6           0        2.267121   -0.091932    0.005375
      9          7           0        2.948744    1.077482   -0.041845
     10          8           0        2.860141   -1.174973    0.049849
     11          6           0        0.054619    1.256080    0.015720
     12          1           0       -1.915223    3.085928   -0.865464
     13          1           0       -1.927772    3.071133    0.903676
     14          1           0       -3.234846    2.262497    0.003225
     15          1           0       -3.075373   -0.127022   -0.009697
     16          1           0       -1.274740   -3.293812   -0.013134
     17          1           0       -2.639802   -2.531250    0.853309
     18          1           0       -2.601527   -2.523487   -0.931112
     19          1           0        0.612911   -2.123016   -0.000548
     20          1           0        2.496845    1.973688   -0.146780
     21          1           0        3.957629    1.049050   -0.082930
     22          1           0        0.550889    2.225300    0.041379
 ---------------------------------------------------------------------
 Rotational constants (GHZ):           1.5655987           0.8634496           0.5605882
 Basis read from rwf:  (5D, 7F)
 Pseudo-potential data read from rwf file.
 There are   333 symmetry adapted cartesian basis functions of A   symmetry.
 There are   311 symmetry adapted basis functions of A   symmetry.
   311 basis functions,   465 primitive gaussians,   333 cartesian basis functions
    41 alpha electrons       40 beta electrons
       nuclear repulsion energy       594.9697287290 Hartrees.
 NAtoms=   22 NActive=   22 NUniq=   22 SFac= 1.00D+00 NAtFMM=   60 NAOKFM=F Big=F
 Integral buffers will be    131072 words long.
 Raffenetti 2 integral format.
 Two-electron integral symmetry is turned on.
 Nuclear repulsion after empirical dispersion term =      594.9498912876 Hartrees.
 ------------------------------------------------------------------------------
 Polarizable Continuum Model (PCM)
 =================================
 Model                : PCM.
 Atomic radii         : SMD-Coulomb.
 Polarization charges : Total charges.
 Charge compensation  : None.
 Solution method      : On-the-fly selection.
 Cavity type          : VdW (van der Waals Surface) (Alpha=1.000).
 Cavity algorithm     : GePol (No added spheres)
                        Default sphere list used, NSphG=   22.
                        Lebedev-Laikov grids with approx.  5.0 points / Ang**2.
                        Smoothing algorithm: York/Karplus (Gamma=1.0000).
                        Polarization charges: spherical gaussians, with
                                              point-specific exponents (IZeta= 3).
                        Self-potential: point-specific (ISelfS= 7).
                        Self-field    : sphere-specific E.n sum rule (ISelfD= 2).
 1st derivatives      : Analytical E(r).r(x)/FMM algorithm (CHGder, D1EAlg=3).
                        Cavity 1st derivative terms included.
 Solvent              : DiMethylSulfoxide, Eps=  46.826000 Eps(inf)=   2.007889
 ------------------------------------------------------------------------------
 ------------------------------------------------------------------------------
 Atomic radii for non-electrostatic terms: SMD-CDS.
 ------------------------------------------------------------------------------
 Nuclear repulsion after PCM non-electrostatic terms =      594.9503626717 Hartrees.
 One-electron integrals computed using PRISM.
   1 Symmetry operations used in ECPInt.
 ECPInt:  NShTT=    8911 NPrTT=   24707 LenC2=    8777 LenP2D=   20107.
 LDataN:  DoStor=T MaxTD1= 4 Len=   56
 NBasis=   311 RedAO= T EigKep=  9.02D-06  NBF=   311
 NBsUse=   311 1.00D-06 EigRej= -1.00D+00 NBFU=   311
 Initial guess from the checkpoint file:  "/scratch/aplatt/job_46371443/Gau-3795827.chk"
 B after Tr=     0.000000    0.000000    0.000000
         Rot=    1.000000    0.000023   -0.000020    0.000198 Ang=   0.02 deg.
 Initial guess <Sx>= 0.0000 <Sy>= 0.0000 <Sz>= 0.5000 <S**2>= 0.7682 S= 0.5090
 ExpMin= 6.71D-02 ExpMax= 2.27D+03 ExpMxC= 3.41D+02 IAcc=3 IRadAn=         5 AccDes= 0.00D+00
 Harris functional with IExCor= 1009 and IRadAn=       5 diagonalized for initial guess.
 HarFok:  IExCor= 1009 AccDes= 0.00D+00 IRadAn=         5 IDoV= 1 UseB2=F ITyADJ=14
 ICtDFT=  3500011 ScaDFX=  1.000000  1.000000  1.000000  1.000000
 FoFCou: FMM=F IPFlag=           0 FMFlag=      100000 FMFlg1=           0
         NFxFlg=           0 DoJE=T BraDBF=F KetDBF=T FulRan=T
         wScrn=  0.000000 ICntrl=       500 IOpCl=  0 I1Cent=   200000004 NGrid=           0
         NMat0=    1 NMatS0=      1 NMatT0=    0 NMatD0=    1 NMtDS0=    0 NMtDT0=    0
 Petite list used in FoFCou.
 Requested convergence on RMS density matrix=1.00D-08 within 128 cycles.
 Requested convergence on MAX density matrix=1.00D-06.
 Requested convergence on             energy=1.00D-06.
 No special actions if energy rises.
 Inv3:  Mode=1 IEnd=     9409323.
 Iteration    1 A*A^-1 deviation from unit magnitude is 2.78D-15 for   1136.
 Iteration    1 A*A^-1 deviation from orthogonality  is 2.56D-15 for   1345    346.
 Iteration    1 A^-1*A deviation from unit magnitude is 2.66D-15 for   1443.
 Iteration    1 A^-1*A deviation from orthogonality  is 5.48D-15 for   1152   1116.
 Error on total polarization charges =  0.03898
 SCF Done:  E(UPBE1PBE) =  -495.324402049     A.U. after   14 cycles
            NFock= 14  Conv=0.61D-08     -V/T= 2.0109
 <Sx>= 0.0000 <Sy>= 0.0000 <Sz>= 0.5000 <S**2>= 0.7682 S= 0.5090
 <L.S>= 0.000000000000E+00
 SMD-CDS (non-electrostatic) energy       (kcal/mol) =       0.30
 (included in total energy above)
 Annihilation of the first spin contaminant:
 S**2 before annihilation     0.7682,   after     0.7501
   1 Symmetry operations used in ECPInt.
 ECPInt:  NShTT=    8911 NPrTT=   24707 LenC2=    8777 LenP2D=   20107.
 LDataN:  DoStor=T MaxTD1= 5 Len=  102
 D1PCM: PCM CHGder 1st derivatives, ID1Alg=3 FixD1E=F DoIter=F DoCFld=F I1PDM=0.
 Calling FoFJK, ICntrl=      2127 FMM=F ISym2X=0 I1Cent= 0 IOpClX= 1 NMat=1 NMatS=1 NMatT=0.
 ***** Axes restored to original set *****
 -------------------------------------------------------------------
 Center     Atomic                   Forces (Hartrees/Bohr)
 Number     Number              X              Y              Z
 -------------------------------------------------------------------
      1        6           0.000007863    0.000050417   -0.000059962
      2        6           0.000023182   -0.000046993    0.000101789
      3        6          -0.000013228    0.000007759   -0.000082199
      4        7          -0.000000627   -0.000001278    0.000150074
      5        6          -0.000039182    0.000165263   -0.000078097
      6        6           0.000122681   -0.000078413    0.000048349
      7        6           0.000095067    0.000083631    0.000104207
      8        6          -0.000126075    0.000056265   -0.000261982
      9        7           0.000106586   -0.000042448    0.000362080
     10        8           0.000022154    0.000038771    0.000029163
     11        6          -0.000100216   -0.000095037   -0.000293188
     12        1          -0.000017751   -0.000014314    0.000015080
     13        1          -0.000012982   -0.000013817    0.000001815
     14        1          -0.000022372    0.000011333   -0.000008198
     15        1          -0.000000967   -0.000005527    0.000017672
     16        1           0.000034607   -0.000019807    0.000009629
     17        1           0.000014710   -0.000030125   -0.000007389
     18        1           0.000015912   -0.000048799   -0.000004260
     19        1           0.000002413    0.000017798   -0.000002979
     20        1          -0.000014654   -0.000010023   -0.000147507
     21        1          -0.000084586   -0.000030676   -0.000085251
     22        1          -0.000012533    0.000006021    0.000191154
 -------------------------------------------------------------------
 Cartesian Forces:  Max     0.000362080 RMS     0.000091800

 GradGradGradGradGradGradGradGradGradGradGradGradGradGradGradGradGradGrad
 Berny optimization.
 Using GEDIIS/GDIIS optimizer.
 FormGI is forming the generalized inverse of G from B-inverse, IUseBI=4.
 Internal  Forces:  Max     0.000138202 RMS     0.000040441
 Search for a local minimum.
 Step number   7 out of a maximum of  112
 All quantities printed in internal units (Hartrees-Bohrs-Radians)
 Mixed Optimization -- En-DIIS/RFO-DIIS
 Swapping is turned off.
 Update second derivatives using D2CorX and points    2    3    4    5    6
                                                      7
 DE= -1.55D-05 DEPred=-1.20D-05 R= 1.30D+00
 TightC=F SS=  1.41D+00  RLast= 2.98D-02 DXNew= 1.4270D+00 8.9313D-02
 Trust test= 1.30D+00 RLast= 2.98D-02 DXMaxT set to 8.49D-01
 ITU=  1  1  0  0  1  1  0
     Eigenvalues ---    0.00356   0.00931   0.01070   0.01271   0.01695
     Eigenvalues ---    0.01817   0.01955   0.02202   0.02278   0.02337
     Eigenvalues ---    0.02370   0.02416   0.02493   0.02545   0.05485
     Eigenvalues ---    0.07228   0.07426   0.07578   0.07617   0.15192
     Eigenvalues ---    0.15691   0.16000   0.16000   0.16000   0.16000
     Eigenvalues ---    0.16001   0.16010   0.16046   0.16344   0.16500
     Eigenvalues ---    0.20604   0.23459   0.23553   0.24757   0.24938
     Eigenvalues ---    0.25001   0.25856   0.28319   0.33736   0.34719
     Eigenvalues ---    0.34768   0.34930   0.35037   0.35124   0.35377
     Eigenvalues ---    0.35740   0.35869   0.36117   0.38337   0.38763
     Eigenvalues ---    0.42112   0.44433   0.45784   0.46371   0.47232
     Eigenvalues ---    0.50722   0.54220   0.56966   0.59955   0.97478
 En-DIIS/RFO-DIIS/Sim-DIIS IScMMF=       -3 using points:     7    6    5    4    3
 RFO step:  Lambda=-7.31282311D-06.
 DidBck=F Rises=F RFO-DIIS coefs:    1.43097   -0.13417   -0.15324   -0.12353   -0.02003
 Iteration  1 RMS(Cart)=  0.00560123 RMS(Int)=  0.00002385
 Iteration  2 RMS(Cart)=  0.00002901 RMS(Int)=  0.00000919
 Iteration  3 RMS(Cart)=  0.00000000 RMS(Int)=  0.00000919
 Variable       Old X    -DE/DX   Delta X   Delta X   Delta X     New X
                                 (Linear)    (Quad)   (Total)
    R1        2.83342   0.00001  -0.00015   0.00014  -0.00001   2.83341
    R2        2.07951   0.00003  -0.00023   0.00020  -0.00003   2.07948
    R3        2.07968   0.00001  -0.00021   0.00015  -0.00006   2.07962
    R4        2.07355   0.00002  -0.00023   0.00018  -0.00005   2.07351
    R5        2.60794   0.00003   0.00177  -0.00087   0.00091   2.60884
    R6        2.65699  -0.00002  -0.00153   0.00060  -0.00094   2.65605
    R7        2.64453   0.00004  -0.00100   0.00074  -0.00027   2.64426
    R8        2.05531  -0.00000  -0.00016   0.00006  -0.00010   2.05521
    R9        2.73014   0.00006   0.00090  -0.00032   0.00057   2.73072
   R10        2.54912   0.00004  -0.00282   0.00140  -0.00142   2.54770
   R11        2.06846   0.00001  -0.00021   0.00014  -0.00007   2.06839
   R12        2.07877  -0.00000  -0.00017   0.00009  -0.00008   2.07869
   R13        2.07915  -0.00002  -0.00014   0.00003  -0.00011   2.07904
   R14        2.59539  -0.00007   0.00153  -0.00098   0.00056   2.59595
   R15        2.05770   0.00001  -0.00003   0.00008   0.00005   2.05776
   R16        2.79587  -0.00009  -0.00094   0.00004  -0.00090   2.79497
   R17        2.72951   0.00013  -0.00088   0.00098   0.00010   2.72961
   R18        2.55942   0.00007  -0.00023   0.00037   0.00014   2.55957
   R19        2.33489   0.00005  -0.00009   0.00021   0.00012   2.33501
   R20        1.90704  -0.00002   0.00019  -0.00019  -0.00000   1.90704
   R21        1.90885  -0.00008   0.00019  -0.00026  -0.00008   1.90878
   R22        2.05827   0.00000   0.00034  -0.00023   0.00011   2.05838
    A1        1.93142   0.00001  -0.00028   0.00023  -0.00005   1.93137
    A2        1.93114   0.00002  -0.00031   0.00032   0.00001   1.93115
    A3        1.95053   0.00000  -0.00025   0.00012  -0.00013   1.95039
    A4        1.86750  -0.00002   0.00043  -0.00032   0.00011   1.86761
    A5        1.89056  -0.00001   0.00022  -0.00019   0.00003   1.89058
    A6        1.89004  -0.00001   0.00025  -0.00019   0.00006   1.89009
    A7        2.08898  -0.00003  -0.00009  -0.00017  -0.00026   2.08871
    A8        2.10162   0.00004   0.00085  -0.00030   0.00054   2.10216
    A9        2.09259  -0.00002  -0.00075   0.00047  -0.00028   2.09231
   A10        2.10334   0.00002  -0.00099   0.00048  -0.00051   2.10283
   A11        2.15656  -0.00003  -0.00037   0.00030  -0.00007   2.15649
   A12        2.02328   0.00000   0.00135  -0.00078   0.00057   2.02386
   A13        2.06320  -0.00000  -0.00092   0.00040  -0.00051   2.06269
   A14        2.09463  -0.00000   0.00157  -0.00086   0.00070   2.09534
   A15        2.12529   0.00001  -0.00064   0.00047  -0.00017   2.12511
   A16        1.91497  -0.00002   0.00007  -0.00014  -0.00007   1.91489
   A17        1.92367  -0.00003  -0.00052   0.00005  -0.00046   1.92321
   A18        1.92455  -0.00006  -0.00016  -0.00031  -0.00047   1.92408
   A19        1.90390   0.00004   0.00024   0.00016   0.00040   1.90430
   A20        1.90401   0.00004   0.00036   0.00007   0.00043   1.90444
   A21        1.89238   0.00004   0.00001   0.00018   0.00020   1.89258
   A22        2.13594  -0.00002  -0.00011   0.00019   0.00008   2.13602
   A23        2.04112  -0.00001   0.00252  -0.00158   0.00093   2.04206
   A24        2.10612   0.00003  -0.00240   0.00139  -0.00101   2.10511
   A25        2.03463  -0.00008   0.00110  -0.00088   0.00021   2.03484
   A26        2.07094   0.00003  -0.00125   0.00057  -0.00068   2.07026
   A27        2.17759   0.00005   0.00019   0.00030   0.00048   2.17808
   A28        2.02689  -0.00003  -0.00115   0.00105  -0.00014   2.02675
   A29        2.14266  -0.00000   0.00061  -0.00043   0.00014   2.14280
   A30        2.11361   0.00003   0.00066  -0.00062   0.00000   2.11361
   A31        2.14724  -0.00002   0.00163  -0.00064   0.00096   2.14820
   A32        2.07119   0.00004  -0.00144   0.00125  -0.00022   2.07097
   A33        2.05784  -0.00000   0.00049  -0.00012   0.00034   2.05818
   A34        2.06892  -0.00002   0.00153  -0.00085   0.00068   2.06960
   A35        2.08116  -0.00000  -0.00027   0.00000  -0.00029   2.08086
   A36        2.13297   0.00002  -0.00115   0.00086  -0.00031   2.13266
    D1       -2.11121  -0.00000   0.00176  -0.00075   0.00101  -2.11020
    D2        1.03139   0.00001  -0.00028   0.00111   0.00083   1.03222
    D3        2.10507  -0.00000   0.00160  -0.00070   0.00091   2.10598
    D4       -1.03551   0.00001  -0.00044   0.00117   0.00072  -1.03479
    D5       -0.00264  -0.00000   0.00167  -0.00075   0.00092  -0.00172
    D6        3.13996   0.00001  -0.00038   0.00111   0.00073   3.14069
    D7       -3.13755  -0.00002  -0.00027  -0.00041  -0.00069  -3.13823
    D8        0.00059   0.00001  -0.00120   0.00097  -0.00023   0.00036
    D9        0.00304  -0.00003   0.00177  -0.00227  -0.00051   0.00254
   D10        3.14118  -0.00001   0.00084  -0.00089  -0.00005   3.14114
   D11        3.14136   0.00000   0.00193  -0.00091   0.00102  -3.14080
   D12        0.01683  -0.00008  -0.00336  -0.00190  -0.00527   0.01156
   D13        0.00078   0.00002  -0.00013   0.00096   0.00083   0.00161
   D14       -3.12375  -0.00006  -0.00542  -0.00003  -0.00545  -3.12920
   D15       -3.13383  -0.00001  -0.00301   0.00094  -0.00207  -3.13590
   D16       -0.00429   0.00002  -0.00239   0.00209  -0.00030  -0.00459
   D17        0.01097  -0.00003  -0.00215  -0.00034  -0.00249   0.00847
   D18        3.14050  -0.00000  -0.00153   0.00080  -0.00072   3.13978
   D19       -3.13332   0.00001  -0.00026   0.00026  -0.00000  -3.13332
   D20       -1.03642   0.00002  -0.00024   0.00039   0.00015  -1.03627
   D21        1.05228   0.00001  -0.00065   0.00046  -0.00019   1.05209
   D22        0.02056  -0.00003  -0.00092  -0.00090  -0.00181   0.01874
   D23        2.11746  -0.00001  -0.00089  -0.00077  -0.00166   2.11580
   D24       -2.07703  -0.00003  -0.00131  -0.00070  -0.00200  -2.07903
   D25        0.00155   0.00001   0.00131  -0.00054   0.00077   0.00232
   D26       -3.13768  -0.00002   0.00083  -0.00110  -0.00027  -3.13795
   D27        3.13064   0.00004   0.00196   0.00064   0.00260   3.13324
   D28       -0.00858   0.00001   0.00147   0.00009   0.00157  -0.00702
   D29       -3.13251  -0.00003  -0.00350   0.00082  -0.00268  -3.13519
   D30        0.00229  -0.00002   0.00033  -0.00075  -0.00042   0.00187
   D31        0.00663  -0.00000  -0.00299   0.00139  -0.00160   0.00502
   D32        3.14142   0.00001   0.00084  -0.00018   0.00066  -3.14110
   D33        3.09627   0.00000   0.00908  -0.00047   0.00861   3.10488
   D34       -0.05373   0.00004   0.00913  -0.00008   0.00906  -0.04467
   D35       -0.03807  -0.00001   0.00500   0.00120   0.00620  -0.03187
   D36        3.09512   0.00003   0.00506   0.00160   0.00665   3.10177
   D37       -0.00342   0.00001  -0.00092   0.00053  -0.00039  -0.00381
   D38        3.12058   0.00009   0.00455   0.00155   0.00609   3.12667
   D39        3.13077   0.00002   0.00325  -0.00118   0.00207   3.13285
   D40       -0.02841   0.00010   0.00873  -0.00017   0.00855  -0.01986
   D41       -0.08883   0.00014   0.00681   0.00157   0.00838  -0.08046
   D42       -3.10152  -0.00006   0.00084  -0.00291  -0.00207  -3.10358
   D43        3.06102   0.00010   0.00675   0.00118   0.00793   3.06895
   D44        0.04833  -0.00009   0.00078  -0.00329  -0.00251   0.04582
         Item               Value     Threshold  Converged?
 Maximum Force            0.000138     0.000450     YES
 RMS     Force            0.000040     0.000300     YES
 Maximum Displacement     0.035501     0.001800     NO 
 RMS     Displacement     0.005601     0.001200     NO 
 Predicted change in Energy=-3.376919D-06
 GradGradGradGradGradGradGradGradGradGradGradGradGradGradGradGradGradGrad

                          Input orientation:                          
 ---------------------------------------------------------------------
 Center     Atomic      Atomic             Coordinates (Angstroms)
 Number     Number       Type             X           Y           Z
 ---------------------------------------------------------------------
      1          6           0       -2.227505   -1.809627    0.213513
      2          6           0       -1.163749   -0.756420    0.128054
      3          6           0       -1.524123    0.572923    0.033881
      4          7           0       -0.545440    1.569418   -0.050812
      5          6           0       -0.978229    2.945210   -0.140325
      6          6           0        0.760768    1.235962   -0.035542
      7          6           0        1.186529   -0.066696    0.058835
      8          6           0        2.649191   -0.285702    0.072866
      9          7           0        3.058730   -1.569395    0.210643
     10          8           0        3.464590    0.635573   -0.041871
     11          6           0        0.195413   -1.114146    0.142248
     12          1           0       -2.123184   -2.392432    1.141069
     13          1           0       -2.139801   -2.518551   -0.623629
     14          1           0       -3.234131   -1.373526    0.191521
     15          1           0       -2.555902    0.916390    0.017425
     16          1           0       -0.106022    3.602989   -0.208250
     17          1           0       -1.607293    3.088139   -1.031301
     18          1           0       -1.566675    3.217719    0.748417
     19          1           0        1.479878    2.051062   -0.100618
     20          1           0        2.422390   -2.336803    0.367366
     21          1           0        4.049654   -1.759229    0.258571
     22          1           0        0.467610   -2.166957    0.205139
 ---------------------------------------------------------------------
                    Distance matrix (angstroms):
                    1          2          3          4          5
     1  C    0.000000
     2  C    1.499374   0.000000
     3  C    2.490694   1.380540   0.000000
     4  N    3.783801   2.413260   1.399284   0.000000
     5  C    4.928931   3.715980   2.440511   1.445034   0.000000
     6  C    4.274039   2.774908   2.380161   1.348186   2.440619
     7  C    3.836322   2.450371   2.785206   2.385080   3.714488
     8  C    5.111192   3.842282   4.260904   3.696272   4.862347
     9  N    5.291692   4.300822   5.061947   4.786496   6.066455
    10  O    6.200336   4.836119   4.989682   4.117340   5.008270
    11  C    2.521766   1.405521   2.411379   2.790636   4.235050
    12  H    1.100411   2.150174   3.221501   4.427879   5.607433
    13  H    1.100488   2.150072   3.220030   4.425110   5.606738
    14  H    1.097252   2.161326   2.595696   3.993583   4.883717
    15  H    2.752718   2.179134   1.087570   2.114961   2.574888
    16  H    5.828805   4.498481   3.354241   2.086452   1.094546
    17  H    5.091398   4.039984   2.732735   2.096522   1.099995
    18  H    5.098727   4.042398   2.739948   2.097280   1.100178
    19  H    5.361743   3.863032   3.350673   2.082396   2.615984
    20  H    4.682212   3.926229   4.914538   4.923561   6.302509
    21  H    6.277523   5.310577   6.046190   5.682473   6.897135
    22  H    2.718713   2.157982   3.391647   3.879726   5.323912
                    6          7          8          9         10
     6  C    0.000000
     7  C    1.373717   0.000000
     8  C    2.427623   1.479033   0.000000
     9  N    3.634730   2.405470   1.354464   0.000000
    10  O    2.769686   2.385977   1.235633   2.256184   0.000000
    11  C    2.423684   1.444445   2.590783   2.900089   3.712538
    12  H    4.781928   4.187419   5.324934   5.328725   6.464625
    13  H    4.780744   4.188296   5.329649   5.349919   6.457255
    14  H    4.777049   4.611686   5.984222   6.295937   6.997415
    15  H    3.332451   3.869621   5.342386   6.143334   6.027330
    16  H    2.526652   3.899821   4.774111   6.078213   4.645698
    17  H    3.166987   4.352795   5.542530   6.708712   5.719970
    18  H    3.155779   4.340857   5.523029   6.678325   5.710137
    19  H    1.088918   2.143917   2.618750   3.961990   2.438472
    20  H    3.960805   2.603062   2.084511   1.009161   3.176267
    21  H    4.458077   3.331974   2.041340   1.010082   2.483474
    22  H    3.423992   2.224712   2.883732   2.659137   4.110605
                   11         12         13         14         15
    11  C    0.000000
    12  H    2.829761   0.000000
    13  H    2.830573   1.769277   0.000000
    14  H    3.439691   1.781576   1.781322   0.000000
    15  H    3.421752   3.521097   3.518936   2.394581   0.000000
    16  H    4.739733   6.467972   6.463903   5.891568   3.642891
    17  H    4.720822   5.917938   5.646657   4.903912   2.591559
    18  H    4.715660   5.651342   5.925856   4.916307   2.609413
    19  H    3.424526   5.853929   5.852947   5.833955   4.193917
    20  H    2.550490   4.611285   4.672119   5.740649   5.957274
    21  H    3.909583   6.267669   6.297952   7.294298   7.130951
    22  H    1.089246   2.763877   2.758454   3.785843   4.322487
                   16         17         18         19         20
    16  H    0.000000
    17  H    1.787819   0.000000
    18  H    1.788058   1.784891   0.000000
    19  H    2.221518   3.387082   3.370970   0.000000
    20  H    6.481152   6.901059   6.849128   4.512283   0.000000
    21  H    6.800070   7.560543   7.520181   4.609890   1.730149
    22  H    5.813107   5.783601   5.781712   4.348547   1.968840
                   21         22
    21  H    0.000000
    22  H    3.605570   0.000000
 Stoichiometry    C8H11N2O(2)
 Framework group  C1[X(C8H11N2O)]
 Deg. of freedom    60
 Full point group                 C1      NOp   1
 Largest Abelian subgroup         C1      NOp   1
 Largest concise Abelian subgroup C1      NOp   1
                         Standard orientation:                         
 ---------------------------------------------------------------------
 Center     Atomic      Atomic             Coordinates (Angstroms)
 Number     Number       Type             X           Y           Z
 ---------------------------------------------------------------------
      1          6           0       -2.157315    2.467593    0.010258
      2          6           0       -1.350307    1.203929    0.006502
      3          6           0       -1.993358   -0.017663   -0.003030
      4          7           0       -1.256973   -1.207508   -0.002615
      5          6           0       -1.980771   -2.458081   -0.020094
      6          6           0        0.090613   -1.167536    0.001779
      7          6           0        0.791645    0.013821    0.008654
      8          6           0        2.266894   -0.091827    0.004405
      9          7           0        2.948487    1.078033   -0.033401
     10          8           0        2.860003   -1.175168    0.041575
     11          6           0        0.054237    1.255846    0.013616
     12          1           0       -1.916903    3.084391   -0.868757
     13          1           0       -1.927209    3.072311    0.900449
     14          1           0       -3.235063    2.261761    0.002877
     15          1           0       -3.075358   -0.127461   -0.008461
     16          1           0       -1.274125   -3.293880   -0.009015
     17          1           0       -2.636735   -2.529445    0.860023
     18          1           0       -2.603581   -2.524800   -0.924554
     19          1           0        0.613554   -2.122661   -0.001645
     20          1           0        2.497024    1.975862   -0.125543
     21          1           0        3.957463    1.049800   -0.071297
     22          1           0        0.550485    2.225291    0.032888
 ---------------------------------------------------------------------
 Rotational constants (GHZ):           1.5656864           0.8636071           0.5606226
 Basis read from rwf:  (5D, 7F)
 Pseudo-potential data read from rwf file.
 There are   333 symmetry adapted cartesian basis functions of A   symmetry.
 There are   311 symmetry adapted basis functions of A   symmetry.
   311 basis functions,   465 primitive gaussians,   333 cartesian basis functions
    41 alpha electrons       40 beta electrons
       nuclear repulsion energy       594.9982299623 Hartrees.
 NAtoms=   22 NActive=   22 NUniq=   22 SFac= 1.00D+00 NAtFMM=   60 NAOKFM=F Big=F
 Integral buffers will be    131072 words long.
 Raffenetti 2 integral format.
 Two-electron integral symmetry is turned on.
 Nuclear repulsion after empirical dispersion term =      594.9783917317 Hartrees.
 ------------------------------------------------------------------------------
 Polarizable Continuum Model (PCM)
 =================================
 Model                : PCM.
 Atomic radii         : SMD-Coulomb.
 Polarization charges : Total charges.
 Charge compensation  : None.
 Solution method      : On-the-fly selection.
 Cavity type          : VdW (van der Waals Surface) (Alpha=1.000).
 Cavity algorithm     : GePol (No added spheres)
                        Default sphere list used, NSphG=   22.
                        Lebedev-Laikov grids with approx.  5.0 points / Ang**2.
                        Smoothing algorithm: York/Karplus (Gamma=1.0000).
                        Polarization charges: spherical gaussians, with
                                              point-specific exponents (IZeta= 3).
                        Self-potential: point-specific (ISelfS= 7).
                        Self-field    : sphere-specific E.n sum rule (ISelfD= 2).
 1st derivatives      : Analytical E(r).r(x)/FMM algorithm (CHGder, D1EAlg=3).
                        Cavity 1st derivative terms included.
 Solvent              : DiMethylSulfoxide, Eps=  46.826000 Eps(inf)=   2.007889
 ------------------------------------------------------------------------------
 ------------------------------------------------------------------------------
 Atomic radii for non-electrostatic terms: SMD-CDS.
 ------------------------------------------------------------------------------
 Nuclear repulsion after PCM non-electrostatic terms =      594.9788636066 Hartrees.
 One-electron integrals computed using PRISM.
   1 Symmetry operations used in ECPInt.
 ECPInt:  NShTT=    8911 NPrTT=   24707 LenC2=    8777 LenP2D=   20107.
 LDataN:  DoStor=T MaxTD1= 4 Len=   56
 NBasis=   311 RedAO= T EigKep=  8.98D-06  NBF=   311
 NBsUse=   311 1.00D-06 EigRej= -1.00D+00 NBFU=   311
 Initial guess from the checkpoint file:  "/scratch/aplatt/job_46371443/Gau-3795827.chk"
 B after Tr=     0.000000    0.000000    0.000000
         Rot=    1.000000    0.000024   -0.000019   -0.000057 Ang=   0.01 deg.
 Initial guess <Sx>= 0.0000 <Sy>= 0.0000 <Sz>= 0.5000 <S**2>= 0.7682 S= 0.5090
 ExpMin= 6.71D-02 ExpMax= 2.27D+03 ExpMxC= 3.41D+02 IAcc=3 IRadAn=         5 AccDes= 0.00D+00
 Harris functional with IExCor= 1009 and IRadAn=       5 diagonalized for initial guess.
 HarFok:  IExCor= 1009 AccDes= 0.00D+00 IRadAn=         5 IDoV= 1 UseB2=F ITyADJ=14
 ICtDFT=  3500011 ScaDFX=  1.000000  1.000000  1.000000  1.000000
 FoFCou: FMM=F IPFlag=           0 FMFlag=      100000 FMFlg1=           0
         NFxFlg=           0 DoJE=T BraDBF=F KetDBF=T FulRan=T
         wScrn=  0.000000 ICntrl=       500 IOpCl=  0 I1Cent=   200000004 NGrid=           0
         NMat0=    1 NMatS0=      1 NMatT0=    0 NMatD0=    1 NMtDS0=    0 NMtDT0=    0
 Petite list used in FoFCou.
 Requested convergence on RMS density matrix=1.00D-08 within 128 cycles.
 Requested convergence on MAX density matrix=1.00D-06.
 Requested convergence on             energy=1.00D-06.
 No special actions if energy rises.
 Inv3:  Mode=1 IEnd=     9398700.
 Iteration    1 A*A^-1 deviation from unit magnitude is 2.89D-15 for   1317.
 Iteration    1 A*A^-1 deviation from orthogonality  is 2.11D-15 for   1114    468.
 Iteration    1 A^-1*A deviation from unit magnitude is 2.66D-15 for   1317.
 Iteration    1 A^-1*A deviation from orthogonality  is 3.29D-15 for   1115   1113.
 Error on total polarization charges =  0.03898
 SCF Done:  E(UPBE1PBE) =  -495.324406211     A.U. after   13 cycles
            NFock= 13  Conv=0.96D-08     -V/T= 2.0109
 <Sx>= 0.0000 <Sy>= 0.0000 <Sz>= 0.5000 <S**2>= 0.7681 S= 0.5090
 <L.S>= 0.000000000000E+00
 SMD-CDS (non-electrostatic) energy       (kcal/mol) =       0.30
 (included in total energy above)
 Annihilation of the first spin contaminant:
 S**2 before annihilation     0.7681,   after     0.7501
   1 Symmetry operations used in ECPInt.
 ECPInt:  NShTT=    8911 NPrTT=   24707 LenC2=    8777 LenP2D=   20107.
 LDataN:  DoStor=T MaxTD1= 5 Len=  102
 D1PCM: PCM CHGder 1st derivatives, ID1Alg=3 FixD1E=F DoIter=F DoCFld=F I1PDM=0.
 Calling FoFJK, ICntrl=      2127 FMM=F ISym2X=0 I1Cent= 0 IOpClX= 1 NMat=1 NMatS=1 NMatT=0.
 ***** Axes restored to original set *****
 -------------------------------------------------------------------
 Center     Atomic                   Forces (Hartrees/Bohr)
 Number     Number              X              Y              Z
 -------------------------------------------------------------------
      1        6           0.000041342    0.000053111   -0.000053457
      2        6          -0.000187452    0.000318977    0.000054644
      3        6           0.000024054   -0.000400229   -0.000058242
      4        7          -0.000402349    0.000454829    0.000123697
      5        6          -0.000005224   -0.000018965   -0.000040043
      6        6           0.000671330   -0.000444398    0.000006712
      7        6          -0.000155943    0.000346011    0.000014626
      8        6          -0.000114664   -0.000069787   -0.000202007
      9        7           0.000214103    0.000027874    0.000349036
     10        8           0.000063697    0.000030038    0.000043724
     11        6           0.000078895   -0.000342580   -0.000128501
     12        1          -0.000023011   -0.000025149    0.000021962
     13        1          -0.000015889   -0.000023594   -0.000002736
     14        1          -0.000035086    0.000008164   -0.000001912
     15        1          -0.000005375    0.000038556    0.000004043
     16        1           0.000033504   -0.000000416    0.000010134
     17        1           0.000011127    0.000001806   -0.000017423
     18        1           0.000008949   -0.000009331    0.000001985
     19        1          -0.000074387    0.000070379   -0.000005177
     20        1          -0.000015056    0.000026444   -0.000139214
     21        1          -0.000074256   -0.000069758   -0.000097879
     22        1          -0.000038310    0.000028018    0.000116028
 -------------------------------------------------------------------
 Cartesian Forces:  Max     0.000671330 RMS     0.000171349

 GradGradGradGradGradGradGradGradGradGradGradGradGradGradGradGradGradGrad
 Berny optimization.
 Using GEDIIS/GDIIS optimizer.
 FormGI is forming the generalized inverse of G from B-inverse, IUseBI=4.
 Internal  Forces:  Max     0.000462234 RMS     0.000076194
 Search for a local minimum.
 Step number   8 out of a maximum of  112
 All quantities printed in internal units (Hartrees-Bohrs-Radians)
 Mixed Optimization -- En-DIIS/RFO-DIIS
 Swapping is turned off.
 Update second derivatives using D2CorX and points    3    4    5    6    7
                                                      8
 DE= -4.16D-06 DEPred=-3.38D-06 R= 1.23D+00
 TightC=F SS=  1.41D+00  RLast= 2.48D-02 DXNew= 1.4270D+00 7.4426D-02
 Trust test= 1.23D+00 RLast= 2.48D-02 DXMaxT set to 8.49D-01
 ITU=  1  1  1  0  0  1  1  0
     Eigenvalues ---    0.00255   0.00848   0.00962   0.01108   0.01697
     Eigenvalues ---    0.01785   0.01960   0.02204   0.02275   0.02332
     Eigenvalues ---    0.02369   0.02417   0.02491   0.02585   0.05464
     Eigenvalues ---    0.07229   0.07427   0.07596   0.07619   0.15156
     Eigenvalues ---    0.15983   0.16000   0.16000   0.16000   0.16001
     Eigenvalues ---    0.16003   0.16017   0.16061   0.16354   0.17025
     Eigenvalues ---    0.20966   0.23545   0.24606   0.24788   0.24997
     Eigenvalues ---    0.25144   0.26264   0.28290   0.33746   0.34720
     Eigenvalues ---    0.34773   0.34930   0.35032   0.35123   0.35374
     Eigenvalues ---    0.35756   0.35881   0.36127   0.38390   0.39181
     Eigenvalues ---    0.42426   0.44828   0.45894   0.46399   0.47764
     Eigenvalues ---    0.50841   0.54223   0.57580   0.68781   0.97859
 En-DIIS/RFO-DIIS/Sim-DIIS IScMMF=       -3 using points:     8    7    6    5    4    3
 RFO step:  Lambda=-6.75115583D-06.
 DidBck=F Rises=F RFO-DIIS coefs:    2.41550   -1.42199    0.06139   -0.03942   -0.02749
                  RFO-DIIS coefs:    0.01201
 Iteration  1 RMS(Cart)=  0.00790325 RMS(Int)=  0.00004959
 Iteration  2 RMS(Cart)=  0.00006005 RMS(Int)=  0.00001287
 Iteration  3 RMS(Cart)=  0.00000000 RMS(Int)=  0.00001287
 Variable       Old X    -DE/DX   Delta X   Delta X   Delta X     New X
                                 (Linear)    (Quad)   (Total)
    R1        2.83341   0.00001  -0.00006   0.00003  -0.00003   2.83338
    R2        2.07948   0.00004  -0.00007   0.00011   0.00004   2.07952
    R3        2.07962   0.00002  -0.00011   0.00009  -0.00003   2.07959
    R4        2.07351   0.00003  -0.00010   0.00009  -0.00000   2.07350
    R5        2.60884  -0.00018   0.00141  -0.00077   0.00064   2.60948
    R6        2.65605   0.00018  -0.00135   0.00072  -0.00062   2.65543
    R7        2.64426   0.00015  -0.00055   0.00037  -0.00018   2.64408
    R8        2.05521   0.00002  -0.00015   0.00009  -0.00006   2.05515
    R9        2.73072  -0.00004   0.00088  -0.00032   0.00056   2.73127
   R10        2.54770   0.00046  -0.00214   0.00132  -0.00082   2.54688
   R11        2.06839   0.00002  -0.00012   0.00007  -0.00005   2.06834
   R12        2.07869   0.00001  -0.00013   0.00008  -0.00005   2.07864
   R13        2.07904  -0.00000  -0.00017   0.00008  -0.00010   2.07894
   R14        2.59595  -0.00019   0.00092  -0.00056   0.00036   2.59631
   R15        2.05776   0.00000   0.00006  -0.00002   0.00004   2.05780
   R16        2.79497   0.00009  -0.00130   0.00087  -0.00043   2.79453
   R17        2.72961   0.00021  -0.00011   0.00039   0.00028   2.72989
   R18        2.55957   0.00004   0.00011   0.00001   0.00012   2.55969
   R19        2.33501   0.00007   0.00009   0.00002   0.00011   2.33512
   R20        1.90704  -0.00004   0.00006  -0.00011  -0.00005   1.90698
   R21        1.90878  -0.00006  -0.00009  -0.00002  -0.00011   1.90867
   R22        2.05838  -0.00003   0.00021  -0.00014   0.00008   2.05845
    A1        1.93137   0.00002  -0.00010   0.00012   0.00002   1.93139
    A2        1.93115   0.00002  -0.00003   0.00012   0.00010   1.93124
    A3        1.95039   0.00001  -0.00021   0.00010  -0.00010   1.95029
    A4        1.86761  -0.00003   0.00018  -0.00018  -0.00000   1.86761
    A5        1.89058  -0.00002   0.00007  -0.00013  -0.00007   1.89052
    A6        1.89009  -0.00001   0.00011  -0.00006   0.00005   1.89015
    A7        2.08871  -0.00003  -0.00031  -0.00000  -0.00032   2.08840
    A8        2.10216  -0.00004   0.00083  -0.00038   0.00045   2.10261
    A9        2.09231   0.00007  -0.00052   0.00038  -0.00013   2.09218
   A10        2.10283   0.00007  -0.00072   0.00040  -0.00032   2.10252
   A11        2.15649  -0.00001  -0.00024   0.00015  -0.00009   2.15641
   A12        2.02386  -0.00006   0.00096  -0.00055   0.00041   2.02426
   A13        2.06269   0.00006  -0.00075   0.00040  -0.00035   2.06234
   A14        2.09534  -0.00012   0.00111  -0.00070   0.00041   2.09575
   A15        2.12511   0.00005  -0.00034   0.00030  -0.00004   2.12507
   A16        1.91489  -0.00002  -0.00011  -0.00009  -0.00020   1.91470
   A17        1.92321  -0.00000  -0.00068   0.00025  -0.00043   1.92278
   A18        1.92408  -0.00002  -0.00065   0.00026  -0.00039   1.92369
   A19        1.90430   0.00001   0.00057  -0.00017   0.00040   1.90471
   A20        1.90444   0.00001   0.00062  -0.00021   0.00041   1.90486
   A21        1.89258   0.00001   0.00027  -0.00005   0.00023   1.89280
   A22        2.13602  -0.00001  -0.00001   0.00014   0.00013   2.13615
   A23        2.04206  -0.00011   0.00160  -0.00114   0.00046   2.04252
   A24        2.10511   0.00012  -0.00159   0.00100  -0.00059   2.10452
   A25        2.03484  -0.00011   0.00046  -0.00044   0.00001   2.03485
   A26        2.07026   0.00006  -0.00092   0.00041  -0.00050   2.06975
   A27        2.17808   0.00004   0.00048   0.00002   0.00050   2.17858
   A28        2.02675   0.00009  -0.00066   0.00084   0.00016   2.02691
   A29        2.14280  -0.00002   0.00033  -0.00019   0.00012   2.14292
   A30        2.11361  -0.00007   0.00037  -0.00064  -0.00028   2.11333
   A31        2.14820  -0.00007   0.00139  -0.00058   0.00074   2.14893
   A32        2.07097   0.00010  -0.00041   0.00095   0.00047   2.07143
   A33        2.05818  -0.00001   0.00057  -0.00002   0.00048   2.05866
   A34        2.06960  -0.00008   0.00105  -0.00063   0.00041   2.07002
   A35        2.08086   0.00001  -0.00029   0.00010  -0.00021   2.08065
   A36        2.13266   0.00007  -0.00064   0.00052  -0.00015   2.13251
    D1       -2.11020  -0.00000   0.00154  -0.00013   0.00141  -2.10878
    D2        1.03222   0.00001   0.00108   0.00001   0.00108   1.03330
    D3        2.10598   0.00000   0.00141  -0.00006   0.00134   2.10732
    D4       -1.03479   0.00001   0.00094   0.00007   0.00101  -1.03378
    D5       -0.00172  -0.00000   0.00142  -0.00015   0.00128  -0.00045
    D6        3.14069   0.00001   0.00095  -0.00001   0.00094  -3.14155
    D7       -3.13823  -0.00002  -0.00101  -0.00028  -0.00129  -3.13953
    D8        0.00036   0.00001  -0.00041   0.00028  -0.00013   0.00024
    D9        0.00254  -0.00003  -0.00054  -0.00042  -0.00096   0.00158
   D10        3.14114  -0.00000   0.00006   0.00015   0.00021   3.14134
   D11       -3.14080  -0.00000   0.00155  -0.00069   0.00086  -3.13994
   D12        0.01156  -0.00005  -0.00759   0.00032  -0.00727   0.00429
   D13        0.00161   0.00000   0.00108  -0.00055   0.00053   0.00214
   D14       -3.12920  -0.00004  -0.00806   0.00045  -0.00761  -3.13681
   D15       -3.13590   0.00000  -0.00311   0.00078  -0.00234  -3.13823
   D16       -0.00459   0.00003  -0.00056   0.00128   0.00072  -0.00387
   D17        0.00847  -0.00002  -0.00366   0.00025  -0.00341   0.00506
   D18        3.13978   0.00001  -0.00112   0.00075  -0.00036   3.13942
   D19       -3.13332   0.00000   0.00003  -0.00007  -0.00004  -3.13336
   D20       -1.03627   0.00001   0.00024  -0.00018   0.00006  -1.03621
   D21        1.05209   0.00001  -0.00027   0.00009  -0.00018   1.05191
   D22        0.01874  -0.00002  -0.00258  -0.00058  -0.00315   0.01559
   D23        2.11580  -0.00002  -0.00237  -0.00069  -0.00305   2.11275
   D24       -2.07903  -0.00002  -0.00287  -0.00042  -0.00329  -2.08232
   D25        0.00232  -0.00001   0.00112  -0.00115  -0.00003   0.00229
   D26       -3.13795  -0.00002  -0.00040  -0.00049  -0.00089  -3.13883
   D27        3.13324   0.00002   0.00375  -0.00062   0.00313   3.13638
   D28       -0.00702   0.00001   0.00224   0.00004   0.00228  -0.00474
   D29       -3.13519  -0.00001  -0.00403   0.00114  -0.00289  -3.13808
   D30        0.00187  -0.00001  -0.00054   0.00016  -0.00039   0.00148
   D31        0.00502  -0.00000  -0.00246   0.00046  -0.00200   0.00302
   D32       -3.14110  -0.00000   0.00103  -0.00053   0.00050  -3.14060
   D33        3.10488   0.00000   0.01191  -0.00023   0.01168   3.11655
   D34       -0.04467   0.00004   0.01277  -0.00007   0.01270  -0.03196
   D35       -0.03187   0.00000   0.00818   0.00082   0.00900  -0.02287
   D36        3.10177   0.00004   0.00905   0.00098   0.01003   3.11180
   D37       -0.00381   0.00001  -0.00056   0.00069   0.00013  -0.00368
   D38        3.12667   0.00006   0.00887  -0.00034   0.00853   3.13520
   D39        3.13285   0.00001   0.00324  -0.00038   0.00286   3.13571
   D40       -0.01986   0.00006   0.01267  -0.00141   0.01126  -0.00860
   D41       -0.08046   0.00013   0.01222   0.00117   0.01339  -0.06707
   D42       -3.10358  -0.00007  -0.00279  -0.00229  -0.00508  -3.10867
   D43        3.06895   0.00009   0.01136   0.00101   0.01238   3.08133
   D44        0.04582  -0.00011  -0.00364  -0.00245  -0.00609   0.03972
         Item               Value     Threshold  Converged?
 Maximum Force            0.000462     0.000450     NO 
 RMS     Force            0.000076     0.000300     YES
 Maximum Displacement     0.050324     0.001800     NO 
 RMS     Displacement     0.007903     0.001200     NO 
 Predicted change in Energy=-3.340843D-06
 GradGradGradGradGradGradGradGradGradGradGradGradGradGradGradGradGradGrad

                          Input orientation:                          
 ---------------------------------------------------------------------
 Center     Atomic      Atomic             Coordinates (Angstroms)
 Number     Number       Type             X           Y           Z
 ---------------------------------------------------------------------
      1          6           0       -2.227693   -1.809354    0.214956
      2          6           0       -1.163657   -0.756415    0.129940
      3          6           0       -1.524195    0.573078    0.033563
      4          7           0       -0.545283    1.569377   -0.049200
      5          6           0       -0.978335    2.945033   -0.144123
      6          6           0        0.760569    1.236441   -0.030791
      7          6           0        1.186746   -0.066171    0.065097
      8          6           0        2.649237   -0.284791    0.078757
      9          7           0        3.059273   -1.569686    0.203890
     10          8           0        3.464625    0.637939   -0.024415
     11          6           0        0.195272   -1.113598    0.147112
     12          1           0       -2.125846   -2.390135    1.144081
     13          1           0       -2.137985   -2.520137   -0.620375
     14          1           0       -3.234181   -1.373130    0.189507
     15          1           0       -2.556007    0.916241    0.014944
     16          1           0       -0.105999    3.602834   -0.209721
     17          1           0       -1.603429    3.084980   -1.038327
     18          1           0       -1.570962    3.219047    0.741307
     19          1           0        1.479962    2.051364   -0.095342
     20          1           0        2.422863   -2.340791    0.340736
     21          1           0        4.050215   -1.760356    0.246676
     22          1           0        0.467509   -2.165869    0.218926
 ---------------------------------------------------------------------
                    Distance matrix (angstroms):
                    1          2          3          4          5
     1  C    0.000000
     2  C    1.499360   0.000000
     3  C    2.490742   1.380879   0.000000
     4  N    3.783662   2.413251   1.399189   0.000000
     5  C    4.928897   3.716203   2.440431   1.445328   0.000000
     6  C    4.273988   2.774879   2.379987   1.347751   2.440474
     7  C    3.836605   2.450518   2.785469   2.384954   3.714660
     8  C    5.111486   3.842292   4.260928   3.695844   4.862171
     9  N    5.292407   4.301165   5.062472   4.786501   6.066801
    10  O    6.200728   4.836222   4.989578   4.116741   5.007685
    11  C    2.521793   1.405192   2.411293   2.790217   4.234932
    12  H    1.100433   2.150194   3.221159   4.427170   5.607162
    13  H    1.100472   2.150117   3.220614   4.425727   5.607110
    14  H    1.097250   2.161239   2.595399   3.993181   4.883306
    15  H    2.752574   2.179367   1.087540   2.115115   2.574946
    16  H    5.828697   4.498562   3.354085   2.086549   1.094521
    17  H    5.090671   4.039128   2.732193   2.096449   1.099967
    18  H    5.098348   4.042766   2.739387   2.097220   1.100126
    19  H    5.361728   3.863042   3.350657   2.082320   2.616151
    20  H    4.682512   3.926552   4.915715   4.924567   6.304219
    21  H    6.278179   5.310931   6.046848   5.682716   6.897805
    22  H    2.718682   2.157587   3.391618   3.879394   5.323869
                    6          7          8          9         10
     6  C    0.000000
     7  C    1.373907   0.000000
     8  C    2.427594   1.478803   0.000000
     9  N    3.635033   2.405447   1.354527   0.000000
    10  O    2.769506   2.385899   1.235691   2.256112   0.000000
    11  C    2.423612   1.444593   2.591049   2.900645   3.712946
    12  H    4.781608   4.187873   5.326238   5.333156   6.464363
    13  H    4.781329   4.188754   5.329451   5.347360   6.458936
    14  H    4.776654   4.611747   5.984258   6.296539   6.997440
    15  H    3.332311   3.869864   5.342388   6.143851   6.027189
    16  H    2.526414   3.899784   4.773695   6.078238   4.644814
    17  H    3.165550   4.351135   5.539711   6.704462   5.718496
    18  H    3.156405   4.342220   5.525027   6.682803   5.710130
    19  H    1.088941   2.143752   2.618231   3.961789   2.437559
    20  H    3.962051   2.603432   2.084950   1.009132   3.176702
    21  H    4.458649   3.332069   2.041624   1.010025   2.483591
    22  H    3.424027   2.224791   2.884101   2.659493   4.111357
                   11         12         13         14         15
    11  C    0.000000
    12  H    2.830386   0.000000
    13  H    2.830456   1.769281   0.000000
    14  H    3.439521   1.781549   1.781342   0.000000
    15  H    3.421586   3.520243   3.519527   2.394078   0.000000
    16  H    4.739496   6.467475   6.464393   5.891105   3.642910
    17  H    4.718967   5.917154   5.646040   4.903231   2.592337
    18  H    4.716403   5.650933   5.925700   4.915167   2.607840
    19  H    3.424353   5.853626   5.853531   5.833647   4.194009
    20  H    2.550619   4.619368   4.664466   5.741201   5.958485
    21  H    3.910088   6.272614   6.294669   7.294904   7.131622
    22  H    1.089286   2.762553   2.760168   3.785737   4.322344
                   16         17         18         19         20
    16  H    0.000000
    17  H    1.788032   0.000000
    18  H    1.788257   1.784972   0.000000
    19  H    2.221578   3.385983   3.372180   0.000000
    20  H    6.482656   6.895784   6.857324   4.513342   0.000000
    21  H    6.800457   7.555938   7.525738   4.610031   1.730325
    22  H    5.812966   5.782809   5.781484   4.348434   1.966939
                   21         22
    21  H    0.000000
    22  H    3.605689   0.000000
 Stoichiometry    C8H11N2O(2)
 Framework group  C1[X(C8H11N2O)]
 Deg. of freedom    60
 Full point group                 C1      NOp   1
 Largest Abelian subgroup         C1      NOp   1
 Largest concise Abelian subgroup C1      NOp   1
                         Standard orientation:                         
 ---------------------------------------------------------------------
 Center     Atomic      Atomic             Coordinates (Angstroms)
 Number     Number       Type             X           Y           Z
 ---------------------------------------------------------------------
      1          6           0       -2.158007    2.467232    0.007454
      2          6           0       -1.350418    1.203953    0.004934
      3          6           0       -1.993448   -0.018049   -0.002160
      4          7           0       -1.256545   -1.207462   -0.002117
      5          6           0       -1.980385   -2.458417   -0.013995
      6          6           0        0.090609   -1.167413    0.000358
      7          6           0        0.791825    0.014065    0.005553
      8          6           0        2.266841   -0.091671    0.003118
      9          7           0        2.948828    1.078371   -0.022169
     10          8           0        2.859946   -1.175386    0.029972
     11          6           0        0.053803    1.255899    0.010332
     12          1           0       -1.919714    3.082149   -0.873481
     13          1           0       -1.926476    3.074133    0.895769
     14          1           0       -3.235646    2.260770    0.002632
     15          1           0       -3.075415   -0.127924   -0.006361
     16          1           0       -1.273439   -3.293941   -0.003979
     17          1           0       -2.632689   -2.527502    0.868985
     18          1           0       -2.606776   -2.526701   -0.915798
     19          1           0        0.614057   -2.122289   -0.002406
     20          1           0        2.497757    1.978115   -0.095265
     21          1           0        3.957976    1.050713   -0.053897
     22          1           0        0.549886    2.225612    0.020454
 ---------------------------------------------------------------------
 Rotational constants (GHZ):           1.5657815           0.8635933           0.5605826
 Basis read from rwf:  (5D, 7F)
 Pseudo-potential data read from rwf file.
 There are   333 symmetry adapted cartesian basis functions of A   symmetry.
 There are   311 symmetry adapted basis functions of A   symmetry.
   311 basis functions,   465 primitive gaussians,   333 cartesian basis functions
    41 alpha electrons       40 beta electrons
       nuclear repulsion energy       594.9987535078 Hartrees.
 NAtoms=   22 NActive=   22 NUniq=   22 SFac= 1.00D+00 NAtFMM=   60 NAOKFM=F Big=F
 Integral buffers will be    131072 words long.
 Raffenetti 2 integral format.
 Two-electron integral symmetry is turned on.
 Nuclear repulsion after empirical dispersion term =      594.9789155269 Hartrees.
 ------------------------------------------------------------------------------
 Polarizable Continuum Model (PCM)
 =================================
 Model                : PCM.
 Atomic radii         : SMD-Coulomb.
 Polarization charges : Total charges.
 Charge compensation  : None.
 Solution method      : On-the-fly selection.
 Cavity type          : VdW (van der Waals Surface) (Alpha=1.000).
 Cavity algorithm     : GePol (No added spheres)
                        Default sphere list used, NSphG=   22.
                        Lebedev-Laikov grids with approx.  5.0 points / Ang**2.
                        Smoothing algorithm: York/Karplus (Gamma=1.0000).
                        Polarization charges: spherical gaussians, with
                                              point-specific exponents (IZeta= 3).
                        Self-potential: point-specific (ISelfS= 7).
                        Self-field    : sphere-specific E.n sum rule (ISelfD= 2).
 1st derivatives      : Analytical E(r).r(x)/FMM algorithm (CHGder, D1EAlg=3).
                        Cavity 1st derivative terms included.
 Solvent              : DiMethylSulfoxide, Eps=  46.826000 Eps(inf)=   2.007889
 ------------------------------------------------------------------------------
 ------------------------------------------------------------------------------
 Atomic radii for non-electrostatic terms: SMD-CDS.
 ------------------------------------------------------------------------------
 Nuclear repulsion after PCM non-electrostatic terms =      594.9793885486 Hartrees.
 One-electron integrals computed using PRISM.
   1 Symmetry operations used in ECPInt.
 ECPInt:  NShTT=    8911 NPrTT=   24707 LenC2=    8777 LenP2D=   20107.
 LDataN:  DoStor=T MaxTD1= 4 Len=   56
 NBasis=   311 RedAO= T EigKep=  8.94D-06  NBF=   311
 NBsUse=   311 1.00D-06 EigRej= -1.00D+00 NBFU=   311
 Initial guess from the checkpoint file:  "/scratch/aplatt/job_46371443/Gau-3795827.chk"
 B after Tr=     0.000000   -0.000000   -0.000000
         Rot=    1.000000    0.000034   -0.000028   -0.000064 Ang=   0.01 deg.
 Initial guess <Sx>= 0.0000 <Sy>= 0.0000 <Sz>= 0.5000 <S**2>= 0.7681 S= 0.5090
 ExpMin= 6.71D-02 ExpMax= 2.27D+03 ExpMxC= 3.41D+02 IAcc=3 IRadAn=         5 AccDes= 0.00D+00
 Harris functional with IExCor= 1009 and IRadAn=       5 diagonalized for initial guess.
 HarFok:  IExCor= 1009 AccDes= 0.00D+00 IRadAn=         5 IDoV= 1 UseB2=F ITyADJ=14
 ICtDFT=  3500011 ScaDFX=  1.000000  1.000000  1.000000  1.000000
 FoFCou: FMM=F IPFlag=           0 FMFlag=      100000 FMFlg1=           0
         NFxFlg=           0 DoJE=T BraDBF=F KetDBF=T FulRan=T
         wScrn=  0.000000 ICntrl=       500 IOpCl=  0 I1Cent=   200000004 NGrid=           0
         NMat0=    1 NMatS0=      1 NMatT0=    0 NMatD0=    1 NMtDS0=    0 NMtDT0=    0
 Petite list used in FoFCou.
 Requested convergence on RMS density matrix=1.00D-08 within 128 cycles.
 Requested convergence on MAX density matrix=1.00D-06.
 Requested convergence on             energy=1.00D-06.
 No special actions if energy rises.
 Inv3:  Mode=1 IEnd=     9409323.
 Iteration    1 A*A^-1 deviation from unit magnitude is 2.78D-15 for    193.
 Iteration    1 A*A^-1 deviation from orthogonality  is 2.02D-15 for   1255    317.
 Iteration    1 A^-1*A deviation from unit magnitude is 3.33D-15 for   1494.
 Iteration    1 A^-1*A deviation from orthogonality  is 2.15D-15 for   1116   1114.
 Error on total polarization charges =  0.03897
 SCF Done:  E(UPBE1PBE) =  -495.324410800     A.U. after   13 cycles
            NFock= 13  Conv=0.65D-08     -V/T= 2.0109
 <Sx>= 0.0000 <Sy>= 0.0000 <Sz>= 0.5000 <S**2>= 0.7682 S= 0.5090
 <L.S>= 0.000000000000E+00
 SMD-CDS (non-electrostatic) energy       (kcal/mol) =       0.30
 (included in total energy above)
 Annihilation of the first spin contaminant:
 S**2 before annihilation     0.7682,   after     0.7501
   1 Symmetry operations used in ECPInt.
 ECPInt:  NShTT=    8911 NPrTT=   24707 LenC2=    8777 LenP2D=   20107.
 LDataN:  DoStor=T MaxTD1= 5 Len=  102
 D1PCM: PCM CHGder 1st derivatives, ID1Alg=3 FixD1E=F DoIter=F DoCFld=F I1PDM=0.
 Calling FoFJK, ICntrl=      2127 FMM=F ISym2X=0 I1Cent= 0 IOpClX= 1 NMat=1 NMatS=1 NMatT=0.
 ***** Axes restored to original set *****
 -------------------------------------------------------------------
 Center     Atomic                   Forces (Hartrees/Bohr)
 Number     Number              X              Y              Z
 -------------------------------------------------------------------
      1        6           0.000051603    0.000024860   -0.000034266
      2        6          -0.000330193    0.000575937    0.000009066
      3        6           0.000059402   -0.000665058   -0.000019865
      4        7          -0.000646202    0.000746435    0.000057190
      5        6           0.000054818   -0.000219627   -0.000000308
      6        6           0.000976925   -0.000637835   -0.000010356
      7        6          -0.000317171    0.000465644   -0.000062437
      8        6          -0.000027979   -0.000193050   -0.000124798
      9        7           0.000158914    0.000104512    0.000310334
     10        8           0.000055074    0.000048708    0.000035857
     11        6           0.000242335   -0.000450952    0.000071770
     12        1          -0.000022327   -0.000020392    0.000016798
     13        1          -0.000016544   -0.000020538   -0.000002990
     14        1          -0.000033346    0.000002884    0.000003776
     15        1          -0.000003433    0.000066777   -0.000014243
     16        1           0.000022786    0.000025799    0.000010400
     17        1           0.000008742    0.000037365   -0.000023587
     18        1           0.000005184    0.000023199    0.000003907
     19        1          -0.000116810    0.000093345   -0.000007099
     20        1          -0.000033594    0.000027984   -0.000125670
     21        1          -0.000058133   -0.000067467   -0.000095684
     22        1          -0.000030052    0.000031471    0.000002204
 -------------------------------------------------------------------
 Cartesian Forces:  Max     0.000976925 RMS     0.000250277

 GradGradGradGradGradGradGradGradGradGradGradGradGradGradGradGradGradGrad
 Berny optimization.
 Using GEDIIS/GDIIS optimizer.
 FormGI is forming the generalized inverse of G from B-inverse, IUseBI=4.
 Internal  Forces:  Max     0.000677326 RMS     0.000104858
 Search for a local minimum.
 Step number   9 out of a maximum of  112
 All quantities printed in internal units (Hartrees-Bohrs-Radians)
 Mixed Optimization -- En-DIIS/RFO-DIIS
 Swapping is turned off.
 Update second derivatives using D2CorX and points    3    4    5    6    7
                                                      8    9
 DE= -4.59D-06 DEPred=-3.34D-06 R= 1.37D+00
 TightC=F SS=  1.41D+00  RLast= 3.59D-02 DXNew= 1.4270D+00 1.0767D-01
 Trust test= 1.37D+00 RLast= 3.59D-02 DXMaxT set to 8.49D-01
 ITU=  1  1  1  1  0  0  1  1  0
     Eigenvalues ---    0.00191   0.00705   0.00947   0.01106   0.01698
     Eigenvalues ---    0.01765   0.01957   0.02204   0.02286   0.02343
     Eigenvalues ---    0.02367   0.02417   0.02496   0.02650   0.05445
     Eigenvalues ---    0.07230   0.07426   0.07606   0.07622   0.15101
     Eigenvalues ---    0.15997   0.16000   0.16000   0.16000   0.16000
     Eigenvalues ---    0.16003   0.16043   0.16069   0.16331   0.16828
     Eigenvalues ---    0.21197   0.23548   0.24364   0.24793   0.24999
     Eigenvalues ---    0.25241   0.26419   0.28382   0.33759   0.34720
     Eigenvalues ---    0.34781   0.34929   0.35028   0.35128   0.35380
     Eigenvalues ---    0.35763   0.35908   0.36127   0.38416   0.39433
     Eigenvalues ---    0.42705   0.44944   0.46041   0.46420   0.48565
     Eigenvalues ---    0.50302   0.54235   0.57458   0.65716   0.98150
 En-DIIS/RFO-DIIS/Sim-DIIS IScMMF=       -3 using points:     9    8    7    6    5    4    3
 RFO step:  Lambda=-7.34673668D-06.
 DIIS inversion failure, remove point   7.
 DIIS inversion failure, remove point   6.
 RFO-DIIS uses    5 points instead of    7
 DidBck=F Rises=F RFO-DIIS coefs:    2.37637   -2.00000    0.76867   -0.13385   -0.01120
                  RFO-DIIS coefs:    0.00000    0.00000
 Iteration  1 RMS(Cart)=  0.00892384 RMS(Int)=  0.00007494
 Iteration  2 RMS(Cart)=  0.00008153 RMS(Int)=  0.00002538
 Iteration  3 RMS(Cart)=  0.00000001 RMS(Int)=  0.00002538
 Variable       Old X    -DE/DX   Delta X   Delta X   Delta X     New X
                                 (Linear)    (Quad)   (Total)
    R1        2.83338   0.00003  -0.00011   0.00008  -0.00003   2.83335
    R2        2.07952   0.00003   0.00007   0.00006   0.00013   2.07964
    R3        2.07959   0.00002   0.00000   0.00003   0.00003   2.07963
    R4        2.07350   0.00002   0.00001   0.00005   0.00006   2.07356
    R5        2.60948  -0.00033   0.00064  -0.00066  -0.00002   2.60946
    R6        2.65543   0.00029  -0.00046   0.00054   0.00008   2.65550
    R7        2.64408   0.00022  -0.00033   0.00034   0.00001   2.64409
    R8        2.05515   0.00002  -0.00002   0.00005   0.00003   2.05518
    R9        2.73127  -0.00015   0.00068  -0.00044   0.00024   2.73152
   R10        2.54688   0.00068  -0.00067   0.00100   0.00033   2.54721
   R11        2.06834   0.00002  -0.00005   0.00007   0.00002   2.06836
   R12        2.07864   0.00002  -0.00003   0.00006   0.00003   2.07867
   R13        2.07894   0.00001  -0.00006   0.00001  -0.00005   2.07888
   R14        2.59631  -0.00029   0.00038  -0.00062  -0.00024   2.59607
   R15        2.05780  -0.00001   0.00004  -0.00001   0.00003   2.05783
   R16        2.79453   0.00012  -0.00007   0.00007   0.00000   2.79454
   R17        2.72989   0.00017   0.00007   0.00022   0.00029   2.73018
   R18        2.55969  -0.00006   0.00007  -0.00014  -0.00007   2.55961
   R19        2.33512   0.00008  -0.00003   0.00004   0.00001   2.33513
   R20        1.90698  -0.00003  -0.00004  -0.00003  -0.00007   1.90691
   R21        1.90867  -0.00005  -0.00003  -0.00013  -0.00016   1.90851
   R22        2.05845  -0.00004   0.00013  -0.00009   0.00004   2.05849
    A1        1.93139   0.00002   0.00001   0.00006   0.00007   1.93146
    A2        1.93124   0.00002   0.00008   0.00014   0.00022   1.93146
    A3        1.95029   0.00002  -0.00014   0.00012  -0.00002   1.95028
    A4        1.86761  -0.00002   0.00000  -0.00016  -0.00016   1.86745
    A5        1.89052  -0.00002  -0.00004  -0.00013  -0.00017   1.89035
    A6        1.89015  -0.00002   0.00010  -0.00006   0.00004   1.89019
    A7        2.08840  -0.00001  -0.00027   0.00010  -0.00017   2.08823
    A8        2.10261  -0.00010   0.00047  -0.00030   0.00016   2.10277
    A9        2.09218   0.00010  -0.00020   0.00020   0.00001   2.09219
   A10        2.10252   0.00009  -0.00026   0.00041   0.00016   2.10267
   A11        2.15641   0.00001  -0.00028   0.00008  -0.00020   2.15620
   A12        2.02426  -0.00010   0.00053  -0.00049   0.00005   2.02431
   A13        2.06234   0.00012  -0.00034   0.00041   0.00007   2.06242
   A14        2.09575  -0.00018   0.00041  -0.00053  -0.00013   2.09562
   A15        2.12507   0.00006  -0.00005   0.00013   0.00008   2.12515
   A16        1.91470   0.00000  -0.00027   0.00007  -0.00020   1.91449
   A17        1.92278   0.00004  -0.00044   0.00027  -0.00017   1.92260
   A18        1.92369   0.00001  -0.00026  -0.00005  -0.00031   1.92338
   A19        1.90471  -0.00002   0.00039  -0.00012   0.00027   1.90497
   A20        1.90486  -0.00002   0.00040  -0.00018   0.00023   1.90508
   A21        1.89280  -0.00001   0.00020  -0.00000   0.00020   1.89300
   A22        2.13615  -0.00002   0.00006  -0.00010  -0.00003   2.13612
   A23        2.04252  -0.00015   0.00059  -0.00082  -0.00024   2.04228
   A24        2.10452   0.00017  -0.00064   0.00092   0.00027   2.10479
   A25        2.03485  -0.00007   0.00005  -0.00030  -0.00026   2.03459
   A26        2.06975   0.00012  -0.00043   0.00060   0.00017   2.06992
   A27        2.17858  -0.00005   0.00039  -0.00030   0.00009   2.17867
   A28        2.02691   0.00005   0.00020  -0.00018   0.00002   2.02693
   A29        2.14292  -0.00002   0.00013  -0.00012   0.00000   2.14293
   A30        2.11333  -0.00003  -0.00032   0.00031  -0.00001   2.11332
   A31        2.14893  -0.00009   0.00059  -0.00026   0.00018   2.14912
   A32        2.07143   0.00011   0.00072   0.00065   0.00122   2.07265
   A33        2.05866  -0.00000   0.00053   0.00020   0.00059   2.05925
   A34        2.07002  -0.00012   0.00042  -0.00057  -0.00016   2.06985
   A35        2.08065   0.00004  -0.00011   0.00026   0.00012   2.08077
   A36        2.13251   0.00007  -0.00026   0.00031   0.00003   2.13255
    D1       -2.10878  -0.00000   0.00171  -0.00036   0.00134  -2.10744
    D2        1.03330   0.00000   0.00094   0.00050   0.00143   1.03474
    D3        2.10732   0.00000   0.00165  -0.00030   0.00135   2.10867
    D4       -1.03378   0.00001   0.00089   0.00056   0.00144  -1.03234
    D5       -0.00045  -0.00001   0.00156  -0.00040   0.00116   0.00071
    D6       -3.14155   0.00000   0.00080   0.00046   0.00125  -3.14030
    D7       -3.13953  -0.00001  -0.00142  -0.00025  -0.00167  -3.14120
    D8        0.00024   0.00000  -0.00017   0.00034   0.00018   0.00041
    D9        0.00158  -0.00002  -0.00066  -0.00110  -0.00176  -0.00018
   D10        3.14134  -0.00000   0.00060  -0.00051   0.00008   3.14142
   D11       -3.13994  -0.00001   0.00089  -0.00076   0.00012  -3.13982
   D12        0.00429  -0.00000  -0.00790   0.00003  -0.00787  -0.00359
   D13        0.00214  -0.00001   0.00012   0.00010   0.00022   0.00236
   D14       -3.13681   0.00000  -0.00867   0.00089  -0.00778   3.13859
   D15       -3.13823   0.00001  -0.00257   0.00053  -0.00203  -3.14026
   D16       -0.00387   0.00003   0.00086   0.00124   0.00210  -0.00178
   D17        0.00506  -0.00000  -0.00373  -0.00001  -0.00374   0.00131
   D18        3.13942   0.00002  -0.00031   0.00069   0.00038   3.13980
   D19       -3.13336  -0.00000   0.00003  -0.00047  -0.00044  -3.13381
   D20       -1.03621  -0.00001   0.00006  -0.00041  -0.00035  -1.03655
   D21        1.05191   0.00001  -0.00013  -0.00027  -0.00040   1.05150
   D22        0.01559  -0.00002  -0.00346  -0.00119  -0.00464   0.01095
   D23        2.11275  -0.00002  -0.00343  -0.00112  -0.00455   2.10820
   D24       -2.08232  -0.00001  -0.00362  -0.00098  -0.00460  -2.08693
   D25        0.00229  -0.00002  -0.00050  -0.00033  -0.00082   0.00146
   D26       -3.13883  -0.00001  -0.00103  -0.00073  -0.00176  -3.14059
   D27        3.13638   0.00000   0.00305   0.00040   0.00346   3.13983
   D28       -0.00474   0.00000   0.00252   0.00000   0.00252  -0.00222
   D29       -3.13808   0.00000  -0.00276  -0.00026  -0.00302  -3.14111
   D30        0.00148  -0.00001  -0.00005  -0.00067  -0.00072   0.00076
   D31        0.00302   0.00000  -0.00221   0.00015  -0.00206   0.00096
   D32       -3.14060  -0.00001   0.00051  -0.00026   0.00025  -3.14035
   D33        3.11655   0.00000   0.01149   0.00023   0.01172   3.12827
   D34       -0.03196   0.00003   0.01231   0.00109   0.01341  -0.01856
   D35       -0.02287   0.00001   0.00859   0.00067   0.00925  -0.01362
   D36        3.11180   0.00004   0.00941   0.00153   0.01094   3.12274
   D37       -0.00368   0.00002   0.00024   0.00078   0.00102  -0.00266
   D38        3.13520   0.00001   0.00930  -0.00004   0.00926  -3.13872
   D39        3.13571   0.00001   0.00319   0.00033   0.00353   3.13923
   D40       -0.00860  -0.00000   0.01226  -0.00048   0.01177   0.00317
   D41       -0.06707   0.00011   0.01454   0.00427   0.01881  -0.04826
   D42       -3.10867  -0.00007  -0.00613  -0.00275  -0.00888  -3.11755
   D43        3.08133   0.00009   0.01373   0.00342   0.01715   3.09848
   D44        0.03972  -0.00010  -0.00694  -0.00360  -0.01054   0.02919
         Item               Value     Threshold  Converged?
 Maximum Force            0.000677     0.000450     NO 
 RMS     Force            0.000105     0.000300     YES
 Maximum Displacement     0.057210     0.001800     NO 
 RMS     Displacement     0.008924     0.001200     NO 
 Predicted change in Energy=-3.668705D-06
 GradGradGradGradGradGradGradGradGradGradGradGradGradGradGradGradGradGrad

                          Input orientation:                          
 ---------------------------------------------------------------------
 Center     Atomic      Atomic             Coordinates (Angstroms)
 Number     Number       Type             X           Y           Z
 ---------------------------------------------------------------------
      1          6           0       -2.227805   -1.809083    0.216569
      2          6           0       -1.163568   -0.756301    0.132370
      3          6           0       -1.524086    0.572957    0.032888
      4          7           0       -0.545283    1.569589   -0.047184
      5          6           0       -0.978508    2.944894   -0.148148
      6          6           0        0.760750    1.236855   -0.025541
      7          6           0        1.186850   -0.065523    0.072080
      8          6           0        2.649391   -0.283845    0.085258
      9          7           0        3.059682   -1.569773    0.197918
     10          8           0        3.464637    0.640281   -0.005906
     11          6           0        0.195410   -1.113256    0.153317
     12          1           0       -2.129109   -2.387484    1.147596
     13          1           0       -2.135418   -2.522197   -0.616504
     14          1           0       -3.234252   -1.372960    0.186759
     15          1           0       -2.555987    0.915725    0.011373
     16          1           0       -0.105994    3.602815   -0.210262
     17          1           0       -1.598465    3.082049   -1.046372
     18          1           0       -1.576388    3.220531    0.733202
     19          1           0        1.479960    2.051983   -0.089804
     20          1           0        2.422586   -2.344184    0.310462
     21          1           0        4.050495   -1.762375    0.232195
     22          1           0        0.467802   -2.164795    0.234934
 ---------------------------------------------------------------------
                    Distance matrix (angstroms):
                    1          2          3          4          5
     1  C    0.000000
     2  C    1.499346   0.000000
     3  C    2.490597   1.380868   0.000000
     4  N    3.783631   2.413355   1.399193   0.000000
     5  C    4.928900   3.716421   2.440597   1.445456   0.000000
     6  C    4.274086   2.774997   2.380052   1.347925   2.440789
     7  C    3.836763   2.450567   2.785385   2.384974   3.714820
     8  C    5.111813   3.842408   4.260841   3.695768   4.862190
     9  N    5.292933   4.301381   5.062555   4.786590   6.067040
    10  O    6.201030   4.836305   4.989328   4.116403   5.007296
    11  C    2.521933   1.405232   2.411324   2.790427   4.235274
    12  H    1.100500   2.150281   3.220689   4.426559   5.606879
    13  H    1.100490   2.150277   3.221089   4.426665   5.607752
    14  H    1.097282   2.161240   2.595176   3.992979   4.883074
    15  H    2.752160   2.179253   1.087554   2.115159   2.575153
    16  H    5.828628   4.498639   3.354123   2.086523   1.094532
    17  H    5.090604   4.038750   2.732376   2.096450   1.099983
    18  H    5.097869   4.043094   2.739128   2.097091   1.100098
    19  H    5.361830   3.863168   3.350651   2.082338   2.616250
    20  H    4.682017   3.926014   4.915585   4.924812   6.304928
    21  H    6.278494   5.311178   6.047268   5.683416   6.898835
    22  H    2.719037   2.157716   3.391713   3.879633   5.324235
                    6          7          8          9         10
     6  C    0.000000
     7  C    1.373783   0.000000
     8  C    2.427297   1.478805   0.000000
     9  N    3.634857   2.405432   1.354490   0.000000
    10  O    2.768987   2.385907   1.235696   2.256074   0.000000
    11  C    2.423762   1.444749   2.591250   2.900768   3.713231
    12  H    4.781565   4.188535   5.328032   5.337986   6.464357
    13  H    4.781997   4.188898   5.328892   5.344106   6.460241
    14  H    4.776636   4.611799   5.984458   6.297021   6.997526
    15  H    3.332451   3.869802   5.342321   6.143960   6.026946
    16  H    2.526486   3.899726   4.773427   6.078140   4.644111
    17  H    3.164290   4.349267   5.536615   6.699705   5.716625
    18  H    3.157986   4.344044   5.527901   6.687802   5.711033
    19  H    1.088957   2.143817   2.618073   3.961745   2.436982
    20  H    3.962125   2.603107   2.084983   1.009094   3.176947
    21  H    4.459174   3.332477   2.042237   1.009941   2.484487
    22  H    3.424162   2.224971   2.884390   2.659561   4.111870
                   11         12         13         14         15
    11  C    0.000000
    12  H    2.831190   0.000000
    13  H    2.830283   1.769247   0.000000
    14  H    3.439644   1.781518   1.781408   0.000000
    15  H    3.421564   3.519150   3.520002   2.393508   0.000000
    16  H    4.739658   6.466873   6.465243   5.890837   3.643081
    17  H    4.717820   5.916998   5.646297   4.903419   2.593961
    18  H    4.717758   5.650403   5.925634   4.913987   2.606297
    19  H    3.424604   5.853666   5.854186   5.833569   4.194066
    20  H    2.549547   4.628238   4.654713   5.740940   5.958410
    21  H    3.910148   6.278234   6.289924   7.295290   7.132082
    22  H    1.089308   2.761609   2.762144   3.786096   4.322369
                   16         17         18         19         20
    16  H    0.000000
    17  H    1.788225   0.000000
    18  H    1.788386   1.785091   0.000000
    19  H    2.221450   3.384193   3.374034   0.000000
    20  H    6.483183   6.888675   6.865606   4.513872   0.000000
    21  H    6.801281   7.550757   7.532740   4.610928   1.730525
    22  H    5.813154   5.782782   5.781757   4.348693   1.964450
                   21         22
    21  H    0.000000
    22  H    3.605224   0.000000
 Stoichiometry    C8H11N2O(2)
 Framework group  C1[X(C8H11N2O)]
 Deg. of freedom    60
 Full point group                 C1      NOp   1
 Largest Abelian subgroup         C1      NOp   1
 Largest concise Abelian subgroup C1      NOp   1
                         Standard orientation:                         
 ---------------------------------------------------------------------
 Center     Atomic      Atomic             Coordinates (Angstroms)
 Number     Number       Type             X           Y           Z
 ---------------------------------------------------------------------
      1          6           0       -2.158585    2.466917    0.004710
      2          6           0       -1.350544    1.203942    0.003090
      3          6           0       -1.993339   -0.018186   -0.000754
      4          7           0       -1.256382   -1.207570   -0.001840
      5          6           0       -1.980182   -2.458738   -0.007597
      6          6           0        0.090941   -1.167283   -0.001205
      7          6           0        0.791856    0.014236    0.002196
      8          6           0        2.266869   -0.091596    0.001852
      9          7           0        2.948986    1.078530   -0.010981
     10          8           0        2.859850   -1.175597    0.017981
     11          6           0        0.053714    1.256182    0.006160
     12          1           0       -1.923025    3.079802   -0.878457
     13          1           0       -1.924941    3.076308    0.890786
     14          1           0       -3.236185    2.260028    0.003240
     15          1           0       -3.075326   -0.128061   -0.003108
     16          1           0       -1.272912   -3.294026    0.000247
     17          1           0       -2.627846   -2.526053    0.878950
     18          1           0       -2.611144   -2.528476   -0.906062
     19          1           0        0.614330   -2.122212   -0.003077
     20          1           0        2.497548    1.979643   -0.060671
     21          1           0        3.958345    1.052269   -0.032987
     22          1           0        0.549757    2.225992    0.006326
 ---------------------------------------------------------------------
 Rotational constants (GHZ):           1.5657639           0.8635899           0.5605468
 Basis read from rwf:  (5D, 7F)
 Pseudo-potential data read from rwf file.
 There are   333 symmetry adapted cartesian basis functions of A   symmetry.
 There are   311 symmetry adapted basis functions of A   symmetry.
   311 basis functions,   465 primitive gaussians,   333 cartesian basis functions
    41 alpha electrons       40 beta electrons
       nuclear repulsion energy       594.9901256878 Hartrees.
 NAtoms=   22 NActive=   22 NUniq=   22 SFac= 1.00D+00 NAtFMM=   60 NAOKFM=F Big=F
 Integral buffers will be    131072 words long.
 Raffenetti 2 integral format.
 Two-electron integral symmetry is turned on.
 Nuclear repulsion after empirical dispersion term =      594.9702879766 Hartrees.
 ------------------------------------------------------------------------------
 Polarizable Continuum Model (PCM)
 =================================
 Model                : PCM.
 Atomic radii         : SMD-Coulomb.
 Polarization charges : Total charges.
 Charge compensation  : None.
 Solution method      : On-the-fly selection.
 Cavity type          : VdW (van der Waals Surface) (Alpha=1.000).
 Cavity algorithm     : GePol (No added spheres)
                        Default sphere list used, NSphG=   22.
                        Lebedev-Laikov grids with approx.  5.0 points / Ang**2.
                        Smoothing algorithm: York/Karplus (Gamma=1.0000).
                        Polarization charges: spherical gaussians, with
                                              point-specific exponents (IZeta= 3).
                        Self-potential: point-specific (ISelfS= 7).
                        Self-field    : sphere-specific E.n sum rule (ISelfD= 2).
 1st derivatives      : Analytical E(r).r(x)/FMM algorithm (CHGder, D1EAlg=3).
                        Cavity 1st derivative terms included.
 Solvent              : DiMethylSulfoxide, Eps=  46.826000 Eps(inf)=   2.007889
 ------------------------------------------------------------------------------
 ------------------------------------------------------------------------------
 Atomic radii for non-electrostatic terms: SMD-CDS.
 ------------------------------------------------------------------------------
 Nuclear repulsion after PCM non-electrostatic terms =      594.9707618895 Hartrees.
 One-electron integrals computed using PRISM.
   1 Symmetry operations used in ECPInt.
 ECPInt:  NShTT=    8911 NPrTT=   24707 LenC2=    8777 LenP2D=   20107.
 LDataN:  DoStor=T MaxTD1= 4 Len=   56
 NBasis=   311 RedAO= T EigKep=  8.91D-06  NBF=   311
 NBsUse=   311 1.00D-06 EigRej= -1.00D+00 NBFU=   311
 Initial guess from the checkpoint file:  "/scratch/aplatt/job_46371443/Gau-3795827.chk"
 B after Tr=    -0.000000   -0.000000   -0.000000
         Rot=    1.000000    0.000034   -0.000038   -0.000049 Ang=   0.01 deg.
 Initial guess <Sx>= 0.0000 <Sy>= 0.0000 <Sz>= 0.5000 <S**2>= 0.7682 S= 0.5090
 ExpMin= 6.71D-02 ExpMax= 2.27D+03 ExpMxC= 3.41D+02 IAcc=3 IRadAn=         5 AccDes= 0.00D+00
 Harris functional with IExCor= 1009 and IRadAn=       5 diagonalized for initial guess.
 HarFok:  IExCor= 1009 AccDes= 0.00D+00 IRadAn=         5 IDoV= 1 UseB2=F ITyADJ=14
 ICtDFT=  3500011 ScaDFX=  1.000000  1.000000  1.000000  1.000000
 FoFCou: FMM=F IPFlag=           0 FMFlag=      100000 FMFlg1=           0
         NFxFlg=           0 DoJE=T BraDBF=F KetDBF=T FulRan=T
         wScrn=  0.000000 ICntrl=       500 IOpCl=  0 I1Cent=   200000004 NGrid=           0
         NMat0=    1 NMatS0=      1 NMatT0=    0 NMatD0=    1 NMtDS0=    0 NMtDT0=    0
 Petite list used in FoFCou.
 Requested convergence on RMS density matrix=1.00D-08 within 128 cycles.
 Requested convergence on MAX density matrix=1.00D-06.
 Requested convergence on             energy=1.00D-06.
 No special actions if energy rises.
 Inv3:  Mode=1 IEnd=     9419952.
 Iteration    1 A*A^-1 deviation from unit magnitude is 3.11D-15 for   1268.
 Iteration    1 A*A^-1 deviation from orthogonality  is 2.00D-15 for   1191    476.
 Iteration    1 A^-1*A deviation from unit magnitude is 2.78D-15 for   1268.
 Iteration    1 A^-1*A deviation from orthogonality  is 3.98D-14 for   1306   1247.
 Error on total polarization charges =  0.03897
 SCF Done:  E(UPBE1PBE) =  -495.324416000     A.U. after   13 cycles
            NFock= 13  Conv=0.66D-08     -V/T= 2.0109
 <Sx>= 0.0000 <Sy>= 0.0000 <Sz>= 0.5000 <S**2>= 0.7682 S= 0.5090
 <L.S>= 0.000000000000E+00
 SMD-CDS (non-electrostatic) energy       (kcal/mol) =       0.30
 (included in total energy above)
 Annihilation of the first spin contaminant:
 S**2 before annihilation     0.7682,   after     0.7501
   1 Symmetry operations used in ECPInt.
 ECPInt:  NShTT=    8911 NPrTT=   24707 LenC2=    8777 LenP2D=   20107.
 LDataN:  DoStor=T MaxTD1= 5 Len=  102
 D1PCM: PCM CHGder 1st derivatives, ID1Alg=3 FixD1E=F DoIter=F DoCFld=F I1PDM=0.
 Calling FoFJK, ICntrl=      2127 FMM=F ISym2X=0 I1Cent= 0 IOpClX= 1 NMat=1 NMatS=1 NMatT=0.
 ***** Axes restored to original set *****
 -------------------------------------------------------------------
 Center     Atomic                   Forces (Hartrees/Bohr)
 Number     Number              X              Y              Z
 -------------------------------------------------------------------
      1        6           0.000026936   -0.000025432    0.000008496
      2        6          -0.000304557    0.000564528   -0.000073445
      3        6           0.000056304   -0.000621796    0.000045727
      4        7          -0.000567351    0.000712054   -0.000037395
      5        6           0.000099329   -0.000350187    0.000046149
      6        6           0.000774902   -0.000493052   -0.000057127
      7        6          -0.000331415    0.000333464   -0.000089905
      8        6           0.000085268   -0.000279160   -0.000040750
      9        7           0.000003967    0.000150194    0.000232580
     10        8           0.000055397    0.000053544    0.000020752
     11        6           0.000284508   -0.000343170    0.000277456
     12        1          -0.000016145    0.000002267   -0.000003695
     13        1          -0.000010693    0.000004471    0.000004111
     14        1          -0.000010795   -0.000003636    0.000008110
     15        1           0.000006195    0.000072654   -0.000028837
     16        1          -0.000001527    0.000040272    0.000009361
     17        1           0.000012657    0.000063721   -0.000017112
     18        1           0.000001081    0.000053439   -0.000004637
     19        1          -0.000107484    0.000062261    0.000001171
     20        1          -0.000033081    0.000011832   -0.000099282
     21        1          -0.000014431   -0.000033424   -0.000070257
     22        1          -0.000009064    0.000025156   -0.000131471
 -------------------------------------------------------------------
 Cartesian Forces:  Max     0.000774902 RMS     0.000225742

 GradGradGradGradGradGradGradGradGradGradGradGradGradGradGradGradGradGrad
 Berny optimization.
 Using GEDIIS/GDIIS optimizer.
 FormGI is forming the generalized inverse of G from B-inverse, IUseBI=4.
 Internal  Forces:  Max     0.000554355 RMS     0.000092504
 Search for a local minimum.
 Step number  10 out of a maximum of  112
 All quantities printed in internal units (Hartrees-Bohrs-Radians)
 Mixed Optimization -- En-DIIS/RFO-DIIS
 Swapping is turned off.
 Update second derivatives using D2CorX and points    3    4    5    6    7
                                                      8    9   10
 DE= -5.20D-06 DEPred=-3.67D-06 R= 1.42D+00
 TightC=F SS=  1.41D+00  RLast= 4.32D-02 DXNew= 1.4270D+00 1.2949D-01
 Trust test= 1.42D+00 RLast= 4.32D-02 DXMaxT set to 8.49D-01
 ITU=  1  1  1  1  1  0  0  1  1  0
     Eigenvalues ---    0.00184   0.00641   0.00944   0.01118   0.01700
     Eigenvalues ---    0.01746   0.01954   0.02203   0.02295   0.02350
     Eigenvalues ---    0.02372   0.02422   0.02508   0.02883   0.05420
     Eigenvalues ---    0.07229   0.07424   0.07608   0.07624   0.14947
     Eigenvalues ---    0.15563   0.16000   0.16000   0.16000   0.16000
     Eigenvalues ---    0.16003   0.16016   0.16072   0.16281   0.16531
     Eigenvalues ---    0.20838   0.23061   0.23571   0.24819   0.24999
     Eigenvalues ---    0.25178   0.26104   0.28853   0.33787   0.34720
     Eigenvalues ---    0.34791   0.34929   0.35031   0.35115   0.35372
     Eigenvalues ---    0.35758   0.35926   0.36167   0.38062   0.39789
     Eigenvalues ---    0.42365   0.44962   0.45798   0.46434   0.46909
     Eigenvalues ---    0.48756   0.54207   0.54875   0.59375   0.98012
 En-DIIS/RFO-DIIS/Sim-DIIS IScMMF=       -3 using points:    10    9    8    7    6    5    4    3
 RFO step:  Lambda=-5.37226292D-06.
 DIIS inversion failure, remove point   8.
 DIIS inversion failure, remove point   7.
 DIIS inversion failure, remove point   6.
 DIIS inversion failure, remove point   5.
 RFO-DIIS uses    4 points instead of    8
 DidBck=F Rises=F RFO-DIIS coefs:    2.19068   -2.00000    0.42851    0.38081    0.00000
                  RFO-DIIS coefs:    0.00000    0.00000    0.00000
 Iteration  1 RMS(Cart)=  0.00364210 RMS(Int)=  0.00002256
 Iteration  2 RMS(Cart)=  0.00002092 RMS(Int)=  0.00000585
 Iteration  3 RMS(Cart)=  0.00000000 RMS(Int)=  0.00000585
 Variable       Old X    -DE/DX   Delta X   Delta X   Delta X     New X
                                 (Linear)    (Quad)   (Total)
    R1        2.83335   0.00003  -0.00001   0.00003   0.00002   2.83337
    R2        2.07964  -0.00000   0.00013  -0.00005   0.00008   2.07972
    R3        2.07963  -0.00000   0.00009  -0.00006   0.00003   2.07966
    R4        2.07356   0.00000   0.00009  -0.00004   0.00005   2.07361
    R5        2.60946  -0.00032  -0.00089  -0.00010  -0.00099   2.60848
    R6        2.65550   0.00026   0.00095   0.00005   0.00100   2.65650
    R7        2.64409   0.00019   0.00026   0.00004   0.00030   2.64440
    R8        2.05518   0.00002   0.00011  -0.00001   0.00011   2.05529
    R9        2.73152  -0.00022  -0.00038  -0.00022  -0.00060   2.73091
   R10        2.54721   0.00055   0.00159   0.00005   0.00164   2.54885
   R11        2.06836   0.00001   0.00009  -0.00002   0.00007   2.06844
   R12        2.07867   0.00002   0.00011   0.00000   0.00011   2.07878
   R13        2.07888   0.00001   0.00006  -0.00001   0.00005   2.07893
   R14        2.59607  -0.00020  -0.00079   0.00004  -0.00075   2.59533
   R15        2.05783  -0.00003  -0.00002  -0.00005  -0.00007   2.05776
   R16        2.79454   0.00012   0.00070   0.00013   0.00083   2.79537
   R17        2.73018   0.00005   0.00009  -0.00011  -0.00002   2.73016
   R18        2.55961  -0.00015  -0.00024  -0.00020  -0.00043   2.55918
   R19        2.33513   0.00008  -0.00012   0.00004  -0.00008   2.33505
   R20        1.90691  -0.00001  -0.00004  -0.00003  -0.00007   1.90684
   R21        1.90851  -0.00001  -0.00007   0.00000  -0.00007   1.90844
   R22        2.05849  -0.00004  -0.00005  -0.00003  -0.00009   2.05841
    A1        1.93146   0.00001   0.00008  -0.00004   0.00005   1.93150
    A2        1.93146   0.00000   0.00018  -0.00005   0.00013   1.93159
    A3        1.95028   0.00002   0.00011   0.00004   0.00016   1.95043
    A4        1.86745  -0.00001  -0.00022   0.00004  -0.00018   1.86727
    A5        1.89035  -0.00002  -0.00016  -0.00003  -0.00019   1.89015
    A6        1.89019  -0.00001  -0.00002   0.00004   0.00002   1.89021
    A7        2.08823   0.00002   0.00015   0.00009   0.00025   2.08847
    A8        2.10277  -0.00012  -0.00037  -0.00012  -0.00049   2.10229
    A9        2.09219   0.00010   0.00022   0.00003   0.00024   2.09243
   A10        2.10267   0.00007   0.00064   0.00003   0.00066   2.10334
   A11        2.15620   0.00003  -0.00015   0.00010  -0.00005   2.15616
   A12        2.02431  -0.00010  -0.00049  -0.00012  -0.00061   2.02369
   A13        2.06242   0.00011   0.00056   0.00007   0.00064   2.06305
   A14        2.09562  -0.00016  -0.00075  -0.00006  -0.00081   2.09481
   A15        2.12515   0.00004   0.00019  -0.00001   0.00018   2.12533
   A16        1.91449   0.00003  -0.00005   0.00009   0.00004   1.91453
   A17        1.92260   0.00006   0.00032   0.00018   0.00050   1.92310
   A18        1.92338   0.00005   0.00013   0.00016   0.00029   1.92367
   A19        1.90497  -0.00005  -0.00016  -0.00016  -0.00032   1.90465
   A20        1.90508  -0.00005  -0.00023  -0.00017  -0.00040   1.90468
   A21        1.89300  -0.00004  -0.00002  -0.00010  -0.00012   1.89288
   A22        2.13612  -0.00002  -0.00018   0.00001  -0.00017   2.13594
   A23        2.04228  -0.00012  -0.00101  -0.00005  -0.00105   2.04122
   A24        2.10479   0.00014   0.00119   0.00004   0.00123   2.10602
   A25        2.03459   0.00002  -0.00040   0.00029  -0.00010   2.03449
   A26        2.06992   0.00010   0.00087   0.00002   0.00089   2.07081
   A27        2.17867  -0.00013  -0.00048  -0.00031  -0.00078   2.17789
   A28        2.02693  -0.00003  -0.00005  -0.00027  -0.00033   2.02661
   A29        2.14293   0.00002  -0.00015   0.00017   0.00002   2.14295
   A30        2.11332   0.00002   0.00021   0.00010   0.00031   2.11363
   A31        2.14912  -0.00005  -0.00075   0.00026  -0.00047   2.14864
   A32        2.07265   0.00005   0.00116   0.00000   0.00117   2.07382
   A33        2.05925   0.00001   0.00018   0.00023   0.00043   2.05967
   A34        2.06985  -0.00009  -0.00079  -0.00002  -0.00080   2.06905
   A35        2.08077   0.00005   0.00043   0.00012   0.00058   2.08135
   A36        2.13255   0.00004   0.00028  -0.00009   0.00022   2.13277
    D1       -2.10744  -0.00000   0.00007   0.00029   0.00036  -2.10708
    D2        1.03474  -0.00000   0.00052  -0.00026   0.00026   1.03499
    D3        2.10867   0.00000   0.00018   0.00030   0.00048   2.10915
    D4       -1.03234  -0.00000   0.00063  -0.00025   0.00038  -1.03197
    D5        0.00071  -0.00000  -0.00000   0.00026   0.00026   0.00097
    D6       -3.14030  -0.00001   0.00045  -0.00030   0.00015  -3.14014
    D7       -3.14120  -0.00000  -0.00068  -0.00013  -0.00081   3.14118
    D8        0.00041  -0.00000   0.00040  -0.00036   0.00004   0.00045
    D9       -0.00018   0.00000  -0.00113   0.00042  -0.00071  -0.00089
   D10        3.14142   0.00000  -0.00005   0.00019   0.00014   3.14156
   D11       -3.13982  -0.00001  -0.00094   0.00006  -0.00088  -3.14070
   D12       -0.00359   0.00005  -0.00148   0.00110  -0.00039  -0.00397
   D13        0.00236  -0.00002  -0.00049  -0.00050  -0.00099   0.00137
   D14        3.13859   0.00005  -0.00103   0.00054  -0.00049   3.13810
   D15       -3.14026   0.00002   0.00026  -0.00016   0.00010  -3.14016
   D16       -0.00178   0.00002   0.00203  -0.00001   0.00202   0.00024
   D17        0.00131   0.00002  -0.00074   0.00006  -0.00068   0.00063
   D18        3.13980   0.00002   0.00102   0.00021   0.00123   3.14103
   D19       -3.13381  -0.00001  -0.00050  -0.00107  -0.00156  -3.13537
   D20       -1.03655  -0.00002  -0.00052  -0.00110  -0.00162  -1.03818
   D21        1.05150   0.00000  -0.00026  -0.00101  -0.00127   1.05023
   D22        0.01095  -0.00001  -0.00229  -0.00122  -0.00351   0.00744
   D23        2.10820  -0.00002  -0.00231  -0.00125  -0.00357   2.10463
   D24       -2.08693   0.00000  -0.00205  -0.00117  -0.00322  -2.09015
   D25        0.00146  -0.00002  -0.00125  -0.00033  -0.00157  -0.00011
   D26       -3.14059  -0.00000  -0.00127   0.00014  -0.00113   3.14146
   D27        3.13983  -0.00002   0.00059  -0.00017   0.00041   3.14025
   D28       -0.00222  -0.00000   0.00056   0.00030   0.00086  -0.00137
   D29       -3.14111   0.00002  -0.00024   0.00015  -0.00009  -3.14120
   D30        0.00076   0.00000  -0.00039   0.00024  -0.00015   0.00061
   D31        0.00096   0.00000  -0.00022  -0.00034  -0.00055   0.00041
   D32       -3.14035  -0.00002  -0.00036  -0.00025  -0.00061  -3.14096
   D33        3.12827  -0.00000   0.00122   0.00143   0.00265   3.13092
   D34       -0.01856   0.00001   0.00223   0.00229   0.00452  -0.01404
   D35       -0.01362   0.00001   0.00137   0.00134   0.00271  -0.01091
   D36        3.12274   0.00003   0.00238   0.00220   0.00458   3.12732
   D37       -0.00266   0.00001   0.00125   0.00018   0.00143  -0.00123
   D38       -3.13872  -0.00005   0.00181  -0.00090   0.00091  -3.13781
   D39        3.13923  -0.00000   0.00109   0.00027   0.00137   3.14060
   D40        0.00317  -0.00007   0.00165  -0.00080   0.00085   0.00402
   D41       -0.04826   0.00009   0.00837   0.00579   0.01416  -0.03409
   D42       -3.11755  -0.00005  -0.00567  -0.00232  -0.00799  -3.12554
   D43        3.09848   0.00007   0.00738   0.00495   0.01233   3.11081
   D44        0.02919  -0.00007  -0.00666  -0.00316  -0.00982   0.01936
         Item               Value     Threshold  Converged?
 Maximum Force            0.000554     0.000450     NO 
 RMS     Force            0.000093     0.000300     YES
 Maximum Displacement     0.024415     0.001800     NO 
 RMS     Displacement     0.003642     0.001200     NO 
 Predicted change in Energy=-1.864594D-06
 GradGradGradGradGradGradGradGradGradGradGradGradGradGradGradGradGradGrad

                          Input orientation:                          
 ---------------------------------------------------------------------
 Center     Atomic      Atomic             Coordinates (Angstroms)
 Number     Number       Type             X           Y           Z
 ---------------------------------------------------------------------
      1          6           0       -2.227412   -1.809092    0.217472
      2          6           0       -1.163451   -0.755999    0.133506
      3          6           0       -1.523869    0.572615    0.032317
      4          7           0       -0.545636    1.570121   -0.046632
      5          6           0       -0.978844    2.944965   -0.149368
      6          6           0        0.761199    1.237045   -0.024445
      7          6           0        1.186784   -0.064994    0.074382
      8          6           0        2.649716   -0.283649    0.087906
      9          7           0        3.059246   -1.569753    0.198565
     10          8           0        3.465160    0.640622    0.000653
     11          6           0        0.195968   -1.113223    0.156611
     12          1           0       -2.129879   -2.386351    1.149380
     13          1           0       -2.133586   -2.523354   -0.614478
     14          1           0       -3.234076   -1.373530    0.185783
     15          1           0       -2.555855    0.915208    0.009250
     16          1           0       -0.106319    3.603195   -0.208670
     17          1           0       -1.595828    3.082270   -1.049686
     18          1           0       -1.579610    3.221008    0.729923
     19          1           0        1.479626    2.052795   -0.088925
     20          1           0        2.420848   -2.344898    0.297542
     21          1           0        4.049788   -1.764625    0.226069
     22          1           0        0.468728   -2.164476    0.240042
 ---------------------------------------------------------------------
                    Distance matrix (angstroms):
                    1          2          3          4          5
     1  C    0.000000
     2  C    1.499356   0.000000
     3  C    2.490338   1.380346   0.000000
     4  N    3.783808   2.413500   1.399354   0.000000
     5  C    4.928950   3.716347   2.440923   1.445136   0.000000
     6  C    4.274257   2.775148   2.380383   1.348796   2.441382
     7  C    3.836547   2.450426   2.784951   2.385273   3.714817
     8  C    5.111765   3.842582   4.260879   3.696598   4.862787
     9  N    5.292107   4.300883   5.061850   4.786868   6.067117
    10  O    6.201088   4.836552   4.989593   4.117364   5.008161
    11  C    2.522044   1.405760   2.411501   2.791348   4.235882
    12  H    1.100543   2.150356   3.220335   4.426505   5.606653
    13  H    1.100506   2.150393   3.221044   4.427254   5.608233
    14  H    1.097310   2.161380   2.595350   3.993346   4.883421
    15  H    2.751916   2.178798   1.087611   2.114950   2.575274
    16  H    5.828678   4.498576   3.354391   2.086299   1.094570
    17  H    5.092152   4.039703   2.733912   2.096572   1.100043
    18  H    5.097466   4.042955   2.739297   2.097037   1.100124
    19  H    5.361920   3.863244   3.350614   2.082414   2.616046
    20  H    4.679725   3.924119   4.913555   4.924009   6.303990
    21  H    6.277364   5.310721   6.046973   5.684437   6.899879
    22  H    2.719555   2.158510   3.391941   3.880507   5.324800
                    6          7          8          9         10
     6  C    0.000000
     7  C    1.373388   0.000000
     8  C    2.427268   1.479244   0.000000
     9  N    3.634401   2.405376   1.354261   0.000000
    10  O    2.769071   2.386279   1.235653   2.256034   0.000000
    11  C    2.424052   1.444736   2.591099   2.899749   3.713208
    12  H    4.781756   4.188624   5.328471   5.338342   6.464255
    13  H    4.782104   4.188427   5.328189   5.341901   6.460270
    14  H    4.777187   4.611798   5.984682   6.296393   6.997917
    15  H    3.332800   3.869416   5.342416   6.143308   6.027279
    16  H    2.526894   3.899724   4.774018   6.078325   4.645010
    17  H    3.164103   4.348762   5.536079   6.698445   5.716507
    18  H    3.159836   4.345167   5.530100   6.689747   5.713136
    19  H    1.088919   2.144168   2.619036   3.962411   2.438155
    20  H    3.960862   2.602053   2.084485   1.009059   3.176801
    21  H    4.459552   3.332949   2.042690   1.009904   2.485521
    22  H    3.424301   2.225056   2.883984   2.658233   4.111507
                   11         12         13         14         15
    11  C    0.000000
    12  H    2.831255   0.000000
    13  H    2.830171   1.769175   0.000000
    14  H    3.440030   1.781454   1.781457   0.000000
    15  H    3.421809   3.518756   3.520094   2.393632   0.000000
    16  H    4.740191   6.466356   6.465996   5.891201   3.643211
    17  H    4.718882   5.918354   5.648151   4.905548   2.595988
    18  H    4.718784   5.649886   5.925538   4.913566   2.605597
    19  H    3.425163   5.853883   5.854285   5.833880   4.193906
    20  H    2.546955   4.629952   4.648279   5.738833   5.956423
    21  H    3.909103   6.279119   6.286200   7.294467   7.131833
    22  H    1.089262   2.762043   2.762433   3.786726   4.322710
                   16         17         18         19         20
    16  H    0.000000
    17  H    1.788101   0.000000
    18  H    1.788186   1.785082   0.000000
    19  H    2.221104   3.382499   3.375523   0.000000
    20  H    6.482487   6.884974   6.868037   4.513863   0.000000
    21  H    6.802626   7.549366   7.536613   4.612771   1.730685
    22  H    5.813610   5.783955   5.782656   4.349197   1.961283
                   21         22
    21  H    0.000000
    22  H    3.603341   0.000000
 Stoichiometry    C8H11N2O(2)
 Framework group  C1[X(C8H11N2O)]
 Deg. of freedom    60
 Full point group                 C1      NOp   1
 Largest Abelian subgroup         C1      NOp   1
 Largest concise Abelian subgroup C1      NOp   1
                         Standard orientation:                         
 ---------------------------------------------------------------------
 Center     Atomic      Atomic             Coordinates (Angstroms)
 Number     Number       Type             X           Y           Z
 ---------------------------------------------------------------------
      1          6           0       -2.157743    2.467417    0.003843
      2          6           0       -1.350302    1.204046    0.002440
      3          6           0       -1.993141   -0.017473    0.000080
      4          7           0       -1.257165   -1.207652   -0.001760
      5          6           0       -1.981136   -2.458359   -0.006023
      6          6           0        0.091031   -1.167451   -0.000956
      7          6           0        0.791635    0.013796    0.001517
      8          6           0        2.267084   -0.092083    0.001612
      9          7           0        2.948721    1.078080   -0.008921
     10          8           0        2.860047   -1.176092    0.014184
     11          6           0        0.054485    1.256320    0.004093
     12          1           0       -1.922974    3.079420   -0.880199
     13          1           0       -1.922751    3.077691    0.888976
     14          1           0       -3.235502    2.261204    0.003751
     15          1           0       -3.075217   -0.127050   -0.001261
     16          1           0       -1.274063   -3.293883   -0.000606
     17          1           0       -2.626429   -2.526451    0.882264
     18          1           0       -2.614589   -2.527930   -0.902778
     19          1           0        0.613315   -2.122941   -0.002346
     20          1           0        2.496190    1.979242   -0.045298
     21          1           0        3.958217    1.053352   -0.023477
     22          1           0        0.551058    2.225807    0.002635
 ---------------------------------------------------------------------
 Rotational constants (GHZ):           1.5656007           0.8635840           0.5605164
 Basis read from rwf:  (5D, 7F)
 Pseudo-potential data read from rwf file.
 There are   333 symmetry adapted cartesian basis functions of A   symmetry.
 There are   311 symmetry adapted basis functions of A   symmetry.
   311 basis functions,   465 primitive gaussians,   333 cartesian basis functions
    41 alpha electrons       40 beta electrons
       nuclear repulsion energy       594.9725692338 Hartrees.
 NAtoms=   22 NActive=   22 NUniq=   22 SFac= 1.00D+00 NAtFMM=   60 NAOKFM=F Big=F
 Integral buffers will be    131072 words long.
 Raffenetti 2 integral format.
 Two-electron integral symmetry is turned on.
 Nuclear repulsion after empirical dispersion term =      594.9527315787 Hartrees.
 ------------------------------------------------------------------------------
 Polarizable Continuum Model (PCM)
 =================================
 Model                : PCM.
 Atomic radii         : SMD-Coulomb.
 Polarization charges : Total charges.
 Charge compensation  : None.
 Solution method      : On-the-fly selection.
 Cavity type          : VdW (van der Waals Surface) (Alpha=1.000).
 Cavity algorithm     : GePol (No added spheres)
                        Default sphere list used, NSphG=   22.
                        Lebedev-Laikov grids with approx.  5.0 points / Ang**2.
                        Smoothing algorithm: York/Karplus (Gamma=1.0000).
                        Polarization charges: spherical gaussians, with
                                              point-specific exponents (IZeta= 3).
                        Self-potential: point-specific (ISelfS= 7).
                        Self-field    : sphere-specific E.n sum rule (ISelfD= 2).
 1st derivatives      : Analytical E(r).r(x)/FMM algorithm (CHGder, D1EAlg=3).
                        Cavity 1st derivative terms included.
 Solvent              : DiMethylSulfoxide, Eps=  46.826000 Eps(inf)=   2.007889
 ------------------------------------------------------------------------------
 ------------------------------------------------------------------------------
 Atomic radii for non-electrostatic terms: SMD-CDS.
 ------------------------------------------------------------------------------
 Nuclear repulsion after PCM non-electrostatic terms =      594.9532047069 Hartrees.
 One-electron integrals computed using PRISM.
   1 Symmetry operations used in ECPInt.
 ECPInt:  NShTT=    8911 NPrTT=   24707 LenC2=    8777 LenP2D=   20107.
 LDataN:  DoStor=T MaxTD1= 4 Len=   56
 NBasis=   311 RedAO= T EigKep=  8.89D-06  NBF=   311
 NBsUse=   311 1.00D-06 EigRej= -1.00D+00 NBFU=   311
 Initial guess from the checkpoint file:  "/scratch/aplatt/job_46371443/Gau-3795827.chk"
 B after Tr=     0.000000   -0.000000    0.000000
         Rot=    1.000000    0.000003   -0.000020    0.000108 Ang=   0.01 deg.
 Initial guess <Sx>= 0.0000 <Sy>= 0.0000 <Sz>= 0.5000 <S**2>= 0.7682 S= 0.5090
 ExpMin= 6.71D-02 ExpMax= 2.27D+03 ExpMxC= 3.41D+02 IAcc=3 IRadAn=         5 AccDes= 0.00D+00
 Harris functional with IExCor= 1009 and IRadAn=       5 diagonalized for initial guess.
 HarFok:  IExCor= 1009 AccDes= 0.00D+00 IRadAn=         5 IDoV= 1 UseB2=F ITyADJ=14
 ICtDFT=  3500011 ScaDFX=  1.000000  1.000000  1.000000  1.000000
 FoFCou: FMM=F IPFlag=           0 FMFlag=      100000 FMFlg1=           0
         NFxFlg=           0 DoJE=T BraDBF=F KetDBF=T FulRan=T
         wScrn=  0.000000 ICntrl=       500 IOpCl=  0 I1Cent=   200000004 NGrid=           0
         NMat0=    1 NMatS0=      1 NMatT0=    0 NMatD0=    1 NMtDS0=    0 NMtDT0=    0
 Petite list used in FoFCou.
 Requested convergence on RMS density matrix=1.00D-08 within 128 cycles.
 Requested convergence on MAX density matrix=1.00D-06.
 Requested convergence on             energy=1.00D-06.
 No special actions if energy rises.
 Inv3:  Mode=1 IEnd=     9419952.
 Iteration    1 A*A^-1 deviation from unit magnitude is 3.11D-15 for    111.
 Iteration    1 A*A^-1 deviation from orthogonality  is 1.85D-15 for   1286    119.
 Iteration    1 A^-1*A deviation from unit magnitude is 3.33D-15 for   1633.
 Iteration    1 A^-1*A deviation from orthogonality  is 3.94D-14 for   1297   1248.
 Error on total polarization charges =  0.03897
 SCF Done:  E(UPBE1PBE) =  -495.324420578     A.U. after   13 cycles
            NFock= 13  Conv=0.93D-08     -V/T= 2.0109
 <Sx>= 0.0000 <Sy>= 0.0000 <Sz>= 0.5000 <S**2>= 0.7682 S= 0.5090
 <L.S>= 0.000000000000E+00
 SMD-CDS (non-electrostatic) energy       (kcal/mol) =       0.30
 (included in total energy above)
 Annihilation of the first spin contaminant:
 S**2 before annihilation     0.7682,   after     0.7501
   1 Symmetry operations used in ECPInt.
 ECPInt:  NShTT=    8911 NPrTT=   24707 LenC2=    8777 LenP2D=   20107.
 LDataN:  DoStor=T MaxTD1= 5 Len=  102
 D1PCM: PCM CHGder 1st derivatives, ID1Alg=3 FixD1E=F DoIter=F DoCFld=F I1PDM=0.
 Calling FoFJK, ICntrl=      2127 FMM=F ISym2X=0 I1Cent= 0 IOpClX= 1 NMat=1 NMatS=1 NMatT=0.
 ***** Axes restored to original set *****
 -------------------------------------------------------------------
 Center     Atomic                   Forces (Hartrees/Bohr)
 Number     Number              X              Y              Z
 -------------------------------------------------------------------
      1        6          -0.000013927   -0.000038505    0.000029817
      2        6          -0.000067405    0.000148599   -0.000052784
      3        6           0.000004748   -0.000150691    0.000056452
      4        7          -0.000096032    0.000191937   -0.000070216
      5        6           0.000066963   -0.000189850    0.000034904
      6        6           0.000097673   -0.000057734   -0.000034475
      7        6          -0.000091373    0.000018357   -0.000056680
      8        6           0.000084857   -0.000165499    0.000017727
      9        7          -0.000078159    0.000094757    0.000140354
     10        8           0.000008939    0.000024176   -0.000005822
     11        6           0.000108106   -0.000020967    0.000223188
     12        1          -0.000004033    0.000020855   -0.000016143
     13        1          -0.000005699    0.000019574    0.000001156
     14        1           0.000008039    0.000001498    0.000000877
     15        1           0.000010852    0.000029096   -0.000022376
     16        1          -0.000007459    0.000025569    0.000006937
     17        1           0.000012211    0.000042444   -0.000007428
     18        1           0.000001247    0.000029843   -0.000008782
     19        1          -0.000015900   -0.000002445    0.000000600
     20        1           0.000004363   -0.000036927   -0.000076725
     21        1           0.000009813    0.000005316   -0.000034485
     22        1          -0.000037822    0.000010595   -0.000126095
 -------------------------------------------------------------------
 Cartesian Forces:  Max     0.000223188 RMS     0.000071943

 GradGradGradGradGradGradGradGradGradGradGradGradGradGradGradGradGradGrad
 Berny optimization.
 Using GEDIIS/GDIIS optimizer.
 FormGI is forming the generalized inverse of G from B-inverse, IUseBI=4.
 Internal  Forces:  Max     0.000112020 RMS     0.000030534
 Search for a local minimum.
 Step number  11 out of a maximum of  112
 All quantities printed in internal units (Hartrees-Bohrs-Radians)
 Mixed Optimization -- En-DIIS/RFO-DIIS
 Swapping is turned off.
 Update second derivatives using D2CorX and points    3    4    5    6    7
                                                      8    9   10   11
 DE= -4.58D-06 DEPred=-1.86D-06 R= 2.46D+00
 TightC=F SS=  1.41D+00  RLast= 2.55D-02 DXNew= 1.4270D+00 7.6389D-02
 Trust test= 2.46D+00 RLast= 2.55D-02 DXMaxT set to 8.49D-01
 ITU=  1  1  1  1  1  1  0  0  1  1  0
     Eigenvalues ---    0.00142   0.00625   0.00939   0.01132   0.01643
     Eigenvalues ---    0.01704   0.01945   0.02025   0.02216   0.02303
     Eigenvalues ---    0.02371   0.02431   0.02504   0.02572   0.05425
     Eigenvalues ---    0.07228   0.07423   0.07587   0.07623   0.15011
     Eigenvalues ---    0.15435   0.16000   0.16000   0.16000   0.16002
     Eigenvalues ---    0.16004   0.16016   0.16076   0.16370   0.17045
     Eigenvalues ---    0.20108   0.23146   0.23563   0.24904   0.25022
     Eigenvalues ---    0.25072   0.25890   0.28481   0.33782   0.34720
     Eigenvalues ---    0.34768   0.34933   0.35053   0.35123   0.35396
     Eigenvalues ---    0.35757   0.35898   0.36238   0.37546   0.38885
     Eigenvalues ---    0.41720   0.44373   0.45517   0.46432   0.46957
     Eigenvalues ---    0.48619   0.54238   0.56035   0.60299   0.97731
 En-DIIS/RFO-DIIS/Sim-DIIS IScMMF=       -3 using points:    11   10    9    8    7    6    5    4    3
 RFO step:  Lambda=-4.34132526D-06.
 DIIS inversion failure, remove point   9.
 DIIS inversion failure, remove point   8.
 DIIS inversion failure, remove point   7.
 DIIS inversion failure, remove point   6.
 DIIS inversion failure, remove point   5.
 RFO-DIIS uses    4 points instead of    9
 DidBck=T Rises=F RFO-DIIS coefs:    0.13428    1.55335   -2.00000    1.31238    0.00000
                  RFO-DIIS coefs:    0.00000    0.00000    0.00000    0.00000
 Iteration  1 RMS(Cart)=  0.00515203 RMS(Int)=  0.00004917
 Iteration  2 RMS(Cart)=  0.00003741 RMS(Int)=  0.00003358
 Iteration  3 RMS(Cart)=  0.00000000 RMS(Int)=  0.00003358
 Variable       Old X    -DE/DX   Delta X   Delta X   Delta X     New X
                                 (Linear)    (Quad)   (Total)
    R1        2.83337   0.00001  -0.00000   0.00005   0.00005   2.83342
    R2        2.07972  -0.00002  -0.00004   0.00004  -0.00000   2.07972
    R3        2.07966  -0.00001   0.00004  -0.00004  -0.00000   2.07965
    R4        2.07361  -0.00001   0.00000  -0.00000  -0.00000   2.07361
    R5        2.60848  -0.00009   0.00000  -0.00062  -0.00062   2.60786
    R6        2.65650   0.00005   0.00001   0.00053   0.00054   2.65704
    R7        2.64440   0.00004  -0.00002   0.00027   0.00025   2.64465
    R8        2.05529  -0.00000  -0.00000   0.00005   0.00005   2.05534
    R9        2.73091  -0.00011  -0.00004  -0.00052  -0.00057   2.73035
   R10        2.54885   0.00007  -0.00012   0.00097   0.00085   2.54970
   R11        2.06844   0.00000   0.00001   0.00003   0.00005   2.06849
   R12        2.07878   0.00001  -0.00001   0.00012   0.00011   2.07889
   R13        2.07893   0.00000   0.00005  -0.00001   0.00004   2.07897
   R14        2.59533  -0.00001   0.00001  -0.00040  -0.00039   2.59493
   R15        2.05776  -0.00001   0.00003  -0.00008  -0.00005   2.05771
   R16        2.79537   0.00005  -0.00015   0.00062   0.00048   2.79584
   R17        2.73016  -0.00004  -0.00014   0.00005  -0.00010   2.73006
   R18        2.55918  -0.00010   0.00017  -0.00058  -0.00041   2.55877
   R19        2.33505   0.00003  -0.00007   0.00007   0.00000   2.33505
   R20        1.90684   0.00001   0.00008  -0.00010  -0.00002   1.90683
   R21        1.90844   0.00001   0.00009  -0.00011  -0.00002   1.90842
   R22        2.05841  -0.00003   0.00000  -0.00012  -0.00012   2.05829
    A1        1.93150  -0.00001  -0.00002  -0.00005  -0.00007   1.93144
    A2        1.93159  -0.00001  -0.00009   0.00010   0.00001   1.93161
    A3        1.95043   0.00001  -0.00001   0.00010   0.00009   1.95053
    A4        1.86727   0.00001   0.00005  -0.00006  -0.00001   1.86726
    A5        1.89015   0.00000   0.00013  -0.00020  -0.00007   1.89008
    A6        1.89021   0.00000  -0.00006   0.00010   0.00004   1.89024
    A7        2.08847   0.00003   0.00008   0.00016   0.00025   2.08872
    A8        2.10229  -0.00005  -0.00005  -0.00038  -0.00043   2.10186
    A9        2.09243   0.00003  -0.00003   0.00022   0.00018   2.09260
   A10        2.10334   0.00000  -0.00005   0.00034   0.00029   2.10363
   A11        2.15616   0.00002   0.00002   0.00011   0.00013   2.15628
   A12        2.02369  -0.00003   0.00003  -0.00045  -0.00042   2.02328
   A13        2.06305   0.00003  -0.00005   0.00039   0.00034   2.06340
   A14        2.09481  -0.00003   0.00008  -0.00053  -0.00045   2.09435
   A15        2.12533   0.00000  -0.00005   0.00015   0.00011   2.12544
   A16        1.91453   0.00003   0.00009   0.00010   0.00018   1.91471
   A17        1.92310   0.00004   0.00002   0.00052   0.00053   1.92364
   A18        1.92367   0.00003   0.00005   0.00020   0.00025   1.92392
   A19        1.90465  -0.00004  -0.00007  -0.00030  -0.00036   1.90429
   A20        1.90468  -0.00003  -0.00004  -0.00037  -0.00041   1.90427
   A21        1.89288  -0.00003  -0.00005  -0.00016  -0.00021   1.89267
   A22        2.13594   0.00001  -0.00004   0.00001  -0.00003   2.13591
   A23        2.04122  -0.00002   0.00014  -0.00071  -0.00056   2.04067
   A24        2.10602   0.00001  -0.00010   0.00069   0.00059   2.10661
   A25        2.03449   0.00000  -0.00011   0.00008  -0.00001   2.03448
   A26        2.07081   0.00000   0.00001   0.00040   0.00041   2.07121
   A27        2.17789  -0.00000   0.00008  -0.00048  -0.00039   2.17750
   A28        2.02661   0.00004   0.00008  -0.00003   0.00006   2.02666
   A29        2.14295  -0.00004  -0.00018  -0.00002  -0.00020   2.14275
   A30        2.11363  -0.00000   0.00009   0.00005   0.00014   2.11377
   A31        2.14864   0.00005  -0.00043   0.00047   0.00023   2.14887
   A32        2.07382  -0.00004  -0.00079   0.00089   0.00029   2.07411
   A33        2.05967  -0.00000  -0.00059   0.00063   0.00023   2.05990
   A34        2.06905  -0.00001   0.00004  -0.00044  -0.00039   2.06866
   A35        2.08135  -0.00002  -0.00013   0.00019   0.00009   2.08144
   A36        2.13277   0.00003   0.00002   0.00024   0.00030   2.13307
    D1       -2.10708  -0.00000  -0.00125   0.00151   0.00026  -2.10682
    D2        1.03499  -0.00000  -0.00066   0.00059  -0.00007   1.03493
    D3        2.10915  -0.00000  -0.00124   0.00155   0.00031   2.10945
    D4       -1.03197  -0.00000  -0.00065   0.00063  -0.00002  -1.03199
    D5        0.00097  -0.00000  -0.00110   0.00128   0.00019   0.00116
    D6       -3.14014  -0.00000  -0.00051   0.00037  -0.00014  -3.14029
    D7        3.14118   0.00001   0.00125  -0.00155  -0.00030   3.14087
    D8        0.00045  -0.00001   0.00025  -0.00061  -0.00035   0.00010
    D9       -0.00089   0.00001   0.00066  -0.00064   0.00002  -0.00087
   D10        3.14156  -0.00000  -0.00033   0.00031  -0.00003   3.14154
   D11       -3.14070  -0.00001  -0.00028  -0.00038  -0.00067  -3.14137
   D12       -0.00397   0.00005   0.00447  -0.00302   0.00145  -0.00253
   D13        0.00137  -0.00001   0.00031  -0.00130  -0.00100   0.00038
   D14        3.13810   0.00005   0.00506  -0.00394   0.00112   3.13922
   D15       -3.14016   0.00001   0.00158  -0.00160  -0.00002  -3.14018
   D16        0.00024  -0.00001  -0.00125   0.00208   0.00084   0.00107
   D17        0.00063   0.00002   0.00250  -0.00248   0.00002   0.00065
   D18        3.14103   0.00001  -0.00033   0.00121   0.00088  -3.14127
   D19       -3.13537  -0.00002   0.00110  -0.00370  -0.00260  -3.13797
   D20       -1.03818  -0.00002   0.00108  -0.00368  -0.00260  -1.04077
   D21        1.05023  -0.00001   0.00106  -0.00342  -0.00236   1.04787
   D22        0.00744  -0.00000   0.00398  -0.00745  -0.00347   0.00397
   D23        2.10463  -0.00000   0.00397  -0.00744  -0.00347   2.10116
   D24       -2.09015   0.00000   0.00394  -0.00718  -0.00324  -2.09338
   D25       -0.00011   0.00000   0.00084  -0.00151  -0.00067  -0.00078
   D26        3.14146   0.00001   0.00093  -0.00133  -0.00040   3.14107
   D27        3.14025  -0.00001  -0.00210   0.00231   0.00021   3.14046
   D28       -0.00137  -0.00001  -0.00200   0.00249   0.00049  -0.00088
   D29       -3.14120   0.00001   0.00180  -0.00170   0.00010  -3.14110
   D30        0.00061  -0.00000   0.00014  -0.00046  -0.00032   0.00029
   D31        0.00041   0.00000   0.00170  -0.00188  -0.00019   0.00023
   D32       -3.14096  -0.00001   0.00004  -0.00065  -0.00061  -3.14157
   D33        3.13092   0.00001  -0.00956   0.01579   0.00623   3.13715
   D34       -0.01404   0.00001  -0.01136   0.01925   0.00789  -0.00616
   D35       -0.01091   0.00002  -0.00780   0.01447   0.00667  -0.00423
   D36        3.12732   0.00002  -0.00960   0.01793   0.00833   3.13565
   D37       -0.00123   0.00000  -0.00071   0.00186   0.00115  -0.00008
   D38       -3.13781  -0.00006  -0.00561   0.00458  -0.00103  -3.13884
   D39        3.14060  -0.00001  -0.00251   0.00321   0.00069   3.14129
   D40        0.00402  -0.00007  -0.00741   0.00593  -0.00148   0.00254
   D41       -0.03409   0.00006  -0.01690   0.03249   0.01559  -0.01850
   D42       -3.12554  -0.00003   0.00748  -0.01508  -0.00760  -3.13314
   D43        3.11081   0.00007  -0.01513   0.02909   0.01396   3.12477
   D44        0.01936  -0.00003   0.00925  -0.01848  -0.00923   0.01014
         Item               Value     Threshold  Converged?
 Maximum Force            0.000112     0.000450     YES
 RMS     Force            0.000031     0.000300     YES
 Maximum Displacement     0.036222     0.001800     NO 
 RMS     Displacement     0.005152     0.001200     NO 
 Predicted change in Energy=-1.889538D-06
 GradGradGradGradGradGradGradGradGradGradGradGradGradGradGradGradGradGrad

                          Input orientation:                          
 ---------------------------------------------------------------------
 Center     Atomic      Atomic             Coordinates (Angstroms)
 Number     Number       Type             X           Y           Z
 ---------------------------------------------------------------------
      1          6           0       -2.227202   -1.809050    0.219223
      2          6           0       -1.163510   -0.755653    0.135213
      3          6           0       -1.523873    0.572481    0.032015
      4          7           0       -0.545859    1.570410   -0.046653
      5          6           0       -0.978939    2.944813   -0.151591
      6          6           0        0.761368    1.237143   -0.023117
      7          6           0        1.186667   -0.064627    0.077568
      8          6           0        2.649817   -0.283441    0.092543
      9          7           0        3.059123   -1.569867    0.197479
     10          8           0        3.465263    0.641529    0.013019
     11          6           0        0.196133   -1.112974    0.160772
     12          1           0       -2.130641   -2.384930    1.152084
     13          1           0       -2.131973   -2.524469   -0.611572
     14          1           0       -3.234026   -1.374003    0.185660
     15          1           0       -2.555853    0.915040    0.006989
     16          1           0       -0.106465    3.603434   -0.207692
     17          1           0       -1.592489    3.082194   -1.054312
     18          1           0       -1.583101    3.221350    0.725243
     19          1           0        1.479434    2.053158   -0.087822
     20          1           0        2.420401   -2.346828    0.278374
     21          1           0        4.049618   -1.765668    0.219043
     22          1           0        0.468807   -2.164141    0.244732
 ---------------------------------------------------------------------
                    Distance matrix (angstroms):
                    1          2          3          4          5
     1  C    0.000000
     2  C    1.499381   0.000000
     3  C    2.490262   1.380019   0.000000
     4  N    3.783961   2.413533   1.399487   0.000000
     5  C    4.928983   3.716150   2.441029   1.444836   0.000000
     6  C    4.274293   2.775151   2.380577   1.349245   2.441579
     7  C    3.836350   2.450341   2.784782   2.385461   3.714713
     8  C    5.111638   3.842690   4.260980   3.697091   4.863033
     9  N    5.291778   4.300866   5.061707   4.787152   6.067134
    10  O    6.200969   4.836588   4.989650   4.117702   5.008307
    11  C    2.522002   1.406044   2.411588   2.791796   4.236035
    12  H    1.100542   2.150328   3.220093   4.426423   5.606438
    13  H    1.100505   2.150422   3.221038   4.427519   5.608396
    14  H    1.097309   2.161467   2.595579   3.993718   4.883782
    15  H    2.752040   2.178595   1.087637   2.114820   2.575224
    16  H    5.828787   4.498508   3.354576   2.086189   1.094596
    17  H    5.094018   4.040800   2.735594   2.096736   1.100101
    18  H    5.096650   4.042369   2.738718   2.096973   1.100146
    19  H    5.361911   3.863201   3.350615   2.082439   2.615858
    20  H    4.678987   3.923869   4.913284   4.924337   6.304113
    21  H    6.276971   5.310731   6.046960   5.684929   6.900172
    22  H    2.719414   2.158771   3.391921   3.880893   5.324890
                    6          7          8          9         10
     6  C    0.000000
     7  C    1.373180   0.000000
     8  C    2.427301   1.479497   0.000000
     9  N    3.634232   2.405455   1.354044   0.000000
    10  O    2.768954   2.386383   1.235656   2.255936   0.000000
    11  C    2.424120   1.444683   2.591012   2.899449   3.713128
    12  H    4.781656   4.188427   5.328383   5.339405   6.463054
    13  H    4.781990   4.187971   5.327616   5.339784   6.460859
    14  H    4.777537   4.611798   5.984781   6.296207   6.998046
    15  H    3.332958   3.869261   5.342534   6.143207   6.027327
    16  H    2.527159   3.899774   4.774414   6.078499   4.645302
    17  H    3.163577   4.348257   5.535334   6.696725   5.716370
    18  H    3.161274   4.346118   5.531859   6.692124   5.713905
    19  H    1.088892   2.144314   2.619546   3.962716   2.438520
    20  H    3.960826   2.602089   2.084402   1.009048   3.176858
    21  H    4.459608   3.333173   2.042656   1.009894   2.485661
    22  H    3.424336   2.225135   2.883921   2.658031   4.111474
                   11         12         13         14         15
    11  C    0.000000
    12  H    2.830981   0.000000
    13  H    2.830001   1.769168   0.000000
    14  H    3.440167   1.781406   1.781480   0.000000
    15  H    3.421975   3.518786   3.520300   2.394069   0.000000
    16  H    4.740447   6.465816   6.466606   5.891625   3.643219
    17  H    4.719643   5.920070   5.649931   4.908143   2.598265
    18  H    4.719180   5.649103   5.924758   4.912634   2.604073
    19  H    3.425355   5.853772   5.854165   5.834119   4.193786
    20  H    2.546291   4.634308   4.641947   5.738252   5.956219
    21  H    3.908805   6.280897   6.283134   7.294244   7.131859
    22  H    1.089199   2.762095   2.761729   3.786659   4.322783
                   16         17         18         19         20
    16  H    0.000000
    17  H    1.787938   0.000000
    18  H    1.787962   1.785012   0.000000
    19  H    2.220991   3.380788   3.377109   0.000000
    20  H    6.482818   6.881396   6.872578   4.514355   0.000000
    21  H    6.803116   7.546957   7.540166   4.613398   1.730785
    22  H    5.813824   5.784504   5.783142   4.349434   1.960414
                   21         22
    21  H    0.000000
    22  H    3.603006   0.000000
 Stoichiometry    C8H11N2O(2)
 Framework group  C1[X(C8H11N2O)]
 Deg. of freedom    60
 Full point group                 C1      NOp   1
 Largest Abelian subgroup         C1      NOp   1
 Largest concise Abelian subgroup C1      NOp   1
                         Standard orientation:                         
 ---------------------------------------------------------------------
 Center     Atomic      Atomic             Coordinates (Angstroms)
 Number     Number       Type             X           Y           Z
 ---------------------------------------------------------------------
      1          6           0       -2.157173    2.467780    0.001668
      2          6           0       -1.350240    1.204054    0.001208
      3          6           0       -1.993124   -0.017073    0.000566
      4          7           0       -1.257617   -1.207700   -0.000738
      5          6           0       -1.981575   -2.458072   -0.003158
      6          6           0        0.091029   -1.167486   -0.000122
      7          6           0        0.791489    0.013606    0.000858
      8          6           0        2.267193   -0.092265    0.000796
      9          7           0        2.948767    1.077723   -0.003640
     10          8           0        2.859961   -1.176442    0.006315
     11          6           0        0.054831    1.256363    0.001611
     12          1           0       -1.922798    3.078530   -0.883343
     13          1           0       -1.921210    3.079091    0.885824
     14          1           0       -3.235035    2.262112    0.002603
     15          1           0       -3.075231   -0.126616    0.000279
     16          1           0       -1.274710   -3.293819   -0.000204
     17          1           0       -2.624338   -2.526917    0.886976
     18          1           0       -2.617733   -2.527646   -0.898023
     19          1           0        0.612764   -2.123247   -0.000685
     20          1           0        2.496193    1.979390   -0.022402
     21          1           0        3.958336    1.053305   -0.011337
     22          1           0        0.551448    2.225755   -0.000138
 ---------------------------------------------------------------------
 Rotational constants (GHZ):           1.5655354           0.8635896           0.5605023
 Basis read from rwf:  (5D, 7F)
 Pseudo-potential data read from rwf file.
 There are   333 symmetry adapted cartesian basis functions of A   symmetry.
 There are   311 symmetry adapted basis functions of A   symmetry.
   311 basis functions,   465 primitive gaussians,   333 cartesian basis functions
    41 alpha electrons       40 beta electrons
       nuclear repulsion energy       594.9669615593 Hartrees.
 NAtoms=   22 NActive=   22 NUniq=   22 SFac= 1.00D+00 NAtFMM=   60 NAOKFM=F Big=F
 Integral buffers will be    131072 words long.
 Raffenetti 2 integral format.
 Two-electron integral symmetry is turned on.
 Nuclear repulsion after empirical dispersion term =      594.9471240761 Hartrees.
 ------------------------------------------------------------------------------
 Polarizable Continuum Model (PCM)
 =================================
 Model                : PCM.
 Atomic radii         : SMD-Coulomb.
 Polarization charges : Total charges.
 Charge compensation  : None.
 Solution method      : On-the-fly selection.
 Cavity type          : VdW (van der Waals Surface) (Alpha=1.000).
 Cavity algorithm     : GePol (No added spheres)
                        Default sphere list used, NSphG=   22.
                        Lebedev-Laikov grids with approx.  5.0 points / Ang**2.
                        Smoothing algorithm: York/Karplus (Gamma=1.0000).
                        Polarization charges: spherical gaussians, with
                                              point-specific exponents (IZeta= 3).
                        Self-potential: point-specific (ISelfS= 7).
                        Self-field    : sphere-specific E.n sum rule (ISelfD= 2).
 1st derivatives      : Analytical E(r).r(x)/FMM algorithm (CHGder, D1EAlg=3).
                        Cavity 1st derivative terms included.
 Solvent              : DiMethylSulfoxide, Eps=  46.826000 Eps(inf)=   2.007889
 ------------------------------------------------------------------------------
 ------------------------------------------------------------------------------
 Atomic radii for non-electrostatic terms: SMD-CDS.
 ------------------------------------------------------------------------------
 Nuclear repulsion after PCM non-electrostatic terms =      594.9475964764 Hartrees.
 One-electron integrals computed using PRISM.
   1 Symmetry operations used in ECPInt.
 ECPInt:  NShTT=    8911 NPrTT=   24707 LenC2=    8777 LenP2D=   20106.
 LDataN:  DoStor=T MaxTD1= 4 Len=   56
 NBasis=   311 RedAO= T EigKep=  8.88D-06  NBF=   311
 NBsUse=   311 1.00D-06 EigRej= -1.00D+00 NBFU=   311
 Initial guess from the checkpoint file:  "/scratch/aplatt/job_46371443/Gau-3795827.chk"
 B after Tr=     0.000000    0.000000    0.000000
         Rot=    1.000000    0.000007   -0.000018    0.000070 Ang=   0.01 deg.
 Initial guess <Sx>= 0.0000 <Sy>= 0.0000 <Sz>= 0.5000 <S**2>= 0.7682 S= 0.5090
 ExpMin= 6.71D-02 ExpMax= 2.27D+03 ExpMxC= 3.41D+02 IAcc=3 IRadAn=         5 AccDes= 0.00D+00
 Harris functional with IExCor= 1009 and IRadAn=       5 diagonalized for initial guess.
 HarFok:  IExCor= 1009 AccDes= 0.00D+00 IRadAn=         5 IDoV= 1 UseB2=F ITyADJ=14
 ICtDFT=  3500011 ScaDFX=  1.000000  1.000000  1.000000  1.000000
 FoFCou: FMM=F IPFlag=           0 FMFlag=      100000 FMFlg1=           0
         NFxFlg=           0 DoJE=T BraDBF=F KetDBF=T FulRan=T
         wScrn=  0.000000 ICntrl=       500 IOpCl=  0 I1Cent=   200000004 NGrid=           0
         NMat0=    1 NMatS0=      1 NMatT0=    0 NMatD0=    1 NMtDS0=    0 NMtDT0=    0
 Petite list used in FoFCou.
 Requested convergence on RMS density matrix=1.00D-08 within 128 cycles.
 Requested convergence on MAX density matrix=1.00D-06.
 Requested convergence on             energy=1.00D-06.
 No special actions if energy rises.
 Inv3:  Mode=1 IEnd=     9409323.
 Iteration    1 A*A^-1 deviation from unit magnitude is 3.33D-15 for   1263.
 Iteration    1 A*A^-1 deviation from orthogonality  is 1.85D-15 for   1329    118.
 Iteration    1 A^-1*A deviation from unit magnitude is 3.11D-15 for    228.
 Iteration    1 A^-1*A deviation from orthogonality  is 7.20D-14 for   1295   1246.
 Error on total polarization charges =  0.03897
 SCF Done:  E(UPBE1PBE) =  -495.324422867     A.U. after   13 cycles
            NFock= 13  Conv=0.60D-08     -V/T= 2.0109
 <Sx>= 0.0000 <Sy>= 0.0000 <Sz>= 0.5000 <S**2>= 0.7682 S= 0.5090
 <L.S>= 0.000000000000E+00
 SMD-CDS (non-electrostatic) energy       (kcal/mol) =       0.30
 (included in total energy above)
 Annihilation of the first spin contaminant:
 S**2 before annihilation     0.7682,   after     0.7501
   1 Symmetry operations used in ECPInt.
 ECPInt:  NShTT=    8911 NPrTT=   24707 LenC2=    8777 LenP2D=   20106.
 LDataN:  DoStor=T MaxTD1= 5 Len=  102
 D1PCM: PCM CHGder 1st derivatives, ID1Alg=3 FixD1E=F DoIter=F DoCFld=F I1PDM=0.
 Calling FoFJK, ICntrl=      2127 FMM=F ISym2X=0 I1Cent= 0 IOpClX= 1 NMat=1 NMatS=1 NMatT=0.
 ***** Axes restored to original set *****
 -------------------------------------------------------------------
 Center     Atomic                   Forces (Hartrees/Bohr)
 Number     Number              X              Y              Z
 -------------------------------------------------------------------
      1        6          -0.000025376   -0.000015546    0.000027942
      2        6           0.000053716   -0.000113373   -0.000018494
      3        6          -0.000010676    0.000149866    0.000034409
      4        7           0.000143746   -0.000153369   -0.000055317
      5        6           0.000014423    0.000007619    0.000007493
      6        6          -0.000230024    0.000177514   -0.000002805
      7        6           0.000039011   -0.000164341    0.000002037
      8        6           0.000037510    0.000001609    0.000011951
      9        7          -0.000073238    0.000007705    0.000082748
     10        8          -0.000006351   -0.000015871   -0.000021607
     11        6          -0.000011148    0.000143265    0.000096403
     12        1          -0.000001924    0.000018483   -0.000015212
     13        1          -0.000005067    0.000019312   -0.000001543
     14        1           0.000007820    0.000007077   -0.000003749
     15        1           0.000007870   -0.000002879   -0.000008234
     16        1           0.000001551    0.000001048    0.000003737
     17        1           0.000013013    0.000009354    0.000001227
     18        1           0.000006482   -0.000001052   -0.000008890
     19        1           0.000033636   -0.000031249    0.000002352
     20        1           0.000004692   -0.000035704   -0.000050521
     21        1           0.000013878    0.000007770   -0.000011601
     22        1          -0.000013544   -0.000017237   -0.000072326
 -------------------------------------------------------------------
 Cartesian Forces:  Max     0.000230024 RMS     0.000062796

 GradGradGradGradGradGradGradGradGradGradGradGradGradGradGradGradGradGrad
 Berny optimization.
 Using GEDIIS/GDIIS optimizer.
 FormGI is forming the generalized inverse of G from B-inverse, IUseBI=4.
 Internal  Forces:  Max     0.000163084 RMS     0.000027492
 Search for a local minimum.
 Step number  12 out of a maximum of  112
 All quantities printed in internal units (Hartrees-Bohrs-Radians)
 Mixed Optimization -- En-DIIS/RFO-DIIS
 Swapping is turned off.
 Update second derivatives using D2CorX and points    3    4    5    6    7
                                                      8    9   10   11   12
 DE= -2.29D-06 DEPred=-1.89D-06 R= 1.21D+00
 TightC=F SS=  1.41D+00  RLast= 2.95D-02 DXNew= 1.4270D+00 8.8390D-02
 Trust test= 1.21D+00 RLast= 2.95D-02 DXMaxT set to 8.49D-01
 ITU=  1  1  1  1  1  1  1  0  0  1  1  0
     Eigenvalues ---    0.00140   0.00556   0.00926   0.01090   0.01249
     Eigenvalues ---    0.01707   0.01824   0.01965   0.02217   0.02302
     Eigenvalues ---    0.02370   0.02414   0.02444   0.02531   0.05409
     Eigenvalues ---    0.07229   0.07423   0.07591   0.07620   0.14921
     Eigenvalues ---    0.15875   0.16000   0.16000   0.16001   0.16003
     Eigenvalues ---    0.16007   0.16036   0.16079   0.16370   0.16968
     Eigenvalues ---    0.20198   0.23544   0.24221   0.24897   0.24957
     Eigenvalues ---    0.25063   0.25956   0.28547   0.33790   0.34721
     Eigenvalues ---    0.34767   0.34930   0.35036   0.35123   0.35373
     Eigenvalues ---    0.35761   0.35914   0.36240   0.38309   0.38970
     Eigenvalues ---    0.41587   0.44632   0.45531   0.46459   0.47412
     Eigenvalues ---    0.50513   0.54265   0.57608   0.63474   0.98122
 En-DIIS/RFO-DIIS/Sim-DIIS IScMMF=       -3 using points:    12   11   10    9    8    7    6    5    4    3
 RFO step:  Lambda=-1.41304367D-06.
 DIIS inversion failure, remove point  10.
 DIIS inversion failure, remove point   9.
 DIIS inversion failure, remove point   8.
 DIIS inversion failure, remove point   7.
 DIIS inversion failure, remove point   6.
 DIIS inversion failure, remove point   5.
 RFO-DIIS uses    4 points instead of   10
 DidBck=F Rises=F RFO-DIIS coefs:    1.78265   -0.89920    0.25992   -0.14337    0.00000
                  RFO-DIIS coefs:    0.00000    0.00000    0.00000    0.00000    0.00000
 Iteration  1 RMS(Cart)=  0.00496811 RMS(Int)=  0.00003965
 Iteration  2 RMS(Cart)=  0.00003176 RMS(Int)=  0.00002622
 Iteration  3 RMS(Cart)=  0.00000000 RMS(Int)=  0.00002622
 Variable       Old X    -DE/DX   Delta X   Delta X   Delta X     New X
                                 (Linear)    (Quad)   (Total)
    R1        2.83342  -0.00000   0.00003   0.00000   0.00003   2.83345
    R2        2.07972  -0.00002   0.00001  -0.00004  -0.00003   2.07969
    R3        2.07965  -0.00001   0.00000  -0.00002  -0.00002   2.07964
    R4        2.07361  -0.00001   0.00000  -0.00002  -0.00002   2.07360
    R5        2.60786   0.00007  -0.00037   0.00034  -0.00003   2.60782
    R6        2.65704  -0.00005   0.00031  -0.00028   0.00004   2.65707
    R7        2.64465  -0.00005   0.00016  -0.00012   0.00005   2.64469
    R8        2.05534  -0.00001   0.00003  -0.00004  -0.00001   2.05533
    R9        2.73035   0.00000  -0.00034   0.00020  -0.00014   2.73021
   R10        2.54970  -0.00016   0.00052  -0.00053  -0.00000   2.54970
   R11        2.06849  -0.00001   0.00003  -0.00003   0.00001   2.06849
   R12        2.07889  -0.00000   0.00008  -0.00004   0.00004   2.07893
   R13        2.07897  -0.00001   0.00002  -0.00004  -0.00002   2.07895
   R14        2.59493   0.00009  -0.00025   0.00027   0.00002   2.59495
   R15        2.05771  -0.00000  -0.00003   0.00002  -0.00001   2.05770
   R16        2.79584  -0.00001   0.00028  -0.00024   0.00004   2.79588
   R17        2.73006  -0.00007  -0.00003  -0.00004  -0.00008   2.72998
   R18        2.55877  -0.00002  -0.00028   0.00011  -0.00017   2.55860
   R19        2.33505  -0.00001   0.00001   0.00003   0.00005   2.33510
   R20        1.90683   0.00001  -0.00002   0.00000  -0.00001   1.90681
   R21        1.90842   0.00001  -0.00003   0.00002  -0.00001   1.90841
   R22        2.05829   0.00001  -0.00008   0.00008   0.00000   2.05829
    A1        1.93144  -0.00001  -0.00005   0.00001  -0.00004   1.93140
    A2        1.93161  -0.00001   0.00003  -0.00006  -0.00003   1.93157
    A3        1.95053  -0.00000   0.00005  -0.00004   0.00001   1.95054
    A4        1.86726   0.00001  -0.00001   0.00005   0.00005   1.86731
    A5        1.89008   0.00001  -0.00006   0.00005  -0.00000   1.89008
    A6        1.89024   0.00000   0.00003  -0.00002   0.00001   1.89026
    A7        2.08872   0.00001   0.00014  -0.00008   0.00006   2.08878
    A8        2.10186   0.00001  -0.00025   0.00019  -0.00006   2.10179
    A9        2.09260  -0.00002   0.00011  -0.00011   0.00000   2.09261
   A10        2.10363  -0.00002   0.00017  -0.00019  -0.00002   2.10361
   A11        2.15628   0.00000   0.00008   0.00001   0.00008   2.15636
   A12        2.02328   0.00002  -0.00025   0.00019  -0.00006   2.02321
   A13        2.06340  -0.00002   0.00021  -0.00019   0.00001   2.06341
   A14        2.09435   0.00004  -0.00028   0.00027  -0.00000   2.09435
   A15        2.12544  -0.00002   0.00007  -0.00008  -0.00001   2.12543
   A16        1.91471   0.00001   0.00011  -0.00003   0.00008   1.91479
   A17        1.92364   0.00001   0.00034  -0.00014   0.00019   1.92383
   A18        1.92392  -0.00001   0.00012  -0.00017  -0.00005   1.92387
   A19        1.90429  -0.00000  -0.00021   0.00013  -0.00008   1.90421
   A20        1.90427  -0.00000  -0.00024   0.00016  -0.00009   1.90419
   A21        1.89267  -0.00000  -0.00012   0.00006  -0.00006   1.89261
   A22        2.13591   0.00000  -0.00001   0.00002   0.00001   2.13592
   A23        2.04067   0.00004  -0.00035   0.00036   0.00001   2.04068
   A24        2.10661  -0.00004   0.00036  -0.00038  -0.00002   2.10659
   A25        2.03448   0.00000  -0.00004   0.00006   0.00002   2.03450
   A26        2.07121  -0.00003   0.00024  -0.00025  -0.00001   2.07120
   A27        2.17750   0.00003  -0.00020   0.00019  -0.00001   2.17748
   A28        2.02666   0.00000   0.00008  -0.00004   0.00004   2.02671
   A29        2.14275  -0.00000  -0.00016   0.00014  -0.00002   2.14273
   A30        2.11377   0.00000   0.00007  -0.00010  -0.00003   2.11374
   A31        2.14887   0.00005   0.00026   0.00021   0.00031   2.14918
   A32        2.07411  -0.00004   0.00026  -0.00020  -0.00009   2.07402
   A33        2.05990  -0.00000   0.00021   0.00000   0.00006   2.05996
   A34        2.06866   0.00003  -0.00023   0.00026   0.00002   2.06869
   A35        2.08144  -0.00003   0.00002  -0.00011  -0.00009   2.08136
   A36        2.13307  -0.00001   0.00021  -0.00015   0.00007   2.13314
    D1       -2.10682  -0.00000   0.00035  -0.00017   0.00018  -2.10664
    D2        1.03493  -0.00000   0.00012  -0.00005   0.00008   1.03500
    D3        2.10945  -0.00000   0.00038  -0.00021   0.00017   2.10962
    D4       -1.03199  -0.00000   0.00015  -0.00009   0.00006  -1.03193
    D5        0.00116   0.00000   0.00028  -0.00012   0.00016   0.00132
    D6       -3.14029   0.00000   0.00005   0.00001   0.00006  -3.14023
    D7        3.14087   0.00001  -0.00038   0.00036  -0.00003   3.14085
    D8        0.00010  -0.00000  -0.00026  -0.00007  -0.00032  -0.00023
    D9       -0.00087   0.00001  -0.00015   0.00023   0.00008  -0.00079
   D10        3.14154  -0.00000  -0.00003  -0.00019  -0.00022   3.14132
   D11       -3.14137  -0.00000  -0.00040   0.00021  -0.00019  -3.14156
   D12       -0.00253   0.00003   0.00005   0.00032   0.00036  -0.00216
   D13        0.00038  -0.00000  -0.00063   0.00033  -0.00030   0.00008
   D14        3.13922   0.00003  -0.00019   0.00044   0.00026   3.13948
   D15       -3.14018  -0.00000  -0.00032  -0.00043  -0.00075  -3.14093
   D16        0.00107  -0.00002   0.00072  -0.00077  -0.00005   0.00102
   D17        0.00065   0.00001  -0.00044  -0.00004  -0.00048   0.00018
   D18       -3.14127  -0.00000   0.00060  -0.00038   0.00022  -3.14105
   D19       -3.13797  -0.00001  -0.00192  -0.00026  -0.00217  -3.14014
   D20       -1.04077  -0.00001  -0.00189  -0.00020  -0.00210  -1.04287
   D21        1.04787  -0.00001  -0.00176  -0.00033  -0.00208   1.04578
   D22        0.00397   0.00000  -0.00297   0.00009  -0.00288   0.00109
   D23        2.10116   0.00000  -0.00295   0.00015  -0.00281   2.09836
   D24       -2.09338  -0.00000  -0.00282   0.00002  -0.00279  -2.09618
   D25       -0.00078   0.00001  -0.00046   0.00073   0.00027  -0.00051
   D26        3.14107   0.00001  -0.00043   0.00033  -0.00010   3.14096
   D27        3.14046   0.00000   0.00061   0.00038   0.00099   3.14145
   D28       -0.00088  -0.00000   0.00064  -0.00003   0.00062  -0.00026
   D29       -3.14110  -0.00001  -0.00035  -0.00069  -0.00104   3.14105
   D30        0.00029  -0.00000  -0.00034  -0.00016  -0.00049  -0.00020
   D31        0.00023   0.00000  -0.00038  -0.00027  -0.00065  -0.00042
   D32       -3.14157   0.00000  -0.00037   0.00026  -0.00011   3.14151
   D33        3.13715   0.00001   0.00624   0.00011   0.00636  -3.13968
   D34       -0.00616  -0.00000   0.00757  -0.00002   0.00754   0.00139
   D35       -0.00423   0.00000   0.00623  -0.00046   0.00578   0.00154
   D36        3.13565  -0.00000   0.00756  -0.00059   0.00697  -3.14057
   D37       -0.00008  -0.00000   0.00088  -0.00038   0.00050   0.00042
   D38       -3.13884  -0.00004   0.00042  -0.00049  -0.00007  -3.13891
   D39        3.14129  -0.00000   0.00089   0.00020   0.00109  -3.14080
   D40        0.00254  -0.00003   0.00043   0.00009   0.00052   0.00305
   D41       -0.01850   0.00004   0.01325   0.00055   0.01379  -0.00471
   D42       -3.13314  -0.00001  -0.00629   0.00037  -0.00592  -3.13906
   D43        3.12477   0.00005   0.01195   0.00068   0.01263   3.13739
   D44        0.01014  -0.00001  -0.00759   0.00051  -0.00709   0.00305
         Item               Value     Threshold  Converged?
 Maximum Force            0.000163     0.000450     YES
 RMS     Force            0.000027     0.000300     YES
 Maximum Displacement     0.034679     0.001800     NO 
 RMS     Displacement     0.004968     0.001200     NO 
 Predicted change in Energy=-7.008500D-07
 GradGradGradGradGradGradGradGradGradGradGradGradGradGradGradGradGradGrad

                          Input orientation:                          
 ---------------------------------------------------------------------
 Center     Atomic      Atomic             Coordinates (Angstroms)
 Number     Number       Type             X           Y           Z
 ---------------------------------------------------------------------
      1          6           0       -2.227180   -1.808972    0.220788
      2          6           0       -1.163549   -0.755473    0.136984
      3          6           0       -1.523921    0.572508    0.032102
      4          7           0       -0.545880    1.570461   -0.046368
      5          6           0       -0.978911    2.944589   -0.154067
      6          6           0        0.761342    1.237327   -0.020916
      7          6           0        1.186639   -0.064339    0.081257
      8          6           0        2.649803   -0.283145    0.096901
      9          7           0        3.059091   -1.569974    0.195595
     10          8           0        3.465290    0.642405    0.024464
     11          6           0        0.196116   -1.112631    0.164575
     12          1           0       -2.131678   -2.383791    1.154394
     13          1           0       -2.130757   -2.525244   -0.609120
     14          1           0       -3.234033   -1.374151    0.185495
     15          1           0       -2.555874    0.914997    0.005265
     16          1           0       -0.106460    3.603473   -0.207423
     17          1           0       -1.589184    3.081251   -1.059141
     18          1           0       -1.586365    3.221655    0.720305
     19          1           0        1.479425    2.053317   -0.085655
     20          1           0        2.420465   -2.348542    0.260023
     21          1           0        4.049616   -1.766086    0.212129
     22          1           0        0.468703   -2.163736    0.249614
 ---------------------------------------------------------------------
                    Distance matrix (angstroms):
                    1          2          3          4          5
     1  C    0.000000
     2  C    1.499398   0.000000
     3  C    2.490305   1.380001   0.000000
     4  N    3.784007   2.413525   1.399512   0.000000
     5  C    4.928999   3.716082   2.440997   1.444764   0.000000
     6  C    4.274298   2.775138   2.380594   1.349243   2.441506
     7  C    3.836323   2.450338   2.784803   2.385473   3.714651
     8  C    5.111601   3.842701   4.261023   3.697130   4.863005
     9  N    5.291731   4.300876   5.061715   4.787139   6.067042
    10  O    6.200969   4.836618   4.989707   4.117741   5.008278
    11  C    2.521987   1.406063   2.411591   2.791781   4.235949
    12  H    1.100527   2.150306   3.220033   4.426364   5.606477
    13  H    1.100496   2.150407   3.221099   4.427564   5.608288
    14  H    1.097300   2.161485   2.595667   3.993829   4.883891
    15  H    2.752180   2.178621   1.087633   2.114799   2.575159
    16  H    5.828841   4.498496   3.354597   2.086185   1.094598
    17  H    5.095050   4.041328   2.736579   2.096826   1.100122
    18  H    5.095819   4.041855   2.737792   2.096864   1.100133
    19  H    5.361912   3.863183   3.350635   2.082440   2.615810
    20  H    4.679026   3.924050   4.913519   4.924598   6.304322
    21  H    6.276949   5.310751   6.046962   5.684888   6.900046
    22  H    2.719278   2.158735   3.391886   3.880878   5.324804
                    6          7          8          9         10
     6  C    0.000000
     7  C    1.373191   0.000000
     8  C    2.427344   1.479517   0.000000
     9  N    3.634208   2.405429   1.353952   0.000000
    10  O    2.768994   2.386413   1.235682   2.255860   0.000000
    11  C    2.424086   1.444643   2.590985   2.899439   3.713123
    12  H    4.781571   4.188401   5.328561   5.340943   6.462248
    13  H    4.781962   4.187814   5.327215   5.338036   6.461514
    14  H    4.777598   4.611812   5.984786   6.296178   6.998097
    15  H    3.332942   3.869273   5.342566   6.143219   6.027362
    16  H    2.527155   3.899781   4.774453   6.078461   4.645331
    17  H    3.162742   4.347464   5.533950   6.694380   5.715758
    18  H    3.162072   4.346918   5.533297   6.694423   5.714539
    19  H    1.088886   2.144307   2.619573   3.962661   2.438536
    20  H    3.961070   2.602282   2.084484   1.009040   3.176935
    21  H    4.459545   3.333123   2.042515   1.009888   2.485454
    22  H    3.424333   2.225139   2.883946   2.658116   4.111527
                   11         12         13         14         15
    11  C    0.000000
    12  H    2.830939   0.000000
    13  H    2.829914   1.769178   0.000000
    14  H    3.440168   1.781383   1.781473   0.000000
    15  H    3.422003   3.518870   3.520433   2.394281   0.000000
    16  H    4.740420   6.465554   6.466863   5.891760   3.643181
    17  H    4.719473   5.921210   5.650540   4.909710   2.600020
    18  H    4.719335   5.648613   5.923730   4.911442   2.602288
    19  H    3.425307   5.853692   5.854114   5.834188   4.193766
    20  H    2.546432   4.639304   4.636837   5.738322   5.956471
    21  H    3.908801   6.283137   6.280746   7.294235   7.131865
    22  H    1.089200   2.762070   2.761395   3.786530   4.322773
                   16         17         18         19         20
    16  H    0.000000
    17  H    1.787907   0.000000
    18  H    1.787899   1.784979   0.000000
    19  H    2.221001   3.379451   3.378411   0.000000
    20  H    6.483082   6.877510   6.877038   4.514578   0.000000
    21  H    6.803025   7.543797   7.543215   4.613284   1.730804
    22  H    5.813811   5.784257   5.783364   4.349426   1.960520
                   21         22
    21  H    0.000000
    22  H    3.603120   0.000000
 Stoichiometry    C8H11N2O(2)
 Framework group  C1[X(C8H11N2O)]
 Deg. of freedom    60
 Full point group                 C1      NOp   1
 Largest Abelian subgroup         C1      NOp   1
 Largest concise Abelian subgroup C1      NOp   1
                         Standard orientation:                         
 ---------------------------------------------------------------------
 Center     Atomic      Atomic             Coordinates (Angstroms)
 Number     Number       Type             X           Y           Z
 ---------------------------------------------------------------------
      1          6           0       -2.157122    2.467828   -0.000242
      2          6           0       -1.350273    1.204029   -0.000038
      3          6           0       -1.993165   -0.017073    0.000799
      4          7           0       -1.257638   -1.207717    0.000103
      5          6           0       -1.981536   -2.458042    0.000191
      6          6           0        0.091005   -1.167491   -0.000205
      7          6           0        0.791469    0.013611   -0.000454
      8          6           0        2.267195   -0.092225   -0.000060
      9          7           0        2.948746    1.077677    0.002011
     10          8           0        2.859985   -1.176434   -0.000973
     11          6           0        0.054817    1.256325   -0.000638
     12          1           0       -1.923336    3.077642   -0.886036
     13          1           0       -1.920450    3.079968    0.883138
     14          1           0       -3.234993    2.262258    0.001677
     15          1           0       -3.075259   -0.126688    0.001539
     16          1           0       -1.274712   -3.293832    0.001096
     17          1           0       -2.621648   -2.526888    0.892260
     18          1           0       -2.620396   -2.527793   -0.892718
     19          1           0        0.612758   -2.123235   -0.000136
     20          1           0        2.496364    1.979623   -0.000742
     21          1           0        3.958334    1.053164    0.000110
     22          1           0        0.551358    2.225756   -0.003308
 ---------------------------------------------------------------------
 Rotational constants (GHZ):           1.5655431           0.8635933           0.5605028
 Basis read from rwf:  (5D, 7F)
 Pseudo-potential data read from rwf file.
 There are   333 symmetry adapted cartesian basis functions of A   symmetry.
 There are   311 symmetry adapted basis functions of A   symmetry.
   311 basis functions,   465 primitive gaussians,   333 cartesian basis functions
    41 alpha electrons       40 beta electrons
       nuclear repulsion energy       594.9688620937 Hartrees.
 NAtoms=   22 NActive=   22 NUniq=   22 SFac= 1.00D+00 NAtFMM=   60 NAOKFM=F Big=F
 Integral buffers will be    131072 words long.
 Raffenetti 2 integral format.
 Two-electron integral symmetry is turned on.
 Nuclear repulsion after empirical dispersion term =      594.9490246315 Hartrees.
 ------------------------------------------------------------------------------
 Polarizable Continuum Model (PCM)
 =================================
 Model                : PCM.
 Atomic radii         : SMD-Coulomb.
 Polarization charges : Total charges.
 Charge compensation  : None.
 Solution method      : On-the-fly selection.
 Cavity type          : VdW (van der Waals Surface) (Alpha=1.000).
 Cavity algorithm     : GePol (No added spheres)
                        Default sphere list used, NSphG=   22.
                        Lebedev-Laikov grids with approx.  5.0 points / Ang**2.
                        Smoothing algorithm: York/Karplus (Gamma=1.0000).
                        Polarization charges: spherical gaussians, with
                                              point-specific exponents (IZeta= 3).
                        Self-potential: point-specific (ISelfS= 7).
                        Self-field    : sphere-specific E.n sum rule (ISelfD= 2).
 1st derivatives      : Analytical E(r).r(x)/FMM algorithm (CHGder, D1EAlg=3).
                        Cavity 1st derivative terms included.
 Solvent              : DiMethylSulfoxide, Eps=  46.826000 Eps(inf)=   2.007889
 ------------------------------------------------------------------------------
 ------------------------------------------------------------------------------
 Atomic radii for non-electrostatic terms: SMD-CDS.
 ------------------------------------------------------------------------------
 Nuclear repulsion after PCM non-electrostatic terms =      594.9494967088 Hartrees.
 One-electron integrals computed using PRISM.
   1 Symmetry operations used in ECPInt.
 ECPInt:  NShTT=    8911 NPrTT=   24707 LenC2=    8777 LenP2D=   20106.
 LDataN:  DoStor=T MaxTD1= 4 Len=   56
 NBasis=   311 RedAO= T EigKep=  8.88D-06  NBF=   311
 NBsUse=   311 1.00D-06 EigRej= -1.00D+00 NBFU=   311
 Initial guess from the checkpoint file:  "/scratch/aplatt/job_46371443/Gau-3795827.chk"
 B after Tr=    -0.000000    0.000000    0.000000
         Rot=    1.000000    0.000009   -0.000018    0.000001 Ang=   0.00 deg.
 Initial guess <Sx>= 0.0000 <Sy>= 0.0000 <Sz>= 0.5000 <S**2>= 0.7682 S= 0.5090
 ExpMin= 6.71D-02 ExpMax= 2.27D+03 ExpMxC= 3.41D+02 IAcc=3 IRadAn=         5 AccDes= 0.00D+00
 Harris functional with IExCor= 1009 and IRadAn=       5 diagonalized for initial guess.
 HarFok:  IExCor= 1009 AccDes= 0.00D+00 IRadAn=         5 IDoV= 1 UseB2=F ITyADJ=14
 ICtDFT=  3500011 ScaDFX=  1.000000  1.000000  1.000000  1.000000
 FoFCou: FMM=F IPFlag=           0 FMFlag=      100000 FMFlg1=           0
         NFxFlg=           0 DoJE=T BraDBF=F KetDBF=T FulRan=T
         wScrn=  0.000000 ICntrl=       500 IOpCl=  0 I1Cent=   200000004 NGrid=           0
         NMat0=    1 NMatS0=      1 NMatT0=    0 NMatD0=    1 NMtDS0=    0 NMtDT0=    0
 Petite list used in FoFCou.
 Requested convergence on RMS density matrix=1.00D-08 within 128 cycles.
 Requested convergence on MAX density matrix=1.00D-06.
 Requested convergence on             energy=1.00D-06.
 No special actions if energy rises.
 Inv3:  Mode=1 IEnd=     9398700.
 Iteration    1 A*A^-1 deviation from unit magnitude is 3.77D-15 for   1084.
 Iteration    1 A*A^-1 deviation from orthogonality  is 1.95D-15 for   1417    599.
 Iteration    1 A^-1*A deviation from unit magnitude is 3.55D-15 for   1264.
 Iteration    1 A^-1*A deviation from orthogonality  is 2.60D-14 for   1336   1245.
 Error on total polarization charges =  0.03897
 SCF Done:  E(UPBE1PBE) =  -495.324423713     A.U. after   11 cycles
            NFock= 11  Conv=0.96D-08     -V/T= 2.0109
 <Sx>= 0.0000 <Sy>= 0.0000 <Sz>= 0.5000 <S**2>= 0.7682 S= 0.5090
 <L.S>= 0.000000000000E+00
 SMD-CDS (non-electrostatic) energy       (kcal/mol) =       0.30
 (included in total energy above)
 Annihilation of the first spin contaminant:
 S**2 before annihilation     0.7682,   after     0.7501
   1 Symmetry operations used in ECPInt.
 ECPInt:  NShTT=    8911 NPrTT=   24707 LenC2=    8777 LenP2D=   20106.
 LDataN:  DoStor=T MaxTD1= 5 Len=  102
 D1PCM: PCM CHGder 1st derivatives, ID1Alg=3 FixD1E=F DoIter=F DoCFld=F I1PDM=0.
 Calling FoFJK, ICntrl=      2127 FMM=F ISym2X=0 I1Cent= 0 IOpClX= 1 NMat=1 NMatS=1 NMatT=0.
 ***** Axes restored to original set *****
 -------------------------------------------------------------------
 Center     Atomic                   Forces (Hartrees/Bohr)
 Number     Number              X              Y              Z
 -------------------------------------------------------------------
      1        6          -0.000016713    0.000004001    0.000022529
      2        6           0.000056267   -0.000128801   -0.000021276
      3        6          -0.000000553    0.000166708    0.000019049
      4        7           0.000145899   -0.000189517   -0.000027427
      5        6          -0.000004472    0.000062156    0.000003248
      6        6          -0.000214692    0.000160245   -0.000013112
      7        6           0.000050762   -0.000143081    0.000007988
      8        6           0.000016991    0.000071607    0.000006863
      9        7          -0.000037859   -0.000043270    0.000041820
     10        8          -0.000024138   -0.000029113   -0.000013277
     11        6          -0.000036608    0.000122917    0.000051320
     12        1          -0.000002838    0.000010915   -0.000008845
     13        1          -0.000004768    0.000013409   -0.000003722
     14        1           0.000002926    0.000010597   -0.000002856
     15        1           0.000002387   -0.000007575    0.000001358
     16        1           0.000006328   -0.000006595    0.000000990
     17        1           0.000012114   -0.000002033    0.000002728
     18        1           0.000006643   -0.000001952   -0.000005091
     19        1           0.000035025   -0.000027214    0.000004497
     20        1          -0.000007341   -0.000027117   -0.000018921
     21        1           0.000017021   -0.000002550   -0.000005722
     22        1          -0.000002380   -0.000013741   -0.000042142
 -------------------------------------------------------------------
 Cartesian Forces:  Max     0.000214692 RMS     0.000060758

 GradGradGradGradGradGradGradGradGradGradGradGradGradGradGradGradGradGrad
 Berny optimization.
 Using GEDIIS/GDIIS optimizer.
 FormGI is forming the generalized inverse of G from B-inverse, IUseBI=4.
 Internal  Forces:  Max     0.000154616 RMS     0.000025438
 Search for a local minimum.
 Step number  13 out of a maximum of  112
 All quantities printed in internal units (Hartrees-Bohrs-Radians)
 Mixed Optimization -- En-DIIS/RFO-DIIS
 Swapping is turned off.
 Update second derivatives using D2CorX and points    3    4    5    6    7
                                                      8    9   10   11   12
                                                     13
 DE= -8.46D-07 DEPred=-7.01D-07 R= 1.21D+00
 Trust test= 1.21D+00 RLast= 2.57D-02 DXMaxT set to 8.49D-01
 ITU=  0  1  1  1  1  1  1  1  0  0  1  1  0
     Eigenvalues ---    0.00130   0.00546   0.00881   0.01015   0.01168
     Eigenvalues ---    0.01707   0.01794   0.01961   0.02217   0.02311
     Eigenvalues ---    0.02370   0.02382   0.02442   0.02523   0.05404
     Eigenvalues ---    0.07229   0.07423   0.07592   0.07620   0.14934
     Eigenvalues ---    0.15986   0.16000   0.16000   0.16002   0.16003
     Eigenvalues ---    0.16010   0.16072   0.16124   0.16342   0.16400
     Eigenvalues ---    0.20330   0.23514   0.23807   0.24836   0.24979
     Eigenvalues ---    0.25079   0.26020   0.28482   0.33808   0.34721
     Eigenvalues ---    0.34776   0.34928   0.35032   0.35118   0.35366
     Eigenvalues ---    0.35760   0.35913   0.36241   0.38345   0.39261
     Eigenvalues ---    0.41712   0.44753   0.45603   0.46490   0.47230
     Eigenvalues ---    0.49552   0.54262   0.57429   0.58557   0.98425
 En-DIIS/RFO-DIIS/Sim-DIIS IScMMF=       -3 using points:    13   12   11   10    9    8    7    6    5    4
 RFO step:  Lambda=-3.84961203D-07.
 DIIS inversion failure, remove point  10.
 DIIS inversion failure, remove point   9.
 DIIS inversion failure, remove point   8.
 DIIS inversion failure, remove point   7.
 DIIS inversion failure, remove point   6.
 DIIS inversion failure, remove point   5.
 RFO-DIIS uses    4 points instead of   10
 DidBck=T Rises=F RFO-DIIS coefs:    0.77785    0.68904   -0.51074    0.04385    0.00000
                  RFO-DIIS coefs:    0.00000    0.00000    0.00000    0.00000    0.00000
 Iteration  1 RMS(Cart)=  0.00110081 RMS(Int)=  0.00001249
 Iteration  2 RMS(Cart)=  0.00000198 RMS(Int)=  0.00001233
 Iteration  3 RMS(Cart)=  0.00000000 RMS(Int)=  0.00001233
 Variable       Old X    -DE/DX   Delta X   Delta X   Delta X     New X
                                 (Linear)    (Quad)   (Total)
    R1        2.83345  -0.00001   0.00001  -0.00001   0.00000   2.83345
    R2        2.07969  -0.00001   0.00000  -0.00003  -0.00003   2.07966
    R3        2.07964  -0.00000   0.00000  -0.00001  -0.00001   2.07962
    R4        2.07360  -0.00001   0.00000  -0.00002  -0.00002   2.07358
    R5        2.60782   0.00007  -0.00024   0.00029   0.00006   2.60788
    R6        2.65707  -0.00006   0.00020  -0.00025  -0.00005   2.65702
    R7        2.64469  -0.00006   0.00009  -0.00012  -0.00003   2.64467
    R8        2.05533  -0.00000   0.00002  -0.00003  -0.00001   2.05532
    R9        2.73021   0.00004  -0.00021   0.00019  -0.00002   2.73019
   R10        2.54970  -0.00015   0.00033  -0.00047  -0.00014   2.54956
   R11        2.06849  -0.00001   0.00002  -0.00003  -0.00001   2.06848
   R12        2.07893  -0.00001   0.00004  -0.00003   0.00000   2.07893
   R13        2.07895  -0.00000   0.00002  -0.00003  -0.00001   2.07894
   R14        2.59495   0.00008  -0.00016   0.00025   0.00009   2.59504
   R15        2.05770   0.00000  -0.00002   0.00001  -0.00000   2.05769
   R16        2.79588  -0.00002   0.00018  -0.00021  -0.00003   2.79585
   R17        2.72998  -0.00006  -0.00003  -0.00006  -0.00009   2.72989
   R18        2.55860   0.00004  -0.00013   0.00012  -0.00001   2.55858
   R19        2.33510  -0.00003  -0.00001   0.00001   0.00001   2.33511
   R20        1.90681   0.00002  -0.00000   0.00002   0.00002   1.90683
   R21        1.90841   0.00002  -0.00000   0.00003   0.00003   1.90844
   R22        2.05829   0.00001  -0.00005   0.00006   0.00001   2.05829
    A1        1.93140  -0.00000  -0.00003   0.00001  -0.00001   1.93139
    A2        1.93157  -0.00001   0.00001  -0.00006  -0.00006   1.93152
    A3        1.95054  -0.00000   0.00003  -0.00004  -0.00001   1.95053
    A4        1.86731   0.00001  -0.00001   0.00005   0.00004   1.86735
    A5        1.89008   0.00001  -0.00002   0.00006   0.00003   1.89011
    A6        1.89026   0.00000   0.00001  -0.00001   0.00000   1.89026
    A7        2.08878   0.00000   0.00009  -0.00006   0.00003   2.08881
    A8        2.10179   0.00002  -0.00016   0.00016  -0.00000   2.10179
    A9        2.09261  -0.00003   0.00007  -0.00010  -0.00003   2.09258
   A10        2.10361  -0.00002   0.00011  -0.00017  -0.00006   2.10355
   A11        2.15636  -0.00000   0.00004  -0.00002   0.00003   2.15639
   A12        2.02321   0.00002  -0.00015   0.00019   0.00003   2.02325
   A13        2.06341  -0.00003   0.00013  -0.00017  -0.00004   2.06337
   A14        2.09435   0.00004  -0.00017   0.00025   0.00007   2.09442
   A15        2.12543  -0.00002   0.00004  -0.00008  -0.00003   2.12539
   A16        1.91479  -0.00000   0.00007  -0.00002   0.00004   1.91483
   A17        1.92383  -0.00001   0.00018  -0.00013   0.00005   1.92388
   A18        1.92387  -0.00000   0.00012  -0.00012   0.00000   1.92387
   A19        1.90421   0.00000  -0.00014   0.00010  -0.00004   1.90418
   A20        1.90419   0.00001  -0.00016   0.00013  -0.00003   1.90416
   A21        1.89261   0.00000  -0.00008   0.00005  -0.00003   1.89257
   A22        2.13592   0.00000  -0.00001   0.00001  -0.00000   2.13591
   A23        2.04068   0.00004  -0.00022   0.00035   0.00013   2.04081
   A24        2.10659  -0.00004   0.00023  -0.00035  -0.00012   2.10647
   A25        2.03450   0.00000  -0.00001   0.00004   0.00003   2.03453
   A26        2.07120  -0.00002   0.00015  -0.00021  -0.00006   2.07114
   A27        2.17748   0.00002  -0.00015   0.00018   0.00003   2.17751
   A28        2.02671  -0.00001   0.00003  -0.00004  -0.00001   2.02669
   A29        2.14273  -0.00000  -0.00009   0.00007  -0.00002   2.14271
   A30        2.11374   0.00001   0.00006  -0.00003   0.00003   2.11378
   A31        2.14918   0.00002   0.00006   0.00020   0.00018   2.14937
   A32        2.07402  -0.00002   0.00010  -0.00020  -0.00017   2.07385
   A33        2.05996   0.00000   0.00007   0.00001   0.00001   2.05997
   A34        2.06869   0.00003  -0.00015   0.00023   0.00008   2.06876
   A35        2.08136  -0.00001   0.00004  -0.00010  -0.00006   2.08129
   A36        2.13314  -0.00001   0.00012  -0.00013  -0.00001   2.13313
    D1       -2.10664  -0.00000   0.00006  -0.00014  -0.00008  -2.10671
    D2        1.03500  -0.00000  -0.00006  -0.00018  -0.00024   1.03476
    D3        2.10962  -0.00000   0.00008  -0.00017  -0.00009   2.10953
    D4       -1.03193  -0.00001  -0.00004  -0.00021  -0.00025  -1.03218
    D5        0.00132   0.00000   0.00004  -0.00009  -0.00005   0.00127
    D6       -3.14023  -0.00000  -0.00009  -0.00012  -0.00021  -3.14044
    D7        3.14085   0.00001  -0.00010   0.00033   0.00023   3.14107
    D8       -0.00023  -0.00000  -0.00010  -0.00007  -0.00016  -0.00039
    D9       -0.00079   0.00001   0.00002   0.00037   0.00039  -0.00040
   D10        3.14132   0.00000   0.00003  -0.00003   0.00000   3.14132
   D11       -3.14156   0.00000  -0.00023   0.00018  -0.00005   3.14157
   D12       -0.00216   0.00002   0.00061   0.00046   0.00107  -0.00109
   D13        0.00008  -0.00000  -0.00036   0.00014  -0.00022  -0.00014
   D14        3.13948   0.00002   0.00049   0.00042   0.00091   3.14038
   D15       -3.14093  -0.00001   0.00015  -0.00036  -0.00021  -3.14114
   D16        0.00102  -0.00001   0.00031  -0.00070  -0.00039   0.00063
   D17        0.00018   0.00000   0.00015   0.00000   0.00015   0.00033
   D18       -3.14105  -0.00000   0.00031  -0.00034  -0.00003  -3.14108
   D19       -3.14014  -0.00000  -0.00066  -0.00025  -0.00091  -3.14105
   D20       -1.04287  -0.00000  -0.00068  -0.00022  -0.00089  -1.04376
   D21        1.04578  -0.00001  -0.00058  -0.00032  -0.00090   1.04488
   D22        0.00109   0.00000  -0.00083   0.00010  -0.00073   0.00036
   D23        2.09836   0.00000  -0.00084   0.00013  -0.00071   2.09764
   D24       -2.09618  -0.00000  -0.00075   0.00003  -0.00072  -2.09690
   D25       -0.00051   0.00000  -0.00031   0.00052   0.00021  -0.00030
   D26        3.14096   0.00001  -0.00011   0.00034   0.00023   3.14119
   D27        3.14145  -0.00000  -0.00014   0.00017   0.00003   3.14148
   D28       -0.00026  -0.00000   0.00005  -0.00001   0.00004  -0.00021
   D29        3.14105   0.00000   0.00028  -0.00035  -0.00007   3.14098
   D30       -0.00020   0.00000  -0.00003  -0.00001  -0.00004  -0.00025
   D31       -0.00042  -0.00000   0.00008  -0.00016  -0.00008  -0.00050
   D32        3.14151   0.00000  -0.00023   0.00017  -0.00006   3.14145
   D33       -3.13968  -0.00000   0.00138  -0.00018   0.00120  -3.13848
   D34        0.00139  -0.00001   0.00181  -0.00025   0.00156   0.00294
   D35        0.00154  -0.00000   0.00171  -0.00053   0.00118   0.00272
   D36       -3.14057  -0.00001   0.00214  -0.00061   0.00153  -3.13904
   D37        0.00042  -0.00000   0.00036  -0.00032   0.00004   0.00046
   D38       -3.13891  -0.00002  -0.00050  -0.00061  -0.00112  -3.14003
   D39       -3.14080  -0.00000   0.00002   0.00005   0.00007  -3.14073
   D40        0.00305  -0.00002  -0.00084  -0.00025  -0.00109   0.00196
   D41       -0.00471   0.00001   0.00359   0.00042   0.00402  -0.00069
   D42       -3.13906  -0.00001  -0.00188   0.00024  -0.00164  -3.14070
   D43        3.13739   0.00002   0.00317   0.00050   0.00367   3.14107
   D44        0.00305  -0.00000  -0.00230   0.00032  -0.00199   0.00106
         Item               Value     Threshold  Converged?
 Maximum Force            0.000155     0.000450     YES
 RMS     Force            0.000025     0.000300     YES
 Maximum Displacement     0.008009     0.001800     NO 
 RMS     Displacement     0.001101     0.001200     YES
 Predicted change in Energy=-1.770185D-07
 GradGradGradGradGradGradGradGradGradGradGradGradGradGradGradGradGradGrad

                          Input orientation:                          
 ---------------------------------------------------------------------
 Center     Atomic      Atomic             Coordinates (Angstroms)
 Number     Number       Type             X           Y           Z
 ---------------------------------------------------------------------
      1          6           0       -2.227153   -1.808965    0.221236
      2          6           0       -1.163562   -0.755427    0.137415
      3          6           0       -1.523950    0.572561    0.032295
      4          7           0       -0.545868    1.570432   -0.046461
      5          6           0       -0.978882    2.944516   -0.154666
      6          6           0        0.761289    1.237379   -0.020610
      7          6           0        1.186625   -0.064289    0.082017
      8          6           0        2.649769   -0.283085    0.097984
      9          7           0        3.059024   -1.569994    0.195662
     10          8           0        3.465252    0.642588    0.027038
     11          6           0        0.196092   -1.112496    0.165427
     12          1           0       -2.131683   -2.383681    1.154889
     13          1           0       -2.130596   -2.525264   -0.608625
     14          1           0       -3.234011   -1.374191    0.185801
     15          1           0       -2.555890    0.915043    0.005128
     16          1           0       -0.106455    3.603484   -0.207268
     17          1           0       -1.588347    3.081121   -1.060296
     18          1           0       -1.587156    3.221613    0.719120
     19          1           0        1.479457    2.053289   -0.085372
     20          1           0        2.420505   -2.349007    0.255785
     21          1           0        4.049592   -1.766062    0.210913
     22          1           0        0.468648   -2.163667    0.249789
 ---------------------------------------------------------------------
                    Distance matrix (angstroms):
                    1          2          3          4          5
     1  C    0.000000
     2  C    1.499398   0.000000
     3  C    2.490353   1.380030   0.000000
     4  N    3.784007   2.413499   1.399498   0.000000
     5  C    4.929002   3.716045   2.440947   1.444754   0.000000
     6  C    4.274282   2.775121   2.380567   1.349167   2.441410
     7  C    3.836295   2.450330   2.784828   2.385446   3.714612
     8  C    5.111543   3.842675   4.261029   3.697091   4.862956
     9  N    5.291638   4.300830   5.061707   4.787081   6.066977
    10  O    6.200911   4.836584   4.989696   4.117690   5.008214
    11  C    2.521963   1.406037   2.411573   2.791685   4.235843
    12  H    1.100510   2.150284   3.220082   4.426405   5.606564
    13  H    1.100489   2.150361   3.221074   4.427428   5.608120
    14  H    1.097291   2.161474   2.595711   3.993853   4.883928
    15  H    2.752270   2.178658   1.087627   2.114802   2.575121
    16  H    5.828857   4.498487   3.354575   2.086203   1.094594
    17  H    5.095423   4.041541   2.736928   2.096856   1.100124
    18  H    5.095508   4.041616   2.737371   2.096853   1.100128
    19  H    5.361900   3.863168   3.350650   2.082452   2.615820
    20  H    4.679056   3.924161   4.913678   4.924705   6.304418
    21  H    6.276901   5.310721   6.046936   5.684777   6.899909
    22  H    2.719186   2.158674   3.391857   3.880786   5.324702
                    6          7          8          9         10
     6  C    0.000000
     7  C    1.373238   0.000000
     8  C    2.427392   1.479499   0.000000
     9  N    3.634240   2.405398   1.353944   0.000000
    10  O    2.769018   2.386386   1.235685   2.255876   0.000000
    11  C    2.424041   1.444594   2.590946   2.899413   3.713069
    12  H    4.781544   4.188293   5.328398   5.340940   6.461891
    13  H    4.781866   4.187760   5.327152   5.337749   6.461646
    14  H    4.777586   4.611793   5.984738   6.296088   6.998051
    15  H    3.332903   3.869292   5.342567   6.143205   6.027343
    16  H    2.527107   3.899782   4.774449   6.078444   4.645308
    17  H    3.162455   4.347293   5.533635   6.693904   5.715557
    18  H    3.162211   4.347058   5.533556   6.694810   5.714645
    19  H    1.088884   2.144273   2.619522   3.962599   2.438461
    20  H    3.961257   2.602420   2.084585   1.009050   3.177021
    21  H    4.459507   3.333051   2.042420   1.009902   2.485329
    22  H    3.424305   2.225090   2.883907   2.658086   4.111486
                   11         12         13         14         15
    11  C    0.000000
    12  H    2.830809   0.000000
    13  H    2.829937   1.769189   0.000000
    14  H    3.440131   1.781384   1.781462   0.000000
    15  H    3.421990   3.519017   3.520409   2.394385   0.000000
    16  H    4.740349   6.465537   6.466821   5.891804   3.643153
    17  H    4.719433   5.921682   5.650628   4.910272   2.600608
    18  H    4.719221   5.648515   5.923244   4.911005   2.601633
    19  H    3.425219   5.853656   5.854009   5.834204   4.193784
    20  H    2.546593   4.640259   4.635816   5.738355   5.956623
    21  H    3.908796   6.283368   6.280347   7.294181   7.131835
    22  H    1.089203   2.762125   2.761104   3.786430   4.322747
                   16         17         18         19         20
    16  H    0.000000
    17  H    1.787882   0.000000
    18  H    1.787875   1.784954   0.000000
    19  H    2.221053   3.379102   3.378802   0.000000
    20  H    6.483216   6.876718   6.878069   4.514662   0.000000
    21  H    6.802913   7.543044   7.543746   4.613114   1.730828
    22  H    5.813748   5.784060   5.783410   4.349343   1.960646
                   21         22
    21  H    0.000000
    22  H    3.603160   0.000000
 Stoichiometry    C8H11N2O(2)
 Framework group  C1[X(C8H11N2O)]
 Deg. of freedom    60
 Full point group                 C1      NOp   1
 Largest Abelian subgroup         C1      NOp   1
 Largest concise Abelian subgroup C1      NOp   1
                         Standard orientation:                         
 ---------------------------------------------------------------------
 Center     Atomic      Atomic             Coordinates (Angstroms)
 Number     Number       Type             X           Y           Z
 ---------------------------------------------------------------------
      1          6           0       -2.157046    2.467872   -0.000687
      2          6           0       -1.350260    1.204032   -0.000306
      3          6           0       -1.993187   -0.017085    0.000651
      4          7           0       -1.257622   -1.207688    0.000397
      5          6           0       -1.981519   -2.458003    0.000860
      6          6           0        0.090947   -1.167512   -0.000054
      7          6           0        0.791471    0.013610   -0.000625
      8          6           0        2.267179   -0.092225   -0.000267
      9          7           0        2.948712    1.077675    0.002948
     10          8           0        2.859949   -1.176447   -0.002554
     11          6           0        0.054807    1.256259   -0.001059
     12          1           0       -1.923134    3.077586   -0.886495
     13          1           0       -1.920400    3.080015    0.882690
     14          1           0       -3.234916    2.262351    0.001169
     15          1           0       -3.075276   -0.126707    0.001511
     16          1           0       -1.274734   -3.293821    0.001149
     17          1           0       -2.621012   -2.527000    0.893363
     18          1           0       -2.621021   -2.527648   -0.891591
     19          1           0        0.612788   -2.123206    0.000153
     20          1           0        2.496472    1.979706    0.004429
     21          1           0        3.958313    1.053000    0.002520
     22          1           0        0.551334    2.225702   -0.002959
 ---------------------------------------------------------------------
 Rotational constants (GHZ):           1.5655513           0.8636118           0.5605119
 Basis read from rwf:  (5D, 7F)
 Pseudo-potential data read from rwf file.
 There are   333 symmetry adapted cartesian basis functions of A   symmetry.
 There are   311 symmetry adapted basis functions of A   symmetry.
   311 basis functions,   465 primitive gaussians,   333 cartesian basis functions
    41 alpha electrons       40 beta electrons
       nuclear repulsion energy       594.9729703921 Hartrees.
 NAtoms=   22 NActive=   22 NUniq=   22 SFac= 1.00D+00 NAtFMM=   60 NAOKFM=F Big=F
 Integral buffers will be    131072 words long.
 Raffenetti 2 integral format.
 Two-electron integral symmetry is turned on.
 Nuclear repulsion after empirical dispersion term =      594.9531328402 Hartrees.
 ------------------------------------------------------------------------------
 Polarizable Continuum Model (PCM)
 =================================
 Model                : PCM.
 Atomic radii         : SMD-Coulomb.
 Polarization charges : Total charges.
 Charge compensation  : None.
 Solution method      : On-the-fly selection.
 Cavity type          : VdW (van der Waals Surface) (Alpha=1.000).
 Cavity algorithm     : GePol (No added spheres)
                        Default sphere list used, NSphG=   22.
                        Lebedev-Laikov grids with approx.  5.0 points / Ang**2.
                        Smoothing algorithm: York/Karplus (Gamma=1.0000).
                        Polarization charges: spherical gaussians, with
                                              point-specific exponents (IZeta= 3).
                        Self-potential: point-specific (ISelfS= 7).
                        Self-field    : sphere-specific E.n sum rule (ISelfD= 2).
 1st derivatives      : Analytical E(r).r(x)/FMM algorithm (CHGder, D1EAlg=3).
                        Cavity 1st derivative terms included.
 Solvent              : DiMethylSulfoxide, Eps=  46.826000 Eps(inf)=   2.007889
 ------------------------------------------------------------------------------
 ------------------------------------------------------------------------------
 Atomic radii for non-electrostatic terms: SMD-CDS.
 ------------------------------------------------------------------------------
 Nuclear repulsion after PCM non-electrostatic terms =      594.9536047642 Hartrees.
 One-electron integrals computed using PRISM.
   1 Symmetry operations used in ECPInt.
 ECPInt:  NShTT=    8911 NPrTT=   24707 LenC2=    8777 LenP2D=   20106.
 LDataN:  DoStor=T MaxTD1= 4 Len=   56
 NBasis=   311 RedAO= T EigKep=  8.88D-06  NBF=   311
 NBsUse=   311 1.00D-06 EigRej= -1.00D+00 NBFU=   311
 Initial guess from the checkpoint file:  "/scratch/aplatt/job_46371443/Gau-3795827.chk"
 B after Tr=     0.000000   -0.000000   -0.000000
         Rot=    1.000000   -0.000001   -0.000003    0.000005 Ang=  -0.00 deg.
 Initial guess <Sx>= 0.0000 <Sy>= 0.0000 <Sz>= 0.5000 <S**2>= 0.7682 S= 0.5090
 Requested convergence on RMS density matrix=1.00D-08 within 128 cycles.
 Requested convergence on MAX density matrix=1.00D-06.
 Requested convergence on             energy=1.00D-06.
 No special actions if energy rises.
 Inv3:  Mode=1 IEnd=     9409323.
 Iteration    1 A*A^-1 deviation from unit magnitude is 2.44D-15 for    909.
 Iteration    1 A*A^-1 deviation from orthogonality  is 4.53D-15 for   1382    104.
 Iteration    1 A^-1*A deviation from unit magnitude is 2.66D-15 for   1521.
 Iteration    1 A^-1*A deviation from orthogonality  is 3.12D-14 for   1254   1244.
 Error on total polarization charges =  0.03897
 SCF Done:  E(UPBE1PBE) =  -495.324423908     A.U. after   11 cycles
            NFock= 11  Conv=0.50D-08     -V/T= 2.0109
 <Sx>= 0.0000 <Sy>= 0.0000 <Sz>= 0.5000 <S**2>= 0.7682 S= 0.5090
 <L.S>= 0.000000000000E+00
 SMD-CDS (non-electrostatic) energy       (kcal/mol) =       0.30
 (included in total energy above)
 Annihilation of the first spin contaminant:
 S**2 before annihilation     0.7682,   after     0.7501
   1 Symmetry operations used in ECPInt.
 ECPInt:  NShTT=    8911 NPrTT=   24707 LenC2=    8777 LenP2D=   20106.
 LDataN:  DoStor=T MaxTD1= 5 Len=  102
 D1PCM: PCM CHGder 1st derivatives, ID1Alg=3 FixD1E=F DoIter=F DoCFld=F I1PDM=0.
 Calling FoFJK, ICntrl=      2127 FMM=F ISym2X=0 I1Cent= 0 IOpClX= 1 NMat=1 NMatS=1 NMatT=0.
 ***** Axes restored to original set *****
 -------------------------------------------------------------------
 Center     Atomic                   Forces (Hartrees/Bohr)
 Number     Number              X              Y              Z
 -------------------------------------------------------------------
      1        6          -0.000009259    0.000015627    0.000011498
      2        6           0.000044995   -0.000100901   -0.000001944
      3        6          -0.000001187    0.000126684    0.000000178
      4        7           0.000109492   -0.000147808   -0.000005079
      5        6          -0.000013020    0.000078903   -0.000004512
      6        6          -0.000142943    0.000098606   -0.000002500
      7        6           0.000047415   -0.000085666    0.000004864
      8        6          -0.000015379    0.000078276   -0.000000436
      9        7           0.000003762   -0.000051616    0.000028798
     10        8          -0.000015448   -0.000034384   -0.000006858
     11        6          -0.000047046    0.000075514    0.000008411
     12        1          -0.000004379    0.000004768   -0.000002967
     13        1          -0.000006686    0.000006920   -0.000004899
     14        1          -0.000002970    0.000011779   -0.000002573
     15        1           0.000000659   -0.000005374    0.000005037
     16        1           0.000011840   -0.000008863    0.000000262
     17        1           0.000010115   -0.000006472    0.000001456
     18        1           0.000007929   -0.000005439   -0.000001746
     19        1           0.000026802   -0.000017231    0.000001743
     20        1          -0.000008337   -0.000010798   -0.000007431
     21        1           0.000004190   -0.000011409   -0.000005635
     22        1          -0.000000546   -0.000011116   -0.000015667
 -------------------------------------------------------------------
 Cartesian Forces:  Max     0.000147808 RMS     0.000044508

 GradGradGradGradGradGradGradGradGradGradGradGradGradGradGradGradGradGrad
 Berny optimization.
 Using GEDIIS/GDIIS optimizer.
 FormGI is forming the generalized inverse of G from B-inverse, IUseBI=4.
 Internal  Forces:  Max     0.000104816 RMS     0.000018273
 Search for a local minimum.
 Step number  14 out of a maximum of  112
 All quantities printed in internal units (Hartrees-Bohrs-Radians)
 Mixed Optimization -- En-DIIS/RFO-DIIS
 Swapping is turned off.
 Update second derivatives using D2CorX and points    3    4    5    6    7
                                                      8    9   10   11   12
                                                     13   14
 DE= -1.95D-07 DEPred=-1.77D-07 R= 1.10D+00
 Trust test= 1.10D+00 RLast= 7.30D-03 DXMaxT set to 8.49D-01
 ITU=  0  0  1  1  1  1  1  1  1  0  0  1  1  0
     Eigenvalues ---    0.00138   0.00480   0.00857   0.01031   0.01153
     Eigenvalues ---    0.01707   0.01788   0.01958   0.02224   0.02299
     Eigenvalues ---    0.02366   0.02382   0.02441   0.02522   0.05403
     Eigenvalues ---    0.07225   0.07423   0.07589   0.07620   0.14777
     Eigenvalues ---    0.15472   0.15996   0.16000   0.16001   0.16004
     Eigenvalues ---    0.16006   0.16018   0.16097   0.16304   0.16375
     Eigenvalues ---    0.20317   0.22863   0.23575   0.24938   0.25004
     Eigenvalues ---    0.25081   0.26041   0.28414   0.33809   0.34721
     Eigenvalues ---    0.34781   0.34924   0.35032   0.35110   0.35362
     Eigenvalues ---    0.35763   0.35912   0.36264   0.38120   0.39298
     Eigenvalues ---    0.41609   0.44652   0.45552   0.45805   0.46494
     Eigenvalues ---    0.48257   0.54169   0.54586   0.58601   0.98239
 En-DIIS/RFO-DIIS/Sim-DIIS IScMMF=       -3 using points:    14   13   12   11   10    9    8    7    6    5
 RFO step:  Lambda=-1.90190817D-07.
 DIIS inversion failure, remove point  10.
 DIIS inversion failure, remove point   9.
 DIIS inversion failure, remove point   8.
 DIIS inversion failure, remove point   7.
 DIIS inversion failure, remove point   6.
 RFO-DIIS uses    5 points instead of   10
 DidBck=F Rises=F RFO-DIIS coefs:    2.69029   -2.00000   -0.04311    0.59196   -0.23915
                  RFO-DIIS coefs:    0.00000    0.00000    0.00000    0.00000    0.00000
 Iteration  1 RMS(Cart)=  0.00081140 RMS(Int)=  0.00000256
 Iteration  2 RMS(Cart)=  0.00000048 RMS(Int)=  0.00000254
 Variable       Old X    -DE/DX   Delta X   Delta X   Delta X     New X
                                 (Linear)    (Quad)   (Total)
    R1        2.83345  -0.00001  -0.00002  -0.00000  -0.00002   2.83343
    R2        2.07966  -0.00000  -0.00002   0.00000  -0.00002   2.07964
    R3        2.07962   0.00000  -0.00001   0.00001   0.00001   2.07963
    R4        2.07358   0.00000  -0.00001   0.00000  -0.00001   2.07357
    R5        2.60788   0.00006   0.00009   0.00009   0.00017   2.60805
    R6        2.65702  -0.00004  -0.00005  -0.00010  -0.00015   2.65688
    R7        2.64467  -0.00004  -0.00008  -0.00001  -0.00009   2.64458
    R8        2.05532  -0.00000  -0.00001  -0.00001  -0.00002   2.05530
    R9        2.73019   0.00005   0.00007   0.00008   0.00015   2.73034
   R10        2.54956  -0.00010  -0.00015  -0.00014  -0.00029   2.54927
   R11        2.06848  -0.00000  -0.00002  -0.00000  -0.00002   2.06847
   R12        2.07893  -0.00000  -0.00002   0.00000  -0.00002   2.07892
   R13        2.07894  -0.00000  -0.00001  -0.00001  -0.00002   2.07892
   R14        2.59504   0.00005   0.00011   0.00004   0.00015   2.59519
   R15        2.05769   0.00000  -0.00000   0.00001   0.00001   2.05770
   R16        2.79585  -0.00002  -0.00004  -0.00008  -0.00012   2.79573
   R17        2.72989  -0.00002  -0.00010   0.00006  -0.00004   2.72984
   R18        2.55858   0.00005   0.00007   0.00005   0.00012   2.55870
   R19        2.33511  -0.00003  -0.00003   0.00001  -0.00002   2.33509
   R20        1.90683   0.00000   0.00003  -0.00001   0.00001   1.90684
   R21        1.90844   0.00001   0.00004  -0.00002   0.00002   1.90846
   R22        2.05829   0.00001   0.00003  -0.00000   0.00003   2.05832
    A1        1.93139   0.00000   0.00002   0.00001   0.00003   1.93142
    A2        1.93152  -0.00000  -0.00006   0.00001  -0.00005   1.93146
    A3        1.95053  -0.00000  -0.00001  -0.00002  -0.00003   1.95050
    A4        1.86735   0.00000   0.00002   0.00001   0.00003   1.86738
    A5        1.89011   0.00000   0.00004   0.00002   0.00006   1.89017
    A6        1.89026   0.00000  -0.00001  -0.00002  -0.00002   1.89024
    A7        2.08881  -0.00000   0.00000  -0.00005  -0.00004   2.08877
    A8        2.10179   0.00002   0.00005   0.00005   0.00010   2.10189
    A9        2.09258  -0.00002  -0.00006  -0.00000  -0.00006   2.09252
   A10        2.10355  -0.00001  -0.00003  -0.00007  -0.00010   2.10345
   A11        2.15639  -0.00001  -0.00004   0.00001  -0.00003   2.15636
   A12        2.02325   0.00002   0.00007   0.00005   0.00012   2.02337
   A13        2.06337  -0.00002  -0.00004  -0.00007  -0.00011   2.06326
   A14        2.09442   0.00003   0.00009   0.00006   0.00015   2.09457
   A15        2.12539  -0.00001  -0.00005   0.00001  -0.00004   2.12535
   A16        1.91483  -0.00001  -0.00001  -0.00002  -0.00003   1.91480
   A17        1.92388  -0.00001  -0.00004  -0.00004  -0.00009   1.92379
   A18        1.92387  -0.00001  -0.00000  -0.00007  -0.00007   1.92380
   A19        1.90418   0.00001   0.00002   0.00006   0.00007   1.90425
   A20        1.90416   0.00001   0.00003   0.00006   0.00009   1.90425
   A21        1.89257   0.00001   0.00001   0.00003   0.00003   1.89261
   A22        2.13591   0.00000  -0.00004   0.00005   0.00001   2.13592
   A23        2.04081   0.00002   0.00016   0.00006   0.00022   2.04102
   A24        2.10647  -0.00003  -0.00012  -0.00010  -0.00022   2.10625
   A25        2.03453  -0.00000   0.00003  -0.00003   0.00000   2.03453
   A26        2.07114  -0.00002  -0.00003  -0.00010  -0.00013   2.07101
   A27        2.17751   0.00002   0.00001   0.00013   0.00013   2.17764
   A28        2.02669   0.00000  -0.00013   0.00014   0.00000   2.02670
   A29        2.14271   0.00000   0.00004  -0.00000   0.00004   2.14276
   A30        2.11378  -0.00000   0.00009  -0.00013  -0.00005   2.11373
   A31        2.14937   0.00000   0.00002   0.00003   0.00006   2.14943
   A32        2.07385  -0.00000  -0.00008  -0.00002  -0.00008   2.07377
   A33        2.05997   0.00000   0.00002  -0.00001   0.00002   2.05999
   A34        2.06876   0.00002   0.00007   0.00007   0.00014   2.06890
   A35        2.08129  -0.00000   0.00002  -0.00008  -0.00005   2.08124
   A36        2.13313  -0.00001  -0.00009   0.00001  -0.00008   2.13305
    D1       -2.10671  -0.00000  -0.00019  -0.00020  -0.00039  -2.10710
    D2        1.03476  -0.00000  -0.00034  -0.00007  -0.00042   1.03434
    D3        2.10953  -0.00000  -0.00019  -0.00021  -0.00040   2.10913
    D4       -1.03218  -0.00000  -0.00034  -0.00009  -0.00043  -1.03261
    D5        0.00127   0.00000  -0.00013  -0.00018  -0.00031   0.00096
    D6       -3.14044   0.00000  -0.00029  -0.00006  -0.00034  -3.14078
    D7        3.14107   0.00000   0.00031   0.00005   0.00036   3.14143
    D8       -0.00039   0.00000  -0.00004   0.00009   0.00005  -0.00034
    D9       -0.00040   0.00000   0.00046  -0.00007   0.00039  -0.00001
   D10        3.14132   0.00000   0.00011  -0.00003   0.00008   3.14140
   D11        3.14157   0.00000  -0.00001   0.00006   0.00006  -3.14156
   D12       -0.00109   0.00001   0.00110  -0.00003   0.00107  -0.00002
   D13       -0.00014   0.00000  -0.00016   0.00018   0.00002  -0.00012
   D14        3.14038   0.00001   0.00095   0.00009   0.00104   3.14142
   D15       -3.14114  -0.00000  -0.00009  -0.00008  -0.00017  -3.14131
   D16        0.00063  -0.00001  -0.00045  -0.00011  -0.00056   0.00007
   D17        0.00033  -0.00000   0.00023  -0.00011   0.00012   0.00045
   D18       -3.14108  -0.00000  -0.00013  -0.00014  -0.00027  -3.14135
   D19       -3.14105  -0.00000  -0.00032  -0.00007  -0.00039  -3.14144
   D20       -1.04376  -0.00000  -0.00033  -0.00005  -0.00038  -1.04414
   D21        1.04488  -0.00000  -0.00035  -0.00009  -0.00044   1.04444
   D22        0.00036   0.00000   0.00005  -0.00005   0.00000   0.00036
   D23        2.09764   0.00000   0.00004  -0.00002   0.00002   2.09766
   D24       -2.09690  -0.00000   0.00002  -0.00006  -0.00004  -2.09694
   D25       -0.00030   0.00000   0.00014   0.00016   0.00030  -0.00000
   D26        3.14119   0.00000   0.00029   0.00006   0.00035   3.14154
   D27        3.14148   0.00000  -0.00024   0.00013  -0.00011   3.14138
   D28       -0.00021   0.00000  -0.00008   0.00003  -0.00005  -0.00027
   D29        3.14098   0.00000   0.00015   0.00016   0.00031   3.14130
   D30       -0.00025   0.00000   0.00015  -0.00004   0.00012  -0.00013
   D31       -0.00050   0.00000  -0.00001   0.00026   0.00026  -0.00025
   D32        3.14145   0.00000  -0.00000   0.00007   0.00006   3.14151
   D33       -3.13848  -0.00001  -0.00150  -0.00014  -0.00164  -3.14012
   D34        0.00294  -0.00001  -0.00141  -0.00016  -0.00157   0.00138
   D35        0.00272  -0.00001  -0.00150   0.00007  -0.00143   0.00129
   D36       -3.13904  -0.00001  -0.00141   0.00005  -0.00136  -3.14039
   D37        0.00046  -0.00000  -0.00014  -0.00013  -0.00028   0.00019
   D38       -3.14003  -0.00001  -0.00129  -0.00004  -0.00132  -3.14135
   D39       -3.14073  -0.00000  -0.00014  -0.00035  -0.00049  -3.14123
   D40        0.00196  -0.00001  -0.00128  -0.00025  -0.00154   0.00042
   D41       -0.00069   0.00001   0.00041   0.00031   0.00071   0.00002
   D42       -3.14070  -0.00001  -0.00017  -0.00028  -0.00045  -3.14115
   D43        3.14107   0.00001   0.00032   0.00032   0.00064  -3.14148
   D44        0.00106  -0.00000  -0.00026  -0.00027  -0.00053   0.00054
         Item               Value     Threshold  Converged?
 Maximum Force            0.000105     0.000450     YES
 RMS     Force            0.000018     0.000300     YES
 Maximum Displacement     0.003856     0.001800     NO 
 RMS     Displacement     0.000811     0.001200     YES
 Predicted change in Energy=-8.685561D-08
 GradGradGradGradGradGradGradGradGradGradGradGradGradGradGradGradGradGrad

                          Input orientation:                          
 ---------------------------------------------------------------------
 Center     Atomic      Atomic             Coordinates (Angstroms)
 Number     Number       Type             X           Y           Z
 ---------------------------------------------------------------------
      1          6           0       -2.227195   -1.808951    0.221158
      2          6           0       -1.163562   -0.755474    0.137299
      3          6           0       -1.523968    0.572639    0.032630
      4          7           0       -0.545813    1.570340   -0.046580
      5          6           0       -0.978859    2.944519   -0.154491
      6          6           0        0.761211    1.237363   -0.020991
      7          6           0        1.186637   -0.064371    0.081476
      8          6           0        2.649730   -0.283072    0.097577
      9          7           0        3.059076   -1.569878    0.197084
     10          8           0        3.465197    0.642496    0.025260
     11          6           0        0.196034   -1.112485    0.164833
     12          1           0       -2.131269   -2.384191    1.154431
     13          1           0       -2.131139   -2.524775   -0.609175
     14          1           0       -3.234015   -1.374041    0.186454
     15          1           0       -2.555907    0.915134    0.005913
     16          1           0       -0.106423    3.603458   -0.207113
     17          1           0       -1.588460    3.081186   -1.060009
     18          1           0       -1.587021    3.221379    0.719437
     19          1           0        1.479522    2.053153   -0.085764
     20          1           0        2.420645   -2.348924    0.257825
     21          1           0        4.049684   -1.765829    0.212091
     22          1           0        0.468595   -2.163777    0.247855
 ---------------------------------------------------------------------
                    Distance matrix (angstroms):
                    1          2          3          4          5
     1  C    0.000000
     2  C    1.499387   0.000000
     3  C    2.490391   1.380121   0.000000
     4  N    3.783958   2.413470   1.399452   0.000000
     5  C    4.928989   3.716074   2.440896   1.444833   0.000000
     6  C    4.274252   2.775104   2.380498   1.349014   2.441321
     7  C    3.836316   2.450342   2.784878   2.385384   3.714630
     8  C    5.111553   3.842647   4.261010   3.696946   4.862874
     9  N    5.291729   4.300873   5.061790   4.787020   6.066986
    10  O    6.200911   4.836557   4.989659   4.117555   5.008120
    11  C    2.521959   1.405958   2.411541   2.791520   4.235756
    12  H    1.100500   2.150286   3.220263   4.426557   5.606824
    13  H    1.100493   2.150315   3.220955   4.427159   5.607822
    14  H    1.097287   2.161439   2.595667   3.993760   4.883844
    15  H    2.752276   2.178719   1.087619   2.114836   2.575115
    16  H    5.828831   4.498495   3.354515   2.086242   1.094585
    17  H    5.095372   4.041540   2.736938   2.096857   1.100116
    18  H    5.095324   4.041481   2.737061   2.096861   1.100118
    19  H    5.361884   3.863164   3.350655   2.082456   2.615893
    20  H    4.679245   3.924303   4.913880   4.924750   6.304536
    21  H    6.277033   5.310776   6.047001   5.684674   6.899856
    22  H    2.719172   2.158582   3.391844   3.880637   5.324632
                    6          7          8          9         10
     6  C    0.000000
     7  C    1.373316   0.000000
     8  C    2.427403   1.479436   0.000000
     9  N    3.634328   2.405400   1.354007   0.000000
    10  O    2.769034   2.386348   1.235676   2.255893   0.000000
    11  C    2.423993   1.444571   2.590959   2.899527   3.713067
    12  H    4.781600   4.188233   5.328188   5.340347   6.461911
    13  H    4.781770   4.187867   5.327423   5.338560   6.461664
    14  H    4.777478   4.611770   5.984694   6.296147   6.997989
    15  H    3.332841   3.869338   5.342542   6.143279   6.027305
    16  H    2.527022   3.899776   4.774341   6.078418   4.645187
    17  H    3.162308   4.347261   5.533579   6.694197   5.715284
    18  H    3.162080   4.346990   5.533349   6.694417   5.714668
    19  H    1.088890   2.144215   2.619341   3.962492   2.438275
    20  H    3.961428   2.602510   2.084682   1.009057   3.177069
    21  H    4.459545   3.333025   2.042437   1.009913   2.485268
    22  H    3.424274   2.225034   2.883918   2.658174   4.111489
                   11         12         13         14         15
    11  C    0.000000
    12  H    2.830703   0.000000
    13  H    2.830086   1.769200   0.000000
    14  H    3.440075   1.781413   1.781446   0.000000
    15  H    3.421940   3.519226   3.520189   2.394315   0.000000
    16  H    4.740248   6.465736   6.466558   5.891709   3.643137
    17  H    4.719273   5.921886   5.650182   4.910252   2.600756
    18  H    4.719031   5.648702   5.922800   4.910657   2.601274
    19  H    3.425114   5.853709   5.853910   5.834140   4.193827
    20  H    2.546826   4.639512   4.636955   5.738526   5.956812
    21  H    3.908926   6.282877   6.281166   7.294273   7.131893
    22  H    1.089219   2.762201   2.761057   3.786394   4.322712
                   16         17         18         19         20
    16  H    0.000000
    17  H    1.787913   0.000000
    18  H    1.787918   1.784961   0.000000
    19  H    2.221124   3.379130   3.378874   0.000000
    20  H    6.483293   6.877187   6.877699   4.514648   0.000000
    21  H    6.802808   7.543239   7.543347   4.612924   1.730854
    22  H    5.813661   5.783738   5.783412   4.349227   1.960836
                   21         22
    21  H    0.000000
    22  H    3.603309   0.000000
 Stoichiometry    C8H11N2O(2)
 Framework group  C1[X(C8H11N2O)]
 Deg. of freedom    60
 Full point group                 C1      NOp   1
 Largest Abelian subgroup         C1      NOp   1
 Largest concise Abelian subgroup C1      NOp   1
                         Standard orientation:                         
 ---------------------------------------------------------------------
 Center     Atomic      Atomic             Coordinates (Angstroms)
 Number     Number       Type             X           Y           Z
 ---------------------------------------------------------------------
      1          6           0       -2.157148    2.467806   -0.000369
      2          6           0       -1.350275    1.204035   -0.000131
      3          6           0       -1.993206   -0.017183    0.000261
      4          7           0       -1.257507   -1.207651    0.000297
      5          6           0       -1.981418   -2.458050    0.000355
      6          6           0        0.090909   -1.167503    0.000033
      7          6           0        0.791501    0.013669   -0.000277
      8          6           0        2.267144   -0.092196   -0.000153
      9          7           0        2.948743    1.077742    0.001327
     10          8           0        2.859928   -1.176401   -0.001221
     11          6           0        0.054714    1.256219   -0.000484
     12          1           0       -1.922748    3.078008   -0.885699
     13          1           0       -1.921072    3.079466    0.883500
     14          1           0       -3.234994    2.262171    0.000784
     15          1           0       -3.075286   -0.126812    0.000719
     16          1           0       -1.274595   -3.293823    0.000534
     17          1           0       -2.621005   -2.527187    0.892770
     18          1           0       -2.620804   -2.527393   -0.892190
     19          1           0        0.612942   -2.123098    0.000123
     20          1           0        2.496581    1.979820    0.002321
     21          1           0        3.958352    1.052953    0.001075
     22          1           0        0.551224    2.225691   -0.000955
 ---------------------------------------------------------------------
 Rotational constants (GHZ):           1.5655789           0.8636151           0.5605165
 Basis read from rwf:  (5D, 7F)
 Pseudo-potential data read from rwf file.
 There are   333 symmetry adapted cartesian basis functions of A   symmetry.
 There are   311 symmetry adapted basis functions of A   symmetry.
   311 basis functions,   465 primitive gaussians,   333 cartesian basis functions
    41 alpha electrons       40 beta electrons
       nuclear repulsion energy       594.9760807070 Hartrees.
 NAtoms=   22 NActive=   22 NUniq=   22 SFac= 1.00D+00 NAtFMM=   60 NAOKFM=F Big=F
 Integral buffers will be    131072 words long.
 Raffenetti 2 integral format.
 Two-electron integral symmetry is turned on.
 Nuclear repulsion after empirical dispersion term =      594.9562431049 Hartrees.
 ------------------------------------------------------------------------------
 Polarizable Continuum Model (PCM)
 =================================
 Model                : PCM.
 Atomic radii         : SMD-Coulomb.
 Polarization charges : Total charges.
 Charge compensation  : None.
 Solution method      : On-the-fly selection.
 Cavity type          : VdW (van der Waals Surface) (Alpha=1.000).
 Cavity algorithm     : GePol (No added spheres)
                        Default sphere list used, NSphG=   22.
                        Lebedev-Laikov grids with approx.  5.0 points / Ang**2.
                        Smoothing algorithm: York/Karplus (Gamma=1.0000).
                        Polarization charges: spherical gaussians, with
                                              point-specific exponents (IZeta= 3).
                        Self-potential: point-specific (ISelfS= 7).
                        Self-field    : sphere-specific E.n sum rule (ISelfD= 2).
 1st derivatives      : Analytical E(r).r(x)/FMM algorithm (CHGder, D1EAlg=3).
                        Cavity 1st derivative terms included.
 Solvent              : DiMethylSulfoxide, Eps=  46.826000 Eps(inf)=   2.007889
 ------------------------------------------------------------------------------
 ------------------------------------------------------------------------------
 Atomic radii for non-electrostatic terms: SMD-CDS.
 ------------------------------------------------------------------------------
 Nuclear repulsion after PCM non-electrostatic terms =      594.9567151789 Hartrees.
 One-electron integrals computed using PRISM.
   1 Symmetry operations used in ECPInt.
 ECPInt:  NShTT=    8911 NPrTT=   24707 LenC2=    8777 LenP2D=   20106.
 LDataN:  DoStor=T MaxTD1= 4 Len=   56
 NBasis=   311 RedAO= T EigKep=  8.88D-06  NBF=   311
 NBsUse=   311 1.00D-06 EigRej= -1.00D+00 NBFU=   311
 Initial guess from the checkpoint file:  "/scratch/aplatt/job_46371443/Gau-3795827.chk"
 B after Tr=    -0.000000   -0.000000    0.000000
         Rot=    1.000000   -0.000006    0.000003   -0.000013 Ang=  -0.00 deg.
 Initial guess <Sx>= 0.0000 <Sy>= 0.0000 <Sz>= 0.5000 <S**2>= 0.7682 S= 0.5090
 Requested convergence on RMS density matrix=1.00D-08 within 128 cycles.
 Requested convergence on MAX density matrix=1.00D-06.
 Requested convergence on             energy=1.00D-06.
 No special actions if energy rises.
 Inv3:  Mode=1 IEnd=     9398700.
 Iteration    1 A*A^-1 deviation from unit magnitude is 3.11D-15 for    554.
 Iteration    1 A*A^-1 deviation from orthogonality  is 3.14D-15 for   1380    103.
 Iteration    1 A^-1*A deviation from unit magnitude is 3.11D-15 for    554.
 Iteration    1 A^-1*A deviation from orthogonality  is 2.50D-14 for   1335   1244.
 Error on total polarization charges =  0.03897
 SCF Done:  E(UPBE1PBE) =  -495.324424075     A.U. after   11 cycles
            NFock= 11  Conv=0.75D-08     -V/T= 2.0109
 <Sx>= 0.0000 <Sy>= 0.0000 <Sz>= 0.5000 <S**2>= 0.7682 S= 0.5090
 <L.S>= 0.000000000000E+00
 SMD-CDS (non-electrostatic) energy       (kcal/mol) =       0.30
 (included in total energy above)
 Annihilation of the first spin contaminant:
 S**2 before annihilation     0.7682,   after     0.7501
   1 Symmetry operations used in ECPInt.
 ECPInt:  NShTT=    8911 NPrTT=   24707 LenC2=    8777 LenP2D=   20106.
 LDataN:  DoStor=T MaxTD1= 5 Len=  102
 D1PCM: PCM CHGder 1st derivatives, ID1Alg=3 FixD1E=F DoIter=F DoCFld=F I1PDM=0.
 Calling FoFJK, ICntrl=      2127 FMM=F ISym2X=0 I1Cent= 0 IOpClX= 1 NMat=1 NMatS=1 NMatT=0.
 ***** Axes restored to original set *****
 -------------------------------------------------------------------
 Center     Atomic                   Forces (Hartrees/Bohr)
 Number     Number              X              Y              Z
 -------------------------------------------------------------------
      1        6          -0.000004555    0.000012960   -0.000000728
      2        6           0.000014401   -0.000023302    0.000007839
      3        6          -0.000002273    0.000030971   -0.000010040
      4        7           0.000027744   -0.000030727    0.000008636
      5        6          -0.000002108    0.000033756   -0.000005925
      6        6          -0.000021220    0.000007869    0.000001780
      7        6           0.000021698   -0.000006119   -0.000000818
      8        6          -0.000017492    0.000013919   -0.000006421
      9        7           0.000006154   -0.000022636    0.000015419
     10        8           0.000000432   -0.000013070    0.000002045
     11        6          -0.000027357    0.000004818   -0.000010007
     12        1          -0.000006406    0.000002996    0.000000103
     13        1          -0.000008304    0.000004400   -0.000002251
     14        1          -0.000005603    0.000009884   -0.000000722
     15        1           0.000001570    0.000003898    0.000004259
     16        1           0.000012255   -0.000003652    0.000000195
     17        1           0.000008889   -0.000001243    0.000000128
     18        1           0.000008992   -0.000000679    0.000000004
     19        1           0.000009428   -0.000004253   -0.000000337
     20        1          -0.000006488   -0.000002444   -0.000000028
     21        1          -0.000007880   -0.000013861   -0.000005140
     22        1          -0.000001879   -0.000003485    0.000002007
 -------------------------------------------------------------------
 Cartesian Forces:  Max     0.000033756 RMS     0.000012012

 GradGradGradGradGradGradGradGradGradGradGradGradGradGradGradGradGradGrad
 Berny optimization.
 Using GEDIIS/GDIIS optimizer.
 FormGI is forming the generalized inverse of G from B-inverse, IUseBI=4.
 Internal  Forces:  Max     0.000018316 RMS     0.000004730
 Search for a local minimum.
 Step number  15 out of a maximum of  112
 All quantities printed in internal units (Hartrees-Bohrs-Radians)
 Mixed Optimization -- En-DIIS/RFO-DIIS
 Swapping is turned off.
 Update second derivatives using D2CorX and points    3    4    5    6    7
                                                      8    9   10   11   12
                                                     13   14   15
 DE= -1.67D-07 DEPred=-8.69D-08 R= 1.92D+00
 Trust test= 1.92D+00 RLast= 4.48D-03 DXMaxT set to 8.49D-01
 ITU=  0  0  0  1  1  1  1  1  1  1  0  0  1  1  0
     Eigenvalues ---    0.00134   0.00390   0.00873   0.01107   0.01169
     Eigenvalues ---    0.01708   0.01816   0.01961   0.02211   0.02263
     Eigenvalues ---    0.02355   0.02433   0.02459   0.02494   0.05421
     Eigenvalues ---    0.07215   0.07421   0.07571   0.07621   0.13860
     Eigenvalues ---    0.15131   0.15999   0.16000   0.16001   0.16006
     Eigenvalues ---    0.16006   0.16017   0.16097   0.16366   0.16521
     Eigenvalues ---    0.19140   0.22825   0.23589   0.24961   0.24991
     Eigenvalues ---    0.25073   0.25826   0.28393   0.33798   0.34722
     Eigenvalues ---    0.34726   0.34926   0.35037   0.35094   0.35369
     Eigenvalues ---    0.35774   0.35871   0.36285   0.37006   0.38627
     Eigenvalues ---    0.40997   0.44062   0.45286   0.46521   0.46718
     Eigenvalues ---    0.49078   0.54147   0.54553   0.58648   0.97968
 En-DIIS/RFO-DIIS/Sim-DIIS IScMMF=       -3 using points:    15   14   13   12   11   10    9    8    7    6
 RFO step:  Lambda=-3.16723737D-08.
 DIIS inversion failure, remove point  10.
 DIIS inversion failure, remove point   9.
 DIIS inversion failure, remove point   8.
 DIIS inversion failure, remove point   7.
 DIIS inversion failure, remove point   6.
 DIIS inversion failure, remove point   5.
 DIIS inversion failure, remove point   4.
 RFO-DIIS uses    3 points instead of   10
 DidBck=F Rises=F RFO-DIIS coefs:    1.51430   -0.61035    0.09606    0.00000    0.00000
                  RFO-DIIS coefs:    0.00000    0.00000    0.00000    0.00000    0.00000
 Iteration  1 RMS(Cart)=  0.00055273 RMS(Int)=  0.00000019
 Iteration  2 RMS(Cart)=  0.00000025 RMS(Int)=  0.00000008
 Variable       Old X    -DE/DX   Delta X   Delta X   Delta X     New X
                                 (Linear)    (Quad)   (Total)
    R1        2.83343  -0.00000  -0.00001   0.00000  -0.00001   2.83342
    R2        2.07964   0.00000  -0.00001   0.00001   0.00000   2.07964
    R3        2.07963   0.00000   0.00000   0.00000   0.00001   2.07964
    R4        2.07357   0.00000  -0.00000   0.00000   0.00000   2.07357
    R5        2.60805   0.00002   0.00008  -0.00002   0.00006   2.60811
    R6        2.65688  -0.00001  -0.00007   0.00003  -0.00004   2.65683
    R7        2.64458  -0.00001  -0.00004   0.00001  -0.00003   2.64455
    R8        2.05530  -0.00000  -0.00001   0.00000  -0.00000   2.05530
    R9        2.73034   0.00002   0.00008  -0.00001   0.00007   2.73041
   R10        2.54927  -0.00002  -0.00013   0.00006  -0.00007   2.54920
   R11        2.06847  -0.00000  -0.00001   0.00000  -0.00000   2.06846
   R12        2.07892  -0.00000  -0.00001   0.00000  -0.00001   2.07891
   R13        2.07892  -0.00000  -0.00001   0.00000  -0.00001   2.07891
   R14        2.59519   0.00000   0.00007  -0.00004   0.00003   2.59522
   R15        2.05770   0.00000   0.00001   0.00000   0.00001   2.05771
   R16        2.79573  -0.00001  -0.00006   0.00001  -0.00005   2.79568
   R17        2.72984   0.00001  -0.00001   0.00002   0.00000   2.72985
   R18        2.55870   0.00002   0.00006  -0.00002   0.00004   2.55874
   R19        2.33509  -0.00000  -0.00001  -0.00000  -0.00001   2.33508
   R20        1.90684  -0.00000   0.00000  -0.00001  -0.00000   1.90684
   R21        1.90846  -0.00000   0.00001  -0.00001  -0.00000   1.90846
   R22        2.05832   0.00000   0.00001   0.00000   0.00002   2.05834
    A1        1.93142   0.00000   0.00002   0.00000   0.00002   1.93143
    A2        1.93146   0.00000  -0.00002   0.00002  -0.00000   1.93146
    A3        1.95050  -0.00000  -0.00002   0.00001  -0.00001   1.95049
    A4        1.86738  -0.00000   0.00001  -0.00001  -0.00001   1.86737
    A5        1.89017   0.00000   0.00003  -0.00001   0.00002   1.89019
    A6        1.89024  -0.00000  -0.00001  -0.00000  -0.00002   1.89022
    A7        2.08877  -0.00000  -0.00002  -0.00000  -0.00003   2.08875
    A8        2.10189   0.00001   0.00005  -0.00000   0.00005   2.10194
    A9        2.09252  -0.00000  -0.00003   0.00000  -0.00002   2.09249
   A10        2.10345  -0.00000  -0.00005   0.00003  -0.00002   2.10344
   A11        2.15636  -0.00000  -0.00002  -0.00001  -0.00003   2.15633
   A12        2.02337   0.00000   0.00006  -0.00001   0.00005   2.02342
   A13        2.06326  -0.00001  -0.00005   0.00002  -0.00003   2.06323
   A14        2.09457   0.00001   0.00007  -0.00003   0.00004   2.09461
   A15        2.12535  -0.00000  -0.00002   0.00001  -0.00001   2.12535
   A16        1.91480  -0.00000  -0.00002  -0.00001  -0.00003   1.91477
   A17        1.92379  -0.00001  -0.00005  -0.00000  -0.00005   1.92374
   A18        1.92380  -0.00000  -0.00004  -0.00000  -0.00004   1.92376
   A19        1.90425   0.00001   0.00004   0.00001   0.00005   1.90429
   A20        1.90425   0.00001   0.00005   0.00000   0.00005   1.90430
   A21        1.89261   0.00000   0.00002   0.00001   0.00003   1.89264
   A22        2.13592   0.00000   0.00000  -0.00001  -0.00001   2.13591
   A23        2.04102   0.00000   0.00010  -0.00004   0.00006   2.04108
   A24        2.10625  -0.00000  -0.00010   0.00005  -0.00005   2.10620
   A25        2.03453  -0.00000  -0.00000   0.00001   0.00000   2.03454
   A26        2.07101  -0.00000  -0.00006   0.00004  -0.00002   2.07098
   A27        2.17764   0.00000   0.00006  -0.00005   0.00002   2.17766
   A28        2.02670  -0.00000   0.00000  -0.00003  -0.00003   2.02667
   A29        2.14276   0.00000   0.00002   0.00000   0.00002   2.14278
   A30        2.11373  -0.00000  -0.00003   0.00003   0.00001   2.11374
   A31        2.14943  -0.00001   0.00001  -0.00005  -0.00003   2.14940
   A32        2.07377   0.00001  -0.00003   0.00005   0.00002   2.07379
   A33        2.05999  -0.00000   0.00001  -0.00000   0.00001   2.05999
   A34        2.06890   0.00000   0.00006  -0.00003   0.00003   2.06893
   A35        2.08124   0.00000  -0.00002   0.00004   0.00002   2.08126
   A36        2.13305  -0.00000  -0.00004  -0.00001  -0.00005   2.13300
    D1       -2.10710  -0.00000  -0.00019  -0.00006  -0.00025  -2.10735
    D2        1.03434  -0.00000  -0.00019  -0.00001  -0.00020   1.03414
    D3        2.10913  -0.00000  -0.00020  -0.00005  -0.00025   2.10888
    D4       -1.03261  -0.00000  -0.00020  -0.00000  -0.00020  -1.03281
    D5        0.00096  -0.00000  -0.00016  -0.00007  -0.00022   0.00074
    D6       -3.14078   0.00000  -0.00016  -0.00002  -0.00017  -3.14095
    D7        3.14143   0.00000   0.00016  -0.00006   0.00010   3.14154
    D8       -0.00034   0.00000   0.00004   0.00008   0.00012  -0.00022
    D9       -0.00001  -0.00000   0.00016  -0.00011   0.00005   0.00004
   D10        3.14140   0.00000   0.00004   0.00003   0.00007   3.14147
   D11       -3.14156   0.00000   0.00003  -0.00001   0.00003  -3.14153
   D12       -0.00002  -0.00000   0.00045  -0.00027   0.00017   0.00015
   D13       -0.00012   0.00000   0.00003   0.00005   0.00008  -0.00004
   D14        3.14142  -0.00000   0.00045  -0.00022   0.00022  -3.14154
   D15       -3.14131  -0.00000  -0.00007  -0.00003  -0.00009  -3.14140
   D16        0.00007  -0.00000  -0.00025   0.00013  -0.00012  -0.00004
   D17        0.00045  -0.00000   0.00005  -0.00015  -0.00011   0.00034
   D18       -3.14135  -0.00000  -0.00014   0.00000  -0.00013  -3.14148
   D19       -3.14144   0.00000  -0.00012   0.00008  -0.00004  -3.14148
   D20       -1.04414   0.00000  -0.00011   0.00008  -0.00003  -1.04417
   D21        1.04444  -0.00000  -0.00014   0.00009  -0.00005   1.04439
   D22        0.00036  -0.00000   0.00007  -0.00008  -0.00001   0.00035
   D23        2.09766   0.00000   0.00008  -0.00008  -0.00001   2.09766
   D24       -2.09694  -0.00000   0.00005  -0.00008  -0.00003  -2.09697
   D25       -0.00000   0.00000   0.00013  -0.00009   0.00004   0.00004
   D26        3.14154   0.00000   0.00016  -0.00009   0.00007  -3.14157
   D27        3.14138   0.00000  -0.00006   0.00007   0.00001   3.14139
   D28       -0.00027   0.00000  -0.00003   0.00008   0.00005  -0.00022
   D29        3.14130   0.00000   0.00017   0.00004   0.00021   3.14151
   D30       -0.00013   0.00000   0.00006   0.00003   0.00009  -0.00003
   D31       -0.00025   0.00000   0.00014   0.00003   0.00017  -0.00007
   D32        3.14151   0.00000   0.00004   0.00002   0.00006   3.14158
   D33       -3.14012  -0.00001  -0.00096  -0.00024  -0.00120  -3.14132
   D34        0.00138  -0.00000  -0.00095  -0.00016  -0.00112   0.00026
   D35        0.00129  -0.00000  -0.00085  -0.00023  -0.00108   0.00021
   D36       -3.14039  -0.00000  -0.00084  -0.00015  -0.00099  -3.14139
   D37        0.00019  -0.00000  -0.00015  -0.00001  -0.00015   0.00003
   D38       -3.14135   0.00000  -0.00057   0.00027  -0.00030   3.14153
   D39       -3.14123  -0.00000  -0.00026  -0.00002  -0.00028  -3.14150
   D40        0.00042  -0.00000  -0.00068   0.00026  -0.00043  -0.00000
   D41        0.00002   0.00000  -0.00002   0.00014   0.00012   0.00014
   D42       -3.14115  -0.00000  -0.00007  -0.00023  -0.00030  -3.14145
   D43       -3.14148  -0.00000  -0.00002   0.00006   0.00003  -3.14145
   D44        0.00054  -0.00001  -0.00008  -0.00031  -0.00039   0.00015
         Item               Value     Threshold  Converged?
 Maximum Force            0.000018     0.000450     YES
 RMS     Force            0.000005     0.000300     YES
 Maximum Displacement     0.003177     0.001800     NO 
 RMS     Displacement     0.000553     0.001200     YES
 Predicted change in Energy=-1.574057D-08
 GradGradGradGradGradGradGradGradGradGradGradGradGradGradGradGradGradGrad

                          Input orientation:                          
 ---------------------------------------------------------------------
 Center     Atomic      Atomic             Coordinates (Angstroms)
 Number     Number       Type             X           Y           Z
 ---------------------------------------------------------------------
      1          6           0       -2.227195   -1.808953    0.221026
      2          6           0       -1.163538   -0.755507    0.137169
      3          6           0       -1.523951    0.572658    0.032763
      4          7           0       -0.545790    1.570321   -0.046566
      5          6           0       -0.978867    2.944543   -0.154308
      6          6           0        0.761204    1.237362   -0.021221
      7          6           0        1.186656   -0.064394    0.081065
      8          6           0        2.649727   -0.283073    0.097182
      9          7           0        3.059057   -1.569806    0.197967
     10          8           0        3.465201    0.642404    0.023879
     11          6           0        0.196044   -1.112507    0.164373
     12          1           0       -2.131010   -2.384520    1.154070
     13          1           0       -2.131448   -2.524504   -0.609583
     14          1           0       -3.234001   -1.373968    0.186769
     15          1           0       -2.555899    0.915147    0.006370
     16          1           0       -0.106422    3.603460   -0.207014
     17          1           0       -1.588606    3.081220   -1.059727
     18          1           0       -1.586900    3.221286    0.719741
     19          1           0        1.479546    2.053129   -0.086008
     20          1           0        2.420589   -2.348756    0.259506
     21          1           0        4.049654   -1.765814    0.212771
     22          1           0        0.468651   -2.163828    0.246976
 ---------------------------------------------------------------------
                    Distance matrix (angstroms):
                    1          2          3          4          5
     1  C    0.000000
     2  C    1.499382   0.000000
     3  C    2.490395   1.380153   0.000000
     4  N    3.783942   2.413472   1.399436   0.000000
     5  C    4.928988   3.716105   2.440891   1.444871   0.000000
     6  C    4.274254   2.775112   2.380479   1.348977   2.441317
     7  C    3.836334   2.450347   2.784880   2.385362   3.714646
     8  C    5.111557   3.842627   4.260987   3.696899   4.862865
     9  N    5.291709   4.300824   5.061759   4.786974   6.066983
    10  O    6.200919   4.836550   4.989647   4.117529   5.008127
    11  C    2.521971   1.405935   2.411532   2.791483   4.235756
    12  H    1.100500   2.150296   3.220365   4.426648   5.606978
    13  H    1.100497   2.150311   3.220881   4.427062   5.607690
    14  H    1.097289   2.161428   2.595639   3.993715   4.883800
    15  H    2.752243   2.178730   1.087618   2.114851   2.575131
    16  H    5.828817   4.498506   3.354496   2.086252   1.094582
    17  H    5.095284   4.041500   2.736896   2.096849   1.100112
    18  H    5.095292   4.041474   2.736993   2.096860   1.100114
    19  H    5.361891   3.863177   3.350656   2.082462   2.615928
    20  H    4.679185   3.924204   4.913804   4.924657   6.304488
    21  H    6.277003   5.310726   6.046977   5.684643   6.899873
    22  H    2.719228   2.158580   3.391859   3.880609   5.324641
                    6          7          8          9         10
     6  C    0.000000
     7  C    1.373331   0.000000
     8  C    2.427398   1.479411   0.000000
     9  N    3.634331   2.405373   1.354027   0.000000
    10  O    2.769044   2.386336   1.235670   2.255911   0.000000
    11  C    2.423991   1.444574   2.590953   2.899499   3.713063
    12  H    4.781656   4.188225   5.328089   5.339914   6.461979
    13  H    4.781760   4.187953   5.327585   5.339000   6.461660
    14  H    4.777443   4.611764   5.984675   6.296114   6.997971
    15  H    3.332831   3.869341   5.342520   6.143243   6.027300
    16  H    2.526998   3.899769   4.774310   6.078401   4.645176
    17  H    3.162265   4.347226   5.533568   6.694372   5.715154
    18  H    3.162052   4.346977   5.533274   6.694156   5.714768
    19  H    1.088893   2.144202   2.619298   3.962468   2.438247
    20  H    3.961390   2.602450   2.084682   1.009055   3.177070
    21  H    4.459565   3.333007   2.042468   1.009911   2.485313
    22  H    3.424268   2.225013   2.883881   2.658094   4.111450
                   11         12         13         14         15
    11  C    0.000000
    12  H    2.830671   0.000000
    13  H    2.830187   1.769200   0.000000
    14  H    3.440069   1.781425   1.781441   0.000000
    15  H    3.421920   3.519310   3.520050   2.394246   0.000000
    16  H    4.740228   6.465865   6.466431   5.891656   3.643145
    17  H    4.719189   5.921944   5.649907   4.910171   2.600788
    18  H    4.719013   5.648872   5.922646   4.910536   2.601180
    19  H    3.425101   5.853771   5.853898   5.834117   4.193847
    20  H    2.546755   4.638812   4.637590   5.738457   5.956725
    21  H    3.908895   6.282472   6.281552   7.294234   7.131864
    22  H    1.089227   2.762203   2.761213   3.786441   4.322718
                   16         17         18         19         20
    16  H    0.000000
    17  H    1.787938   0.000000
    18  H    1.787944   1.784973   0.000000
    19  H    2.221140   3.379150   3.378892   0.000000
    20  H    6.483233   6.877403   6.877293   4.514592   0.000000
    21  H    6.802815   7.543406   7.543138   4.612922   1.730855
    22  H    5.813642   5.783625   5.783447   4.349197   1.960718
                   21         22
    21  H    0.000000
    22  H    3.603216   0.000000
 Stoichiometry    C8H11N2O(2)
 Framework group  C1[X(C8H11N2O)]
 Deg. of freedom    60
 Full point group                 C1      NOp   1
 Largest Abelian subgroup         C1      NOp   1
 Largest concise Abelian subgroup C1      NOp   1
                         Standard orientation:                         
 ---------------------------------------------------------------------
 Center     Atomic      Atomic             Coordinates (Angstroms)
 Number     Number       Type             X           Y           Z
 ---------------------------------------------------------------------
      1          6           0       -2.157172    2.467786   -0.000104
      2          6           0       -1.350258    1.204047    0.000009
      3          6           0       -1.993194   -0.017204    0.000093
      4          7           0       -1.257475   -1.207641    0.000135
      5          6           0       -1.981412   -2.458067   -0.000018
      6          6           0        0.090905   -1.167512    0.000041
      7          6           0        0.791515    0.013667   -0.000050
      8          6           0        2.267133   -0.092202   -0.000031
      9          7           0        2.948712    1.077772    0.000206
     10          8           0        2.859935   -1.176391   -0.000210
     11          6           0        0.054708    1.256209   -0.000089
     12          1           0       -1.922504    3.078291   -0.885155
     13          1           0       -1.921416    3.079173    0.884044
     14          1           0       -3.235010    2.262101    0.000643
     15          1           0       -3.075275   -0.126810    0.000280
     16          1           0       -1.274571   -3.293822    0.000154
     17          1           0       -2.621084   -2.527238    0.892328
     18          1           0       -2.620692   -2.527263   -0.892645
     19          1           0        0.612980   -2.123089    0.000057
     20          1           0        2.496500    1.979823    0.000479
     21          1           0        3.958320    1.053033    0.000104
     22          1           0        0.551256    2.225670   -0.000105
 ---------------------------------------------------------------------
 Rotational constants (GHZ):           1.5655811           0.8636211           0.5605193
 Basis read from rwf:  (5D, 7F)
 Pseudo-potential data read from rwf file.
 There are   333 symmetry adapted cartesian basis functions of A   symmetry.
 There are   311 symmetry adapted basis functions of A   symmetry.
   311 basis functions,   465 primitive gaussians,   333 cartesian basis functions
    41 alpha electrons       40 beta electrons
       nuclear repulsion energy       594.9771444430 Hartrees.
 NAtoms=   22 NActive=   22 NUniq=   22 SFac= 1.00D+00 NAtFMM=   60 NAOKFM=F Big=F
 Integral buffers will be    131072 words long.
 Raffenetti 2 integral format.
 Two-electron integral symmetry is turned on.
 Nuclear repulsion after empirical dispersion term =      594.9573067831 Hartrees.
 ------------------------------------------------------------------------------
 Polarizable Continuum Model (PCM)
 =================================
 Model                : PCM.
 Atomic radii         : SMD-Coulomb.
 Polarization charges : Total charges.
 Charge compensation  : None.
 Solution method      : On-the-fly selection.
 Cavity type          : VdW (van der Waals Surface) (Alpha=1.000).
 Cavity algorithm     : GePol (No added spheres)
                        Default sphere list used, NSphG=   22.
                        Lebedev-Laikov grids with approx.  5.0 points / Ang**2.
                        Smoothing algorithm: York/Karplus (Gamma=1.0000).
                        Polarization charges: spherical gaussians, with
                                              point-specific exponents (IZeta= 3).
                        Self-potential: point-specific (ISelfS= 7).
                        Self-field    : sphere-specific E.n sum rule (ISelfD= 2).
 1st derivatives      : Analytical E(r).r(x)/FMM algorithm (CHGder, D1EAlg=3).
                        Cavity 1st derivative terms included.
 Solvent              : DiMethylSulfoxide, Eps=  46.826000 Eps(inf)=   2.007889
 ------------------------------------------------------------------------------
 ------------------------------------------------------------------------------
 Atomic radii for non-electrostatic terms: SMD-CDS.
 ------------------------------------------------------------------------------
 Nuclear repulsion after PCM non-electrostatic terms =      594.9577789238 Hartrees.
 One-electron integrals computed using PRISM.
   1 Symmetry operations used in ECPInt.
 ECPInt:  NShTT=    8911 NPrTT=   24707 LenC2=    8777 LenP2D=   20106.
 LDataN:  DoStor=T MaxTD1= 4 Len=   56
 NBasis=   311 RedAO= T EigKep=  8.88D-06  NBF=   311
 NBsUse=   311 1.00D-06 EigRej= -1.00D+00 NBFU=   311
 Initial guess from the checkpoint file:  "/scratch/aplatt/job_46371443/Gau-3795827.chk"
 B after Tr=    -0.000000    0.000000    0.000000
         Rot=    1.000000   -0.000003    0.000002   -0.000003 Ang=  -0.00 deg.
 Initial guess <Sx>= 0.0000 <Sy>= 0.0000 <Sz>= 0.5000 <S**2>= 0.7682 S= 0.5090
 Requested convergence on RMS density matrix=1.00D-08 within 128 cycles.
 Requested convergence on MAX density matrix=1.00D-06.
 Requested convergence on             energy=1.00D-06.
 No special actions if energy rises.
 Inv3:  Mode=1 IEnd=     9398700.
 Iteration    1 A*A^-1 deviation from unit magnitude is 2.89D-15 for    251.
 Iteration    1 A*A^-1 deviation from orthogonality  is 2.12D-15 for   1282    118.
 Iteration    1 A^-1*A deviation from unit magnitude is 2.89D-15 for    251.
 Iteration    1 A^-1*A deviation from orthogonality  is 2.35D-14 for   1335   1244.
 Error on total polarization charges =  0.03896
 SCF Done:  E(UPBE1PBE) =  -495.324424101     A.U. after   11 cycles
            NFock= 11  Conv=0.42D-08     -V/T= 2.0109
 <Sx>= 0.0000 <Sy>= 0.0000 <Sz>= 0.5000 <S**2>= 0.7682 S= 0.5090
 <L.S>= 0.000000000000E+00
 SMD-CDS (non-electrostatic) energy       (kcal/mol) =       0.30
 (included in total energy above)
 Annihilation of the first spin contaminant:
 S**2 before annihilation     0.7682,   after     0.7501
   1 Symmetry operations used in ECPInt.
 ECPInt:  NShTT=    8911 NPrTT=   24707 LenC2=    8777 LenP2D=   20106.
 LDataN:  DoStor=T MaxTD1= 5 Len=  102
 D1PCM: PCM CHGder 1st derivatives, ID1Alg=3 FixD1E=F DoIter=F DoCFld=F I1PDM=0.
 Calling FoFJK, ICntrl=      2127 FMM=F ISym2X=0 I1Cent= 0 IOpClX= 1 NMat=1 NMatS=1 NMatT=0.
 ***** Axes restored to original set *****
 -------------------------------------------------------------------
 Center     Atomic                   Forces (Hartrees/Bohr)
 Number     Number              X              Y              Z
 -------------------------------------------------------------------
      1        6          -0.000004921    0.000008154   -0.000001979
      2        6           0.000006120    0.000002526    0.000004503
      3        6          -0.000003402   -0.000000296   -0.000007290
      4        7           0.000006753    0.000006622    0.000006234
      5        6           0.000005365    0.000007266   -0.000003520
      6        6           0.000005620   -0.000011478    0.000001126
      7        6           0.000010375    0.000010972   -0.000003596
      8        6          -0.000014989   -0.000010229   -0.000000543
      9        7           0.000003822   -0.000010433    0.000003834
     10        8           0.000007299   -0.000005760    0.000002288
     11        6          -0.000017804   -0.000010508   -0.000004234
     12        1          -0.000006853    0.000004362   -0.000000347
     13        1          -0.000007958    0.000005467   -0.000000933
     14        1          -0.000004700    0.000008810   -0.000000064
     15        1           0.000002684    0.000007756    0.000002187
     16        1           0.000010350   -0.000000342    0.000000168
     17        1           0.000008599    0.000003152   -0.000000161
     18        1           0.000008911    0.000003193   -0.000000222
     19        1           0.000004042   -0.000002244    0.000000066
     20        1          -0.000005270   -0.000004473    0.000001835
     21        1          -0.000006910   -0.000012773   -0.000001885
     22        1          -0.000007133    0.000000257    0.000002530
 -------------------------------------------------------------------
 Cartesian Forces:  Max     0.000017804 RMS     0.000006529

 GradGradGradGradGradGradGradGradGradGradGradGradGradGradGradGradGradGrad
 Berny optimization.
 Using GEDIIS/GDIIS optimizer.
 FormGI is forming the generalized inverse of G from B-inverse, IUseBI=4.
 Internal  Forces:  Max     0.000014017 RMS     0.000002327
 Search for a local minimum.
 Step number  16 out of a maximum of  112
 All quantities printed in internal units (Hartrees-Bohrs-Radians)
 Mixed Optimization -- En-DIIS/RFO-DIIS
 Swapping is turned off.
 Update second derivatives using D2CorX and points    3    4    5    6    7
                                                      8    9   10   11   12
                                                     13   14   15   16
 DE= -2.65D-08 DEPred=-1.57D-08 R= 1.68D+00
 Trust test= 1.68D+00 RLast= 2.47D-03 DXMaxT set to 8.49D-01
 ITU=  0  0  0  0  1  1  1  1  1  1  1  0  0  1  1  0
     Eigenvalues ---    0.00133   0.00371   0.00847   0.01037   0.01158
     Eigenvalues ---    0.01710   0.01810   0.01963   0.02087   0.02252
     Eigenvalues ---    0.02340   0.02381   0.02442   0.02459   0.05405
     Eigenvalues ---    0.07214   0.07419   0.07572   0.07623   0.13679
     Eigenvalues ---    0.15457   0.15998   0.15999   0.16001   0.16004
     Eigenvalues ---    0.16007   0.16016   0.16102   0.16330   0.16383
     Eigenvalues ---    0.18617   0.23233   0.23662   0.24763   0.24977
     Eigenvalues ---    0.25115   0.25880   0.28348   0.33814   0.34692
     Eigenvalues ---    0.34722   0.34927   0.35028   0.35095   0.35364
     Eigenvalues ---    0.35775   0.35859   0.36302   0.36986   0.39052
     Eigenvalues ---    0.40967   0.44172   0.45285   0.46581   0.46947
     Eigenvalues ---    0.50449   0.54247   0.55476   0.58435   0.98548
 En-DIIS/RFO-DIIS/Sim-DIIS IScMMF=       -3 using points:    16   15   14   13   12   11   10    9    8    7
 RFO step:  Lambda=-1.78910404D-09.
 DIIS inversion failure, remove point  10.
 DIIS inversion failure, remove point   9.
 DIIS inversion failure, remove point   8.
 DIIS inversion failure, remove point   7.
 DIIS inversion failure, remove point   6.
 DIIS inversion failure, remove point   5.
 DIIS inversion failure, remove point   4.
 RFO-DIIS uses    3 points instead of   10
 DidBck=F Rises=F RFO-DIIS coefs:    1.40842   -0.49781    0.08939    0.00000    0.00000
                  RFO-DIIS coefs:    0.00000    0.00000    0.00000    0.00000    0.00000
 Iteration  1 RMS(Cart)=  0.00016809 RMS(Int)=  0.00000002
 Iteration  2 RMS(Cart)=  0.00000002 RMS(Int)=  0.00000000
 Variable       Old X    -DE/DX   Delta X   Delta X   Delta X     New X
                                 (Linear)    (Quad)   (Total)
    R1        2.83342   0.00000  -0.00000   0.00000   0.00000   2.83342
    R2        2.07964   0.00000   0.00000  -0.00000   0.00000   2.07965
    R3        2.07964   0.00000   0.00000  -0.00000   0.00000   2.07964
    R4        2.07357   0.00000   0.00000  -0.00000   0.00000   2.07358
    R5        2.60811   0.00000   0.00001   0.00000   0.00001   2.60812
    R6        2.65683  -0.00000  -0.00000  -0.00002  -0.00003   2.65681
    R7        2.64455   0.00000  -0.00000   0.00001   0.00001   2.64456
    R8        2.05530  -0.00000   0.00000  -0.00000  -0.00000   2.05530
    R9        2.73041   0.00000   0.00002   0.00000   0.00002   2.73043
   R10        2.54920   0.00000  -0.00000  -0.00001  -0.00002   2.54918
   R11        2.06846   0.00000  -0.00000  -0.00000  -0.00000   2.06846
   R12        2.07891  -0.00000  -0.00000  -0.00000  -0.00000   2.07891
   R13        2.07891  -0.00000  -0.00000  -0.00000  -0.00000   2.07891
   R14        2.59522  -0.00000  -0.00000   0.00000  -0.00000   2.59522
   R15        2.05771   0.00000   0.00000   0.00000   0.00000   2.05771
   R16        2.79568  -0.00000  -0.00001  -0.00001  -0.00002   2.79566
   R17        2.72985   0.00001   0.00001   0.00003   0.00004   2.72989
   R18        2.55874   0.00000   0.00001   0.00001   0.00001   2.55876
   R19        2.33508   0.00001  -0.00000   0.00001   0.00001   2.33509
   R20        1.90684  -0.00000  -0.00000  -0.00000  -0.00000   1.90683
   R21        1.90846  -0.00000  -0.00000   0.00000  -0.00000   1.90845
   R22        2.05834  -0.00000   0.00000  -0.00001  -0.00000   2.05834
    A1        1.93143   0.00000   0.00001   0.00000   0.00001   1.93144
    A2        1.93146   0.00000   0.00000   0.00000   0.00000   1.93146
    A3        1.95049   0.00000  -0.00000  -0.00000  -0.00000   1.95049
    A4        1.86737  -0.00000  -0.00000  -0.00000  -0.00001   1.86737
    A5        1.89019  -0.00000   0.00000  -0.00000   0.00000   1.89019
    A6        1.89022  -0.00000  -0.00000  -0.00000  -0.00001   1.89021
    A7        2.08875  -0.00000  -0.00001  -0.00001  -0.00002   2.08873
    A8        2.10194   0.00000   0.00001   0.00000   0.00001   2.10196
    A9        2.09249   0.00000  -0.00000   0.00001   0.00001   2.09250
   A10        2.10344   0.00000   0.00000  -0.00001  -0.00001   2.10343
   A11        2.15633   0.00000  -0.00001   0.00002   0.00001   2.15634
   A12        2.02342  -0.00000   0.00001  -0.00001   0.00000   2.02342
   A13        2.06323  -0.00000  -0.00000  -0.00001  -0.00001   2.06322
   A14        2.09461  -0.00000   0.00000   0.00000   0.00000   2.09462
   A15        2.12535   0.00000   0.00000   0.00000   0.00001   2.12535
   A16        1.91477  -0.00000  -0.00001   0.00000  -0.00001   1.91476
   A17        1.92374  -0.00000  -0.00001  -0.00000  -0.00002   1.92373
   A18        1.92376  -0.00000  -0.00001  -0.00000  -0.00001   1.92374
   A19        1.90429   0.00000   0.00001   0.00000   0.00001   1.90431
   A20        1.90430   0.00000   0.00001   0.00000   0.00001   1.90431
   A21        1.89264   0.00000   0.00001   0.00000   0.00001   1.89265
   A22        2.13591   0.00000  -0.00000   0.00002   0.00001   2.13593
   A23        2.04108  -0.00000   0.00000  -0.00002  -0.00001   2.04106
   A24        2.10620   0.00000  -0.00000  -0.00000  -0.00000   2.10620
   A25        2.03454  -0.00000   0.00000   0.00000   0.00000   2.03454
   A26        2.07098  -0.00000   0.00000  -0.00002  -0.00002   2.07097
   A27        2.17766   0.00000  -0.00000   0.00002   0.00002   2.17768
   A28        2.02667   0.00001  -0.00001   0.00003   0.00002   2.02669
   A29        2.14278  -0.00000   0.00001  -0.00000   0.00000   2.14278
   A30        2.11374  -0.00001   0.00001  -0.00003  -0.00002   2.11371
   A31        2.14940  -0.00000  -0.00002   0.00001  -0.00001   2.14939
   A32        2.07379   0.00000   0.00002  -0.00000   0.00001   2.07381
   A33        2.05999  -0.00000   0.00000  -0.00001  -0.00000   2.05999
   A34        2.06893  -0.00000   0.00000   0.00000   0.00000   2.06893
   A35        2.08126  -0.00000   0.00001  -0.00001   0.00000   2.08126
   A36        2.13300   0.00000  -0.00001   0.00001  -0.00000   2.13299
    D1       -2.10735  -0.00000  -0.00007  -0.00009  -0.00015  -2.10750
    D2        1.03414  -0.00000  -0.00004  -0.00007  -0.00012   1.03403
    D3        2.10888  -0.00000  -0.00007  -0.00009  -0.00015   2.10872
    D4       -1.03281  -0.00000  -0.00004  -0.00008  -0.00012  -1.03293
    D5        0.00074  -0.00000  -0.00006  -0.00008  -0.00015   0.00059
    D6       -3.14095  -0.00000  -0.00004  -0.00007  -0.00011  -3.14107
    D7        3.14154  -0.00000   0.00001  -0.00000   0.00001   3.14155
    D8       -0.00022   0.00000   0.00004   0.00004   0.00008  -0.00014
    D9        0.00004  -0.00000  -0.00001  -0.00001  -0.00003   0.00002
   D10        3.14147   0.00000   0.00002   0.00003   0.00005   3.14152
   D11       -3.14153   0.00000   0.00001   0.00001   0.00001  -3.14152
   D12        0.00015  -0.00000  -0.00002  -0.00002  -0.00004   0.00011
   D13       -0.00004   0.00000   0.00003   0.00002   0.00005   0.00001
   D14       -3.14154  -0.00000  -0.00000  -0.00000  -0.00001  -3.14155
   D15       -3.14140  -0.00000  -0.00002  -0.00002  -0.00004  -3.14145
   D16       -0.00004   0.00000   0.00000   0.00000   0.00000  -0.00004
   D17        0.00034  -0.00000  -0.00005  -0.00006  -0.00011   0.00023
   D18       -3.14148  -0.00000  -0.00003  -0.00004  -0.00007  -3.14155
   D19       -3.14148   0.00000   0.00002   0.00002   0.00004  -3.14144
   D20       -1.04417   0.00000   0.00002   0.00002   0.00004  -1.04413
   D21        1.04439   0.00000   0.00002   0.00002   0.00004   1.04442
   D22        0.00035  -0.00000  -0.00001   0.00000  -0.00001   0.00035
   D23        2.09766  -0.00000  -0.00000   0.00000  -0.00000   2.09765
   D24       -2.09697  -0.00000  -0.00001   0.00000  -0.00001  -2.09698
   D25        0.00004  -0.00000  -0.00001   0.00001  -0.00000   0.00004
   D26       -3.14157  -0.00000  -0.00000   0.00001   0.00001  -3.14156
   D27        3.14139   0.00000   0.00002   0.00003   0.00004   3.14143
   D28       -0.00022   0.00000   0.00002   0.00003   0.00006  -0.00016
   D29        3.14151   0.00000   0.00006   0.00004   0.00010  -3.14159
   D30       -0.00003   0.00000   0.00003  -0.00000   0.00003  -0.00001
   D31       -0.00007   0.00000   0.00005   0.00003   0.00008   0.00001
   D32        3.14158   0.00000   0.00002  -0.00001   0.00001   3.14159
   D33       -3.14132  -0.00000  -0.00034   0.00002  -0.00032   3.14154
   D34        0.00026  -0.00000  -0.00032  -0.00000  -0.00032  -0.00006
   D35        0.00021  -0.00000  -0.00031   0.00007  -0.00025  -0.00004
   D36       -3.14139   0.00000  -0.00028   0.00004  -0.00024   3.14155
   D37        0.00003  -0.00000  -0.00004  -0.00001  -0.00005  -0.00002
   D38        3.14153   0.00000  -0.00001   0.00001   0.00001   3.14154
   D39       -3.14150  -0.00000  -0.00007  -0.00005  -0.00012   3.14156
   D40       -0.00000   0.00000  -0.00004  -0.00003  -0.00007  -0.00007
   D41        0.00014  -0.00000  -0.00002  -0.00013  -0.00015  -0.00001
   D42       -3.14145  -0.00000  -0.00008  -0.00001  -0.00009  -3.14154
   D43       -3.14145  -0.00000  -0.00004  -0.00011  -0.00015   3.14159
   D44        0.00015  -0.00000  -0.00011   0.00002  -0.00009   0.00005
         Item               Value     Threshold  Converged?
 Maximum Force            0.000014     0.000450     YES
 RMS     Force            0.000002     0.000300     YES
 Maximum Displacement     0.001018     0.001800     YES
 RMS     Displacement     0.000168     0.001200     YES
 Predicted change in Energy=-2.120835D-09
 Optimization completed.
    -- Stationary point found.
                           ----------------------------
                           !   Optimized Parameters   !
                           ! (Angstroms and Degrees)  !
 --------------------------                            --------------------------
 ! Name  Definition              Value          Derivative Info.                !
 --------------------------------------------------------------------------------
 ! R1    R(1,2)                  1.4994         -DE/DX =    0.0                 !
 ! R2    R(1,12)                 1.1005         -DE/DX =    0.0                 !
 ! R3    R(1,13)                 1.1005         -DE/DX =    0.0                 !
 ! R4    R(1,14)                 1.0973         -DE/DX =    0.0                 !
 ! R5    R(2,3)                  1.3802         -DE/DX =    0.0                 !
 ! R6    R(2,11)                 1.4059         -DE/DX =    0.0                 !
 ! R7    R(3,4)                  1.3994         -DE/DX =    0.0                 !
 ! R8    R(3,15)                 1.0876         -DE/DX =    0.0                 !
 ! R9    R(4,5)                  1.4449         -DE/DX =    0.0                 !
 ! R10   R(4,6)                  1.349          -DE/DX =    0.0                 !
 ! R11   R(5,16)                 1.0946         -DE/DX =    0.0                 !
 ! R12   R(5,17)                 1.1001         -DE/DX =    0.0                 !
 ! R13   R(5,18)                 1.1001         -DE/DX =    0.0                 !
 ! R14   R(6,7)                  1.3733         -DE/DX =    0.0                 !
 ! R15   R(6,19)                 1.0889         -DE/DX =    0.0                 !
 ! R16   R(7,8)                  1.4794         -DE/DX =    0.0                 !
 ! R17   R(7,11)                 1.4446         -DE/DX =    0.0                 !
 ! R18   R(8,9)                  1.354          -DE/DX =    0.0                 !
 ! R19   R(8,10)                 1.2357         -DE/DX =    0.0                 !
 ! R20   R(9,20)                 1.0091         -DE/DX =    0.0                 !
 ! R21   R(9,21)                 1.0099         -DE/DX =    0.0                 !
 ! R22   R(11,22)                1.0892         -DE/DX =    0.0                 !
 ! A1    A(2,1,12)             110.663          -DE/DX =    0.0                 !
 ! A2    A(2,1,13)             110.6645         -DE/DX =    0.0                 !
 ! A3    A(2,1,14)             111.7549         -DE/DX =    0.0                 !
 ! A4    A(12,1,13)            106.9924         -DE/DX =    0.0                 !
 ! A5    A(12,1,14)            108.3            -DE/DX =    0.0                 !
 ! A6    A(13,1,14)            108.3016         -DE/DX =    0.0                 !
 ! A7    A(1,2,3)              119.6764         -DE/DX =    0.0                 !
 ! A8    A(1,2,11)             120.4325         -DE/DX =    0.0                 !
 ! A9    A(3,2,11)             119.8911         -DE/DX =    0.0                 !
 ! A10   A(2,3,4)              120.518          -DE/DX =    0.0                 !
 ! A11   A(2,3,15)             123.5487         -DE/DX =    0.0                 !
 ! A12   A(4,3,15)             115.9333         -DE/DX =    0.0                 !
 ! A13   A(3,4,5)              118.2141         -DE/DX =    0.0                 !
 ! A14   A(3,4,6)              120.0125         -DE/DX =    0.0                 !
 ! A15   A(5,4,6)              121.7734         -DE/DX =    0.0                 !
 ! A16   A(4,5,16)             109.7083         -DE/DX =    0.0                 !
 ! A17   A(4,5,17)             110.2224         -DE/DX =    0.0                 !
 ! A18   A(4,5,18)             110.2231         -DE/DX =    0.0                 !
 ! A19   A(16,5,17)            109.1081         -DE/DX =    0.0                 !
 ! A20   A(16,5,18)            109.1084         -DE/DX =    0.0                 !
 ! A21   A(17,5,18)            108.44           -DE/DX =    0.0                 !
 ! A22   A(4,6,7)              122.3787         -DE/DX =    0.0                 !
 ! A23   A(4,6,19)             116.9451         -DE/DX =    0.0                 !
 ! A24   A(7,6,19)             120.6762         -DE/DX =    0.0                 !
 ! A25   A(6,7,8)              116.5704         -DE/DX =    0.0                 !
 ! A26   A(6,7,11)             118.6587         -DE/DX =    0.0                 !
 ! A27   A(8,7,11)             124.7709         -DE/DX =    0.0                 !
 ! A28   A(7,8,9)              116.1196         -DE/DX =    0.0                 !
 ! A29   A(7,8,10)             122.7722         -DE/DX =    0.0                 !
 ! A30   A(9,8,10)             121.1082         -DE/DX =    0.0                 !
 ! A31   A(8,9,20)             123.1514         -DE/DX =    0.0                 !
 ! A32   A(8,9,21)             118.8196         -DE/DX =    0.0                 !
 ! A33   A(20,9,21)            118.029          -DE/DX =    0.0                 !
 ! A34   A(2,11,7)             118.541          -DE/DX =    0.0                 !
 ! A35   A(2,11,22)            119.2472         -DE/DX =    0.0                 !
 ! A36   A(7,11,22)            122.2117         -DE/DX =    0.0                 !
 ! D1    D(12,1,2,3)          -120.7423         -DE/DX =    0.0                 !
 ! D2    D(12,1,2,11)           59.2521         -DE/DX =    0.0                 !
 ! D3    D(13,1,2,3)           120.8298         -DE/DX =    0.0                 !
 ! D4    D(13,1,2,11)          -59.1759         -DE/DX =    0.0                 !
 ! D5    D(14,1,2,3)             0.0422         -DE/DX =    0.0                 !
 ! D6    D(14,1,2,11)         -179.9634         -DE/DX =    0.0                 !
 ! D7    D(1,2,3,4)            179.997          -DE/DX =    0.0                 !
 ! D8    D(1,2,3,15)            -0.0125         -DE/DX =    0.0                 !
 ! D9    D(11,2,3,4)             0.0026         -DE/DX =    0.0                 !
 ! D10   D(11,2,3,15)          179.9931         -DE/DX =    0.0                 !
 ! D11   D(1,2,11,7)          -179.9965         -DE/DX =    0.0                 !
 ! D12   D(1,2,11,22)            0.0086         -DE/DX =    0.0                 !
 ! D13   D(3,2,11,7)            -0.0022         -DE/DX =    0.0                 !
 ! D14   D(3,2,11,22)         -179.997          -DE/DX =    0.0                 !
 ! D15   D(2,3,4,5)           -179.9892         -DE/DX =    0.0                 !
 ! D16   D(2,3,4,6)             -0.0026         -DE/DX =    0.0                 !
 ! D17   D(15,3,4,5)             0.0196         -DE/DX =    0.0                 !
 ! D18   D(15,3,4,6)          -179.9938         -DE/DX =    0.0                 !
 ! D19   D(3,4,5,16)          -179.9935         -DE/DX =    0.0                 !
 ! D20   D(3,4,5,17)           -59.8268         -DE/DX =    0.0                 !
 ! D21   D(3,4,5,18)            59.8389         -DE/DX =    0.0                 !
 ! D22   D(6,4,5,16)             0.0201         -DE/DX =    0.0                 !
 ! D23   D(6,4,5,17)           120.1868         -DE/DX =    0.0                 !
 ! D24   D(6,4,5,18)          -120.1475         -DE/DX =    0.0                 !
 ! D25   D(3,4,6,7)              0.0023         -DE/DX =    0.0                 !
 ! D26   D(3,4,6,19)          -179.9986         -DE/DX =    0.0                 !
 ! D27   D(5,4,6,7)            179.9884         -DE/DX =    0.0                 !
 ! D28   D(5,4,6,19)            -0.0125         -DE/DX =    0.0                 !
 ! D29   D(4,6,7,8)           -180.005          -DE/DX =    0.0                 !
 ! D30   D(4,6,7,11)            -0.0019         -DE/DX =    0.0                 !
 ! D31   D(19,6,7,8)            -0.0041         -DE/DX =    0.0                 !
 ! D32   D(19,6,7,11)          179.999          -DE/DX =    0.0                 !
 ! D33   D(6,7,8,9)            180.0154         -DE/DX =    0.0                 !
 ! D34   D(6,7,8,10)             0.015          -DE/DX =    0.0                 !
 ! D35   D(11,7,8,9)             0.0121         -DE/DX =    0.0                 !
 ! D36   D(11,7,8,10)          180.0117         -DE/DX =    0.0                 !
 ! D37   D(6,7,11,2)             0.0019         -DE/DX =    0.0                 !
 ! D38   D(6,7,11,22)          179.9965         -DE/DX =    0.0                 !
 ! D39   D(8,7,11,2)           180.0052         -DE/DX =    0.0                 !
 ! D40   D(8,7,11,22)           -0.0001         -DE/DX =    0.0                 !
 ! D41   D(7,8,9,20)             0.0079         -DE/DX =    0.0                 !
 ! D42   D(7,8,9,21)          -179.992          -DE/DX =    0.0                 !
 ! D43   D(10,8,9,20)          180.0084         -DE/DX =    0.0                 !
 ! D44   D(10,8,9,21)            0.0085         -DE/DX =    0.0                 !
 --------------------------------------------------------------------------------
 GradGradGradGradGradGradGradGradGradGradGradGradGradGradGradGradGradGrad

                          Input orientation:                          
 ---------------------------------------------------------------------
 Center     Atomic      Atomic             Coordinates (Angstroms)
 Number     Number       Type             X           Y           Z
 ---------------------------------------------------------------------
      1          6           0       -2.227195   -1.808953    0.221026
      2          6           0       -1.163538   -0.755507    0.137169
      3          6           0       -1.523951    0.572658    0.032763
      4          7           0       -0.545790    1.570321   -0.046566
      5          6           0       -0.978867    2.944543   -0.154308
      6          6           0        0.761204    1.237362   -0.021221
      7          6           0        1.186656   -0.064394    0.081065
      8          6           0        2.649727   -0.283073    0.097182
      9          7           0        3.059057   -1.569806    0.197967
     10          8           0        3.465201    0.642404    0.023879
     11          6           0        0.196044   -1.112507    0.164373
     12          1           0       -2.131010   -2.384520    1.154070
     13          1           0       -2.131448   -2.524504   -0.609583
     14          1           0       -3.234001   -1.373968    0.186769
     15          1           0       -2.555899    0.915147    0.006370
     16          1           0       -0.106422    3.603460   -0.207014
     17          1           0       -1.588606    3.081220   -1.059727
     18          1           0       -1.586900    3.221286    0.719741
     19          1           0        1.479546    2.053129   -0.086008
     20          1           0        2.420589   -2.348756    0.259506
     21          1           0        4.049654   -1.765814    0.212771
     22          1           0        0.468651   -2.163828    0.246976
 ---------------------------------------------------------------------
                    Distance matrix (angstroms):
                    1          2          3          4          5
     1  C    0.000000
     2  C    1.499382   0.000000
     3  C    2.490395   1.380153   0.000000
     4  N    3.783942   2.413472   1.399436   0.000000
     5  C    4.928988   3.716105   2.440891   1.444871   0.000000
     6  C    4.274254   2.775112   2.380479   1.348977   2.441317
     7  C    3.836334   2.450347   2.784880   2.385362   3.714646
     8  C    5.111557   3.842627   4.260987   3.696899   4.862865
     9  N    5.291709   4.300824   5.061759   4.786974   6.066983
    10  O    6.200919   4.836550   4.989647   4.117529   5.008127
    11  C    2.521971   1.405935   2.411532   2.791483   4.235756
    12  H    1.100500   2.150296   3.220365   4.426648   5.606978
    13  H    1.100497   2.150311   3.220881   4.427062   5.607690
    14  H    1.097289   2.161428   2.595639   3.993715   4.883800
    15  H    2.752243   2.178730   1.087618   2.114851   2.575131
    16  H    5.828817   4.498506   3.354496   2.086252   1.094582
    17  H    5.095284   4.041500   2.736896   2.096849   1.100112
    18  H    5.095292   4.041474   2.736993   2.096860   1.100114
    19  H    5.361891   3.863177   3.350656   2.082462   2.615928
    20  H    4.679185   3.924204   4.913804   4.924657   6.304488
    21  H    6.277003   5.310726   6.046977   5.684643   6.899873
    22  H    2.719228   2.158580   3.391859   3.880609   5.324641
                    6          7          8          9         10
     6  C    0.000000
     7  C    1.373331   0.000000
     8  C    2.427398   1.479411   0.000000
     9  N    3.634331   2.405373   1.354027   0.000000
    10  O    2.769044   2.386336   1.235670   2.255911   0.000000
    11  C    2.423991   1.444574   2.590953   2.899499   3.713063
    12  H    4.781656   4.188225   5.328089   5.339914   6.461979
    13  H    4.781760   4.187953   5.327585   5.339000   6.461660
    14  H    4.777443   4.611764   5.984675   6.296114   6.997971
    15  H    3.332831   3.869341   5.342520   6.143243   6.027300
    16  H    2.526998   3.899769   4.774310   6.078401   4.645176
    17  H    3.162265   4.347226   5.533568   6.694372   5.715154
    18  H    3.162052   4.346977   5.533274   6.694156   5.714768
    19  H    1.088893   2.144202   2.619298   3.962468   2.438247
    20  H    3.961390   2.602450   2.084682   1.009055   3.177070
    21  H    4.459565   3.333007   2.042468   1.009911   2.485313
    22  H    3.424268   2.225013   2.883881   2.658094   4.111450
                   11         12         13         14         15
    11  C    0.000000
    12  H    2.830671   0.000000
    13  H    2.830187   1.769200   0.000000
    14  H    3.440069   1.781425   1.781441   0.000000
    15  H    3.421920   3.519310   3.520050   2.394246   0.000000
    16  H    4.740228   6.465865   6.466431   5.891656   3.643145
    17  H    4.719189   5.921944   5.649907   4.910171   2.600788
    18  H    4.719013   5.648872   5.922646   4.910536   2.601180
    19  H    3.425101   5.853771   5.853898   5.834117   4.193847
    20  H    2.546755   4.638812   4.637590   5.738457   5.956725
    21  H    3.908895   6.282472   6.281552   7.294234   7.131864
    22  H    1.089227   2.762203   2.761213   3.786441   4.322718
                   16         17         18         19         20
    16  H    0.000000
    17  H    1.787938   0.000000
    18  H    1.787944   1.784973   0.000000
    19  H    2.221140   3.379150   3.378892   0.000000
    20  H    6.483233   6.877403   6.877293   4.514592   0.000000
    21  H    6.802815   7.543406   7.543138   4.612922   1.730855
    22  H    5.813642   5.783625   5.783447   4.349197   1.960718
                   21         22
    21  H    0.000000
    22  H    3.603216   0.000000
 Stoichiometry    C8H11N2O(2)
 Framework group  C1[X(C8H11N2O)]
 Deg. of freedom    60
 Full point group                 C1      NOp   1
 Largest Abelian subgroup         C1      NOp   1
 Largest concise Abelian subgroup C1      NOp   1
                         Standard orientation:                         
 ---------------------------------------------------------------------
 Center     Atomic      Atomic             Coordinates (Angstroms)
 Number     Number       Type             X           Y           Z
 ---------------------------------------------------------------------
      1          6           0       -2.157172    2.467786   -0.000104
      2          6           0       -1.350258    1.204047    0.000009
      3          6           0       -1.993194   -0.017204    0.000093
      4          7           0       -1.257475   -1.207641    0.000135
      5          6           0       -1.981412   -2.458067   -0.000018
      6          6           0        0.090905   -1.167512    0.000041
      7          6           0        0.791515    0.013667   -0.000050
      8          6           0        2.267133   -0.092202   -0.000031
      9          7           0        2.948712    1.077772    0.000206
     10          8           0        2.859935   -1.176391   -0.000210
     11          6           0        0.054708    1.256209   -0.000089
     12          1           0       -1.922504    3.078291   -0.885155
     13          1           0       -1.921416    3.079173    0.884044
     14          1           0       -3.235010    2.262101    0.000643
     15          1           0       -3.075275   -0.126810    0.000280
     16          1           0       -1.274571   -3.293822    0.000154
     17          1           0       -2.621084   -2.527238    0.892328
     18          1           0       -2.620692   -2.527263   -0.892645
     19          1           0        0.612980   -2.123089    0.000057
     20          1           0        2.496500    1.979823    0.000479
     21          1           0        3.958320    1.053033    0.000104
     22          1           0        0.551256    2.225670   -0.000105
 ---------------------------------------------------------------------
 Rotational constants (GHZ):           1.5655811           0.8636211           0.5605193

 **********************************************************************

            Population analysis using the SCF Density.

 **********************************************************************

 Orbital symmetries:
 Alpha Orbitals:
       Occupied  (A) (A) (A) (A) (A) (A) (A) (A) (A) (A) (A) (A)
                 (A) (A) (A) (A) (A) (A) (A) (A) (A) (A) (A) (A)
                 (A) (A) (A) (A) (A) (A) (A) (A) (A) (A) (A) (A)
                 (A) (A) (A) (A) (A)
       Virtual   (A) (A) (A) (A) (A) (A) (A) (A) (A) (A) (A) (A)
                 (A) (A) (A) (A) (A) (A) (A) (A) (A) (A) (A) (A)
                 (A) (A) (A) (A) (A) (A) (A) (A) (A) (A) (A) (A)
                 (A) (A) (A) (A) (A) (A) (A) (A) (A) (A) (A) (A)
                 (A) (A) (A) (A) (A) (A) (A) (A) (A) (A) (A) (A)
                 (A) (A) (A) (A) (A) (A) (A) (A) (A) (A) (A) (A)
                 (A) (A) (A) (A) (A) (A) (A) (A) (A) (A) (A) (A)
                 (A) (A) (A) (A) (A) (A) (A) (A) (A) (A) (A) (A)
                 (A) (A) (A) (A) (A) (A) (A) (A) (A) (A) (A) (A)
                 (A) (A) (A) (A) (A) (A) (A) (A) (A) (A) (A) (A)
                 (A) (A) (A) (A) (A) (A) (A) (A) (A) (A) (A) (A)
                 (A) (A) (A) (A) (A) (A) (A) (A) (A) (A) (A) (A)
                 (A) (A) (A) (A) (A) (A) (A) (A) (A) (A) (A) (A)
                 (A) (A) (A) (A) (A) (A) (A) (A) (A) (A) (A) (A)
                 (A) (A) (A) (A) (A) (A) (A) (A) (A) (A) (A) (A)
                 (A) (A) (A) (A) (A) (A) (A) (A) (A) (A) (A) (A)
                 (A) (A) (A) (A) (A) (A) (A) (A) (A) (A) (A) (A)
                 (A) (A) (A) (A) (A) (A) (A) (A) (A) (A) (A) (A)
                 (A) (A) (A) (A) (A) (A) (A) (A) (A) (A) (A) (A)
                 (A) (A) (A) (A) (A) (A) (A) (A) (A) (A) (A) (A)
                 (A) (A) (A) (A) (A) (A) (A) (A) (A) (A) (A) (A)
                 (A) (A) (A) (A) (A) (A) (A) (A) (A) (A) (A) (A)
                 (A) (A) (A) (A) (A) (A)
 Beta  Orbitals:
       Occupied  (A) (A) (A) (A) (A) (A) (A) (A) (A) (A) (A) (A)
                 (A) (A) (A) (A) (A) (A) (A) (A) (A) (A) (A) (A)
                 (A) (A) (A) (A) (A) (A) (A) (A) (A) (A) (A) (A)
                 (A) (A) (A) (A)
       Virtual   (A) (A) (A) (A) (A) (A) (A) (A) (A) (A) (A) (A)
                 (A) (A) (A) (A) (A) (A) (A) (A) (A) (A) (A) (A)
                 (A) (A) (A) (A) (A) (A) (A) (A) (A) (A) (A) (A)
                 (A) (A) (A) (A) (A) (A) (A) (A) (A) (A) (A) (A)
                 (A) (A) (A) (A) (A) (A) (A) (A) (A) (A) (A) (A)
                 (A) (A) (A) (A) (A) (A) (A) (A) (A) (A) (A) (A)
                 (A) (A) (A) (A) (A) (A) (A) (A) (A) (A) (A) (A)
                 (A) (A) (A) (A) (A) (A) (A) (A) (A) (A) (A) (A)
                 (A) (A) (A) (A) (A) (A) (A) (A) (A) (A) (A) (A)
                 (A) (A) (A) (A) (A) (A) (A) (A) (A) (A) (A) (A)
                 (A) (A) (A) (A) (A) (A) (A) (A) (A) (A) (A) (A)
                 (A) (A) (A) (A) (A) (A) (A) (A) (A) (A) (A) (A)
                 (A) (A) (A) (A) (A) (A) (A) (A) (A) (A) (A) (A)
                 (A) (A) (A) (A) (A) (A) (A) (A) (A) (A) (A) (A)
                 (A) (A) (A) (A) (A) (A) (A) (A) (A) (A) (A) (A)
                 (A) (A) (A) (A) (A) (A) (A) (A) (A) (A) (A) (A)
                 (A) (A) (A) (A) (A) (A) (A) (A) (A) (A) (A) (A)
                 (A) (A) (A) (A) (A) (A) (A) (A) (A) (A) (A) (A)
                 (A) (A) (A) (A) (A) (A) (A) (A) (A) (A) (A) (A)
                 (A) (A) (A) (A) (A) (A) (A) (A) (A) (A) (A) (A)
                 (A) (A) (A) (A) (A) (A) (A) (A) (A) (A) (A) (A)
                 (A) (A) (A) (A) (A) (A) (A) (A) (A) (A) (A) (A)
                 (A) (A) (A) (A) (A) (A) (A)
 The electronic state is 2-A.
 Alpha  occ. eigenvalues --  -19.17036 -14.45468 -14.40305 -10.32882 -10.27884
 Alpha  occ. eigenvalues --  -10.26255 -10.25653 -10.24769 -10.23740 -10.22546
 Alpha  occ. eigenvalues --  -10.22513  -1.04266  -1.00635  -0.91072  -0.84240
 Alpha  occ. eigenvalues --   -0.80305  -0.73261  -0.71335  -0.67279  -0.62687
 Alpha  occ. eigenvalues --   -0.59498  -0.55683  -0.52821  -0.50742  -0.49032
 Alpha  occ. eigenvalues --   -0.48458  -0.46354  -0.43707  -0.43374  -0.42419
 Alpha  occ. eigenvalues --   -0.42321  -0.41094  -0.39625  -0.37692  -0.37367
 Alpha  occ. eigenvalues --   -0.36431  -0.30108  -0.28270  -0.27842  -0.26891
 Alpha  occ. eigenvalues --   -0.13195
 Alpha virt. eigenvalues --   -0.02941   0.02757   0.04437   0.04745   0.05097
 Alpha virt. eigenvalues --    0.07401   0.08003   0.08212   0.09125   0.10922
 Alpha virt. eigenvalues --    0.11162   0.11767   0.12044   0.12925   0.13303
 Alpha virt. eigenvalues --    0.13973   0.14768   0.16016   0.16079   0.16346
 Alpha virt. eigenvalues --    0.17741   0.17759   0.18164   0.18996   0.19005
 Alpha virt. eigenvalues --    0.20291   0.20844   0.22231   0.22537   0.23518
 Alpha virt. eigenvalues --    0.23876   0.25368   0.25991   0.26022   0.26416
 Alpha virt. eigenvalues --    0.27176   0.27372   0.29035   0.29988   0.30042
 Alpha virt. eigenvalues --    0.30386   0.30595   0.32034   0.32284   0.32712
 Alpha virt. eigenvalues --    0.33945   0.34299   0.34584   0.35521   0.35849
 Alpha virt. eigenvalues --    0.36144   0.36438   0.37035   0.37183   0.37634
 Alpha virt. eigenvalues --    0.38600   0.38739   0.38863   0.38914   0.40455
 Alpha virt. eigenvalues --    0.40888   0.40897   0.41870   0.42112   0.42190
 Alpha virt. eigenvalues --    0.42615   0.42803   0.43452   0.44347   0.45129
 Alpha virt. eigenvalues --    0.45769   0.46888   0.47306   0.47687   0.48602
 Alpha virt. eigenvalues --    0.48788   0.49771   0.50143   0.50165   0.50916
 Alpha virt. eigenvalues --    0.51996   0.52273   0.52772   0.53413   0.53956
 Alpha virt. eigenvalues --    0.54993   0.55219   0.55600   0.55995   0.56987
 Alpha virt. eigenvalues --    0.57706   0.58284   0.60088   0.60283   0.60736
 Alpha virt. eigenvalues --    0.61977   0.62052   0.63001   0.63696   0.64662
 Alpha virt. eigenvalues --    0.66490   0.67393   0.68828   0.69498   0.70176
 Alpha virt. eigenvalues --    0.70188   0.70994   0.71690   0.71742   0.73002
 Alpha virt. eigenvalues --    0.73393   0.74345   0.74515   0.76144   0.76811
 Alpha virt. eigenvalues --    0.77110   0.78393   0.79874   0.81240   0.81635
 Alpha virt. eigenvalues --    0.83119   0.85153   0.85364   0.86643   0.88633
 Alpha virt. eigenvalues --    0.89620   0.91254   0.92479   0.95831   0.96485
 Alpha virt. eigenvalues --    0.96547   0.97775   0.98213   0.99579   1.00777
 Alpha virt. eigenvalues --    1.02457   1.02528   1.03532   1.04854   1.05376
 Alpha virt. eigenvalues --    1.06155   1.06649   1.08784   1.10525   1.11533
 Alpha virt. eigenvalues --    1.13193   1.13991   1.16300   1.17168   1.18741
 Alpha virt. eigenvalues --    1.22515   1.23139   1.24835   1.26233   1.27135
 Alpha virt. eigenvalues --    1.27537   1.30593   1.32158   1.33147   1.34053
 Alpha virt. eigenvalues --    1.36406   1.36697   1.37778   1.38316   1.40661
 Alpha virt. eigenvalues --    1.42633   1.43630   1.47575   1.51171   1.52479
 Alpha virt. eigenvalues --    1.56334   1.58679   1.58866   1.59926   1.61426
 Alpha virt. eigenvalues --    1.62566   1.62809   1.63998   1.65565   1.66078
 Alpha virt. eigenvalues --    1.68562   1.69870   1.70491   1.72138   1.74562
 Alpha virt. eigenvalues --    1.75936   1.76148   1.78009   1.78792   1.80472
 Alpha virt. eigenvalues --    1.82119   1.83122   1.84732   1.84778   1.86532
 Alpha virt. eigenvalues --    1.91206   1.92495   1.94124   1.95564   1.96798
 Alpha virt. eigenvalues --    1.97371   1.99328   1.99789   2.02218   2.03342
 Alpha virt. eigenvalues --    2.04308   2.05575   2.05711   2.08133   2.10835
 Alpha virt. eigenvalues --    2.11135   2.13576   2.14915   2.16114   2.16238
 Alpha virt. eigenvalues --    2.18913   2.21249   2.23130   2.23218   2.24295
 Alpha virt. eigenvalues --    2.24912   2.27346   2.29479   2.37044   2.37230
 Alpha virt. eigenvalues --    2.38783   2.41060   2.41784   2.42619   2.47020
 Alpha virt. eigenvalues --    2.47417   2.48790   2.51584   2.52437   2.54322
 Alpha virt. eigenvalues --    2.56681   2.64023   2.65647   2.66076   2.66983
 Alpha virt. eigenvalues --    2.68046   2.71658   2.72016   2.75279   2.75881
 Alpha virt. eigenvalues --    2.78850   2.85228   2.91148   2.92118   2.95642
 Alpha virt. eigenvalues --    2.95690   3.00177   3.02630   3.06008   3.07086
 Alpha virt. eigenvalues --    3.09385   3.12297   3.14987   3.17136   3.18673
 Alpha virt. eigenvalues --    3.20782   3.21968   3.22727   3.24753   3.35271
 Alpha virt. eigenvalues --    3.43509   3.55197   3.60831   3.74280   3.88771
  Beta  occ. eigenvalues --  -19.16910 -14.44971 -14.40310 -10.32852 -10.27882
  Beta  occ. eigenvalues --  -10.26289 -10.25085 -10.25018 -10.23667 -10.22499
  Beta  occ. eigenvalues --  -10.21778  -1.04075  -0.99797  -0.91007  -0.83666
  Beta  occ. eigenvalues --   -0.79879  -0.72870  -0.71004  -0.66360  -0.62169
  Beta  occ. eigenvalues --   -0.59404  -0.55573  -0.52595  -0.50314  -0.48697
  Beta  occ. eigenvalues --   -0.47082  -0.46078  -0.43623  -0.42858  -0.42283
  Beta  occ. eigenvalues --   -0.42185  -0.40970  -0.39476  -0.37129  -0.36717
  Beta  occ. eigenvalues --   -0.36231  -0.27843  -0.26906  -0.26757  -0.26147
  Beta virt. eigenvalues --   -0.03610  -0.02380   0.02931   0.04869   0.05176
  Beta virt. eigenvalues --    0.05625   0.07508   0.08198   0.08369   0.09264
  Beta virt. eigenvalues --    0.11015   0.11339   0.12139   0.12272   0.13064
  Beta virt. eigenvalues --    0.13802   0.14098   0.14813   0.16140   0.16701
  Beta virt. eigenvalues --    0.16826   0.18017   0.18197   0.18250   0.19138
  Beta virt. eigenvalues --    0.20079   0.20683   0.21092   0.22725   0.22737
  Beta virt. eigenvalues --    0.23736   0.24030   0.25476   0.26108   0.26205
  Beta virt. eigenvalues --    0.26725   0.27428   0.27695   0.29173   0.30112
  Beta virt. eigenvalues --    0.30134   0.30796   0.30892   0.32188   0.32455
  Beta virt. eigenvalues --    0.33069   0.34052   0.34568   0.34820   0.35624
  Beta virt. eigenvalues --    0.36018   0.36381   0.36648   0.37240   0.37380
  Beta virt. eigenvalues --    0.37899   0.38830   0.38844   0.39060   0.39453
  Beta virt. eigenvalues --    0.40600   0.41150   0.41167   0.42225   0.42415
  Beta virt. eigenvalues --    0.42547   0.42981   0.43104   0.43708   0.44495
  Beta virt. eigenvalues --    0.45294   0.45951   0.47108   0.47556   0.47955
  Beta virt. eigenvalues --    0.48705   0.49125   0.49988   0.50297   0.50392
  Beta virt. eigenvalues --    0.51193   0.52157   0.52378   0.52931   0.53520
  Beta virt. eigenvalues --    0.54274   0.55160   0.55540   0.55831   0.56098
  Beta virt. eigenvalues --    0.57077   0.57887   0.58710   0.60277   0.60453
  Beta virt. eigenvalues --    0.60845   0.62163   0.62353   0.63510   0.63863
  Beta virt. eigenvalues --    0.64727   0.66810   0.67556   0.69214   0.69740
  Beta virt. eigenvalues --    0.70393   0.70409   0.71183   0.71852   0.72119
  Beta virt. eigenvalues --    0.73127   0.73653   0.74539   0.74863   0.76288
  Beta virt. eigenvalues --    0.77296   0.77302   0.78545   0.80049   0.81478
  Beta virt. eigenvalues --    0.81770   0.83706   0.85323   0.85506   0.86746
  Beta virt. eigenvalues --    0.88771   0.89737   0.91906   0.92591   0.95932
  Beta virt. eigenvalues --    0.96563   0.96684   0.98113   0.98456   0.99688
  Beta virt. eigenvalues --    1.00887   1.02662   1.03183   1.03688   1.04894
  Beta virt. eigenvalues --    1.05624   1.06837   1.07272   1.09269   1.10665
  Beta virt. eigenvalues --    1.11883   1.14211   1.14721   1.17282   1.17373
  Beta virt. eigenvalues --    1.18983   1.22595   1.23226   1.25193   1.26415
  Beta virt. eigenvalues --    1.27424   1.27669   1.30845   1.32289   1.33429
  Beta virt. eigenvalues --    1.34664   1.36544   1.36989   1.38071   1.39186
  Beta virt. eigenvalues --    1.40941   1.42774   1.43793   1.47685   1.51567
  Beta virt. eigenvalues --    1.52727   1.57142   1.58816   1.59484   1.60855
  Beta virt. eigenvalues --    1.61808   1.62700   1.63119   1.64182   1.66007
  Beta virt. eigenvalues --    1.66356   1.68665   1.70094   1.70555   1.72622
  Beta virt. eigenvalues --    1.75024   1.76081   1.76413   1.78249   1.79026
  Beta virt. eigenvalues --    1.80657   1.82400   1.83235   1.85055   1.85134
  Beta virt. eigenvalues --    1.86615   1.91390   1.92737   1.94441   1.95760
  Beta virt. eigenvalues --    1.97165   1.97450   1.99446   2.00066   2.02384
  Beta virt. eigenvalues --    2.03664   2.05089   2.05763   2.06458   2.08330
  Beta virt. eigenvalues --    2.11339   2.11344   2.13767   2.15654   2.16647
  Beta virt. eigenvalues --    2.16793   2.19102   2.21560   2.23644   2.23779
  Beta virt. eigenvalues --    2.24527   2.24955   2.27422   2.29751   2.37421
  Beta virt. eigenvalues --    2.38200   2.39026   2.41669   2.41827   2.42917
  Beta virt. eigenvalues --    2.47916   2.48374   2.48887   2.52243   2.52524
  Beta virt. eigenvalues --    2.54355   2.57007   2.64164   2.65741   2.66112
  Beta virt. eigenvalues --    2.67083   2.68217   2.71896   2.72155   2.76097
  Beta virt. eigenvalues --    2.76663   2.78936   2.86250   2.91183   2.92696
  Beta virt. eigenvalues --    2.96063   2.96354   3.00595   3.02910   3.06087
  Beta virt. eigenvalues --    3.07223   3.09389   3.12534   3.15188   3.17352
  Beta virt. eigenvalues --    3.19044   3.21191   3.22297   3.22924   3.25127
  Beta virt. eigenvalues --    3.35304   3.43713   3.55306   3.60953   3.74422
  Beta virt. eigenvalues --    3.88875
          Condensed to atoms (all electrons):
               1          2          3          4          5          6
     1  C    5.715118  -0.603122  -0.497756   0.099312  -0.001904   0.082954
     2  C   -0.603122  11.029080  -1.393883  -0.273731  -0.067380  -0.531272
     3  C   -0.497756  -1.393883   7.855015  -0.364401  -0.128975  -0.208910
     4  N    0.099312  -0.273731  -0.364401   8.892369   0.600153   0.248270
     5  C   -0.001904  -0.067380  -0.128975   0.600153   4.442849  -0.206586
     6  C    0.082954  -0.531272  -0.208910   0.248270  -0.206586   6.899394
     7  C    0.030576  -0.361948  -0.154778  -0.500398  -0.095296  -0.153912
     8  C   -0.011298   0.152559   0.030675   0.013519   0.000438  -0.328863
     9  N    0.000520   0.006472   0.001679   0.004993  -0.000161   0.003085
    10  O    0.000735  -0.025932   0.003648   0.035727  -0.002494  -0.121046
    11  C   -0.087905   0.305360  -0.493035   0.127738  -0.036032  -0.367408
    12  H    0.071432   0.136178   0.068895  -0.004037   0.000043  -0.003931
    13  H    0.071870   0.135669   0.068912  -0.004032   0.000043  -0.003930
    14  H    0.480080   0.083605  -0.160073   0.013899   0.000587   0.004453
    15  H   -0.113959  -0.580033   0.754882  -0.504086  -0.071698   0.059145
    16  H    0.000227   0.010637   0.025532  -0.009572   0.262849   0.050021
    17  H   -0.000772   0.009300   0.035433   0.061976   0.249665  -0.003152
    18  H   -0.000771   0.009311   0.035367   0.062098   0.249732  -0.003174
    19  H   -0.003289   0.170477   0.132016  -0.541569   0.023924  -0.308825
    20  H    0.001374   0.007639   0.000237   0.000871  -0.000034  -0.017765
    21  H   -0.000081  -0.000213  -0.000176  -0.000292   0.000013   0.004185
    22  H    0.062375  -0.735283   0.140124  -0.029933   0.004041   0.115868
               7          8          9         10         11         12
     1  C    0.030576  -0.011298   0.000520   0.000735  -0.087905   0.071432
     2  C   -0.361948   0.152559   0.006472  -0.025932   0.305360   0.136178
     3  C   -0.154778   0.030675   0.001679   0.003648  -0.493035   0.068895
     4  N   -0.500398   0.013519   0.004993   0.035727   0.127738  -0.004037
     5  C   -0.095296   0.000438  -0.000161  -0.002494  -0.036032   0.000043
     6  C   -0.153912  -0.328863   0.003085  -0.121046  -0.367408  -0.003931
     7  C   10.099331  -1.398844   0.140544  -0.026684  -0.014223  -0.004173
     8  C   -1.398844   6.749290  -0.049115   0.179747  -0.285338   0.000598
     9  N    0.140544  -0.049115   6.098051   0.048292   0.022010  -0.000113
    10  O   -0.026684   0.179747   0.048292   8.641343   0.003543  -0.000013
    11  C   -0.014223  -0.285338   0.022010   0.003543   7.733278   0.016093
    12  H   -0.004173   0.000598  -0.000113  -0.000013   0.016093   0.561005
    13  H   -0.004180   0.000597  -0.000113  -0.000013   0.016019   0.069770
    14  H    0.000198  -0.000544   0.000040   0.000024   0.022156  -0.046756
    15  H    0.114689   0.000525  -0.000120  -0.000876  -0.030541   0.010298
    16  H    0.028724  -0.001227   0.000035   0.001295   0.005545   0.000000
    17  H   -0.001400   0.000644  -0.000012  -0.000107  -0.003008  -0.000024
    18  H   -0.001405   0.000644  -0.000012  -0.000107  -0.003009   0.000011
    19  H   -0.320884   0.062686  -0.002806   0.053985   0.062335   0.000194
    20  H   -0.086046   0.228659   0.249778  -0.030875  -0.061809  -0.000139
    21  H    0.044308  -0.180533   0.509400   0.004844   0.042176  -0.000009
    22  H   -0.260306  -0.046555  -0.038922  -0.014554  -0.927586   0.005175
              13         14         15         16         17         18
     1  C    0.071870   0.480080  -0.113959   0.000227  -0.000772  -0.000771
     2  C    0.135669   0.083605  -0.580033   0.010637   0.009300   0.009311
     3  C    0.068912  -0.160073   0.754882   0.025532   0.035433   0.035367
     4  N   -0.004032   0.013899  -0.504086  -0.009572   0.061976   0.062098
     5  C    0.000043   0.000587  -0.071698   0.262849   0.249665   0.249732
     6  C   -0.003930   0.004453   0.059145   0.050021  -0.003152  -0.003174
     7  C   -0.004180   0.000198   0.114689   0.028724  -0.001400  -0.001405
     8  C    0.000597  -0.000544   0.000525  -0.001227   0.000644   0.000644
     9  N   -0.000113   0.000040  -0.000120   0.000035  -0.000012  -0.000012
    10  O   -0.000013   0.000024  -0.000876   0.001295  -0.000107  -0.000107
    11  C    0.016019   0.022156  -0.030541   0.005545  -0.003008  -0.003009
    12  H    0.069770  -0.046756   0.010298   0.000000  -0.000024   0.000011
    13  H    0.560701  -0.046707   0.010279   0.000000   0.000011  -0.000024
    14  H   -0.046707   0.600845  -0.069662  -0.000030   0.000025   0.000025
    15  H    0.010279  -0.069662   1.372917   0.015817  -0.016976  -0.017026
    16  H    0.000000  -0.000030   0.015817   0.773370  -0.037207  -0.037221
    17  H    0.000011   0.000025  -0.016976  -0.037207   0.624527  -0.025363
    18  H   -0.000024   0.000025  -0.017026  -0.037221  -0.025363   0.624550
    19  H    0.000194  -0.000278   0.026813   0.021658   0.003935   0.003919
    20  H   -0.000139   0.000041  -0.000043  -0.000004   0.000000   0.000000
    21  H   -0.000009   0.000001  -0.000001   0.000002   0.000001   0.000001
    22  H    0.005263   0.002106  -0.004261  -0.000286   0.000075   0.000075
              19         20         21         22
     1  C   -0.003289   0.001374  -0.000081   0.062375
     2  C    0.170477   0.007639  -0.000213  -0.735283
     3  C    0.132016   0.000237  -0.000176   0.140124
     4  N   -0.541569   0.000871  -0.000292  -0.029933
     5  C    0.023924  -0.000034   0.000013   0.004041
     6  C   -0.308825  -0.017765   0.004185   0.115868
     7  C   -0.320884  -0.086046   0.044308  -0.260306
     8  C    0.062686   0.228659  -0.180533  -0.046555
     9  N   -0.002806   0.249778   0.509400  -0.038922
    10  O    0.053985  -0.030875   0.004844  -0.014554
    11  C    0.062335  -0.061809   0.042176  -0.927586
    12  H    0.000194  -0.000139  -0.000009   0.005175
    13  H    0.000194  -0.000139  -0.000009   0.005263
    14  H   -0.000278   0.000041   0.000001   0.002106
    15  H    0.026813  -0.000043  -0.000001  -0.004261
    16  H    0.021658  -0.000004   0.000002  -0.000286
    17  H    0.003935   0.000000   0.000001   0.000075
    18  H    0.003919   0.000000   0.000001   0.000075
    19  H    1.658572   0.002159   0.000296   0.014495
    20  H    0.002159   1.296299  -0.495658  -0.000319
    21  H    0.000296  -0.495658   1.056924   0.004743
    22  H    0.014495  -0.000319   0.004743   2.179945
          Atomic-Atomic Spin Densities.
               1          2          3          4          5          6
     1  C    0.041200   0.021881  -0.008271  -0.004692  -0.000442  -0.003390
     2  C    0.021881  -0.414725  -0.025990   0.055103  -0.001848   0.083129
     3  C   -0.008271  -0.025990   0.698245  -0.061783   0.011781  -0.028278
     4  N   -0.004692   0.055103  -0.061783   0.083053  -0.029796  -0.051392
     5  C   -0.000442  -0.001848   0.011781  -0.029796  -0.031182   0.012289
     6  C   -0.003390   0.083129  -0.028278  -0.051392   0.012289  -0.065096
     7  C   -0.006390  -0.052361   0.044072   0.029398   0.002743   0.021996
     8  C   -0.000008  -0.006666  -0.001730   0.003617  -0.000257   0.007939
     9  N    0.000012  -0.000765  -0.000129  -0.000262  -0.000001  -0.001376
    10  O    0.000014  -0.000288  -0.000003  -0.001551  -0.000008  -0.005806
    11  C   -0.003196  -0.016339  -0.085495   0.030065  -0.001669   0.030519
    12  H   -0.005074  -0.002644   0.004685   0.000080   0.000003  -0.000032
    13  H   -0.005039  -0.002671   0.004695   0.000082   0.000003  -0.000032
    14  H    0.012397  -0.006161  -0.006934   0.000200  -0.000018   0.000195
    15  H    0.007894   0.044936   0.000473   0.031362   0.001387  -0.002233
    16  H    0.000008  -0.000615  -0.001986   0.007366   0.001448  -0.002445
    17  H    0.000023  -0.001282   0.002688   0.000590   0.003265  -0.000849
    18  H    0.000023  -0.001281   0.002689   0.000579   0.003265  -0.000849
    19  H    0.000185  -0.016211  -0.000683   0.058345   0.006104   0.045654
    20  H    0.000048   0.000105   0.000084   0.000160  -0.000000   0.000066
    21  H   -0.000001   0.000078   0.000004   0.000030  -0.000000  -0.000110
    22  H   -0.022071   0.003082   0.002013  -0.009709   0.000149  -0.017507
               7          8          9         10         11         12
     1  C   -0.006390  -0.000008   0.000012   0.000014  -0.003196  -0.005074
     2  C   -0.052361  -0.006666  -0.000765  -0.000288  -0.016339  -0.002644
     3  C    0.044072  -0.001730  -0.000129  -0.000003  -0.085495   0.004685
     4  N    0.029398   0.003617  -0.000262  -0.001551   0.030065   0.000080
     5  C    0.002743  -0.000257  -0.000001  -0.000008  -0.001669   0.000003
     6  C    0.021996   0.007939  -0.001376  -0.005806   0.030519  -0.000032
     7  C    0.110575   0.027821   0.000462  -0.005775  -0.057168   0.000100
     8  C    0.027821   0.044793  -0.003672  -0.015156  -0.034738  -0.000015
     9  N    0.000462  -0.003672  -0.000549   0.002146   0.004203   0.000007
    10  O   -0.005775  -0.015156   0.002146   0.055030   0.002717   0.000001
    11  C   -0.057168  -0.034738   0.004203   0.002717   0.884684  -0.005518
    12  H    0.000100  -0.000015   0.000007   0.000001  -0.005518   0.007447
    13  H    0.000095  -0.000014   0.000007   0.000001  -0.005528  -0.006929
    14  H   -0.000441  -0.000010   0.000001   0.000001   0.001737  -0.002172
    15  H   -0.011205  -0.000261   0.000011   0.000005  -0.002912  -0.001253
    16  H   -0.000331   0.000011   0.000001   0.000017  -0.000033  -0.000000
    17  H   -0.000474  -0.000009   0.000000   0.000008  -0.000179   0.000000
    18  H   -0.000474  -0.000009   0.000000   0.000007  -0.000179   0.000005
    19  H   -0.015024  -0.010208   0.000333   0.004661  -0.005900  -0.000004
    20  H   -0.000804   0.000610   0.000294   0.000281   0.004350  -0.000008
    21  H    0.000089   0.000024   0.000618   0.000973  -0.000178   0.000000
    22  H   -0.055956   0.003953  -0.005386  -0.002282  -0.039046   0.003912
              13         14         15         16         17         18
     1  C   -0.005039   0.012397   0.007894   0.000008   0.000023   0.000023
     2  C   -0.002671  -0.006161   0.044936  -0.000615  -0.001282  -0.001281
     3  C    0.004695  -0.006934   0.000473  -0.001986   0.002688   0.002689
     4  N    0.000082   0.000200   0.031362   0.007366   0.000590   0.000579
     5  C    0.000003  -0.000018   0.001387   0.001448   0.003265   0.003265
     6  C   -0.000032   0.000195  -0.002233  -0.002445  -0.000849  -0.000849
     7  C    0.000095  -0.000441  -0.011205  -0.000331  -0.000474  -0.000474
     8  C   -0.000014  -0.000010  -0.000261   0.000011  -0.000009  -0.000009
     9  N    0.000007   0.000001   0.000011   0.000001   0.000000   0.000000
    10  O    0.000001   0.000001   0.000005   0.000017   0.000008   0.000007
    11  C   -0.005528   0.001737  -0.002912  -0.000033  -0.000179  -0.000179
    12  H   -0.006929  -0.002172  -0.001253  -0.000000   0.000000   0.000005
    13  H    0.007483  -0.002192  -0.001260  -0.000000   0.000005   0.000000
    14  H   -0.002192   0.004115   0.003398   0.000001  -0.000004  -0.000004
    15  H   -0.001260   0.003398  -0.125553  -0.000733   0.002017   0.002021
    16  H   -0.000000   0.000001  -0.000733  -0.001432  -0.000654  -0.000652
    17  H    0.000005  -0.000004   0.002017  -0.000654   0.009522   0.000292
    18  H    0.000000  -0.000004   0.002021  -0.000652   0.000292   0.009521
    19  H   -0.000004  -0.000001  -0.003824  -0.001479  -0.000302  -0.000302
    20  H   -0.000008   0.000005  -0.000004  -0.000000  -0.000000  -0.000000
    21  H    0.000000  -0.000000  -0.000000  -0.000000  -0.000000  -0.000000
    22  H    0.003908  -0.001834   0.000008   0.000011   0.000027   0.000027
              19         20         21         22
     1  C    0.000185   0.000048  -0.000001  -0.022071
     2  C   -0.016211   0.000105   0.000078   0.003082
     3  C   -0.000683   0.000084   0.000004   0.002013
     4  N    0.058345   0.000160   0.000030  -0.009709
     5  C    0.006104  -0.000000  -0.000000   0.000149
     6  C    0.045654   0.000066  -0.000110  -0.017507
     7  C   -0.015024  -0.000804   0.000089  -0.055956
     8  C   -0.010208   0.000610   0.000024   0.003953
     9  N    0.000333   0.000294   0.000618  -0.005386
    10  O    0.004661   0.000281   0.000973  -0.002282
    11  C   -0.005900   0.004350  -0.000178  -0.039046
    12  H   -0.000004  -0.000008   0.000000   0.003912
    13  H   -0.000004  -0.000008   0.000000   0.003908
    14  H   -0.000001   0.000005  -0.000000  -0.001834
    15  H   -0.003824  -0.000004  -0.000000   0.000008
    16  H   -0.001479  -0.000000  -0.000000   0.000011
    17  H   -0.000302  -0.000000  -0.000000   0.000027
    18  H   -0.000302  -0.000000  -0.000000   0.000027
    19  H   -0.072502  -0.000214  -0.000080   0.002913
    20  H   -0.000214   0.000298   0.000631  -0.000723
    21  H   -0.000080   0.000631  -0.001810   0.000618
    22  H    0.002913  -0.000723   0.000618   0.024479
 Mulliken charges and spin densities:
               1          2
     1  C    0.704284   0.025109
     2  C   -1.483489  -0.341530
     3  C    0.249572   0.550147
     4  N   -0.928873   0.140844
     5  C    0.776221  -0.022784
     6  C    0.791397   0.022393
     7  C   -1.073894   0.030950
     8  C    0.881738   0.016015
     9  N    0.006473  -0.004043
    10  O   -0.750483   0.034993
    11  C   -0.046358   0.700197
    12  H    0.119500  -0.007407
    13  H    0.119818  -0.007398
    14  H    0.115965   0.002276
    15  H    0.043919  -0.055724
    16  H   -0.110163  -0.001498
    17  H    0.102432   0.014682
    18  H    0.102379   0.014679
    19  H   -0.060009  -0.008543
    20  H   -0.094228   0.005173
    21  H    0.010080   0.000887
    22  H    0.523720  -0.109414
 Sum of Mulliken charges =  -0.00000   1.00000
 Mulliken charges and spin densities with hydrogens summed into heavy atoms:
               1          2
     1  C    1.059566   0.012580
     2  C   -1.483489  -0.341530
     3  C    0.293491   0.494423
     4  N   -0.928873   0.140844
     5  C    0.870868   0.005078
     6  C    0.731389   0.013850
     7  C   -1.073894   0.030950
     8  C    0.881738   0.016015
     9  N   -0.077676   0.002016
    10  O   -0.750483   0.034993
    11  C    0.477362   0.590782
 Electronic spatial extent (au):  <R**2>=           1986.8401
 Charge=             -0.0000 electrons
 Dipole moment (field-independent basis, Debye):
    X=             -4.6152    Y=              1.9364    Z=              0.0010  Tot=              5.0050
 Quadrupole moment (field-independent basis, Debye-Ang):
   XX=            -62.7250   YY=            -54.2502   ZZ=            -69.7215
   XY=             17.7994   XZ=              0.0020   YZ=              0.0000
 Traceless Quadrupole moment (field-independent basis, Debye-Ang):
   XX=             -0.4928   YY=              7.9820   ZZ=             -7.4893
   XY=             17.7994   XZ=              0.0020   YZ=              0.0000
 Octapole moment (field-independent basis, Debye-Ang**2):
  XXX=            -14.0903  YYY=             -5.0568  ZZZ=             -0.0022  XYY=            -11.3525
  XXY=             38.2403  XXZ=              0.0101  XZZ=              0.8033  YZZ=             -3.5707
  YYZ=              0.0049  XYZ=              0.0017
 Hexadecapole moment (field-independent basis, Debye-Ang**3):
 XXXX=          -1444.0073 YYYY=           -875.5383 ZZZZ=            -87.9150 XXXY=            187.4960
 XXXZ=             -0.0003 YYYX=             71.3999 YYYZ=              0.0080 ZZZX=              0.0044
 ZZZY=             -0.0038 XXYY=           -399.4895 XXZZ=           -291.0252 YYZZ=           -177.5454
 XXYZ=             -0.0016 YYXZ=              0.0134 ZZXY=              3.7488
 N-N= 5.949577789238D+02 E-N=-2.341240132222D+03  KE= 4.899624129761D+02
                          Isotropic Fermi Contact Couplings
        Atom                 a.u.       MegaHertz       Gauss      10(-4) cm-1
     1  C(13)              0.00481       5.41012       1.93047       1.80462
     2  C(13)             -0.05498     -61.80858     -22.05484     -20.61712
     3  C(13)              0.06354      71.42990      25.48797      23.82645
     4  N(14)              0.06449      20.83705       7.43518       6.95049
     5  C(13)             -0.01156     -12.99984      -4.63867      -4.33628
     6  C(13)             -0.00999     -11.23582      -4.00922      -3.74787
     7  C(13)             -0.00832      -9.35762      -3.33903      -3.12137
     8  C(13)             -0.00178      -1.99644      -0.71238      -0.66594
     9  N(14)             -0.00285      -0.92245      -0.32915      -0.30770
    10  O(17)              0.01698     -10.29415      -3.67321      -3.43376
    11  C(13)              0.08711      97.92935      34.94363      32.66571
    12  H(1)              -0.00231     -10.31981      -3.68237      -3.44232
    13  H(1)              -0.00231     -10.30375      -3.67663      -3.43696
    14  H(1)              -0.00042      -1.87001      -0.66727      -0.62377
    15  H(1)              -0.00695     -31.07042     -11.08670     -10.36398
    16  H(1)               0.00004       0.17567       0.06268       0.05860
    17  H(1)               0.00398      17.76972       6.34068       5.92734
    18  H(1)               0.00398      17.77700       6.34327       5.92977
    19  H(1)              -0.00060      -2.66952      -0.95255      -0.89046
    20  H(1)              -0.00002      -0.06894      -0.02460      -0.02300
    21  H(1)              -0.00008      -0.36627      -0.13069      -0.12217
    22  H(1)              -0.00845     -37.76296     -13.47476     -12.59637
 --------------------------------------------------------
       Center         ----  Spin Dipole Couplings  ----
                      3XX-RR        3YY-RR        3ZZ-RR
 --------------------------------------------------------
     1   Atom        0.001494      0.003505     -0.004999
     2   Atom        0.077462      0.065988     -0.143450
     3   Atom       -0.209673     -0.217665      0.427338
     4   Atom       -0.262389     -0.258240      0.520630
     5   Atom       -0.001901      0.009320     -0.007419
     6   Atom       -0.001952     -0.012694      0.014646
     7   Atom       -0.041778     -0.038519      0.080297
     8   Atom       -0.009271     -0.016058      0.025329
     9   Atom        0.006044     -0.001227     -0.004817
    10   Atom       -0.086374     -0.089345      0.175719
    11   Atom       -0.275052     -0.268508      0.543560
    12   Atom        0.000847      0.002138     -0.002985
    13   Atom        0.000846      0.002139     -0.002985
    14   Atom       -0.000066      0.002989     -0.002923
    15   Atom        0.027573     -0.029005      0.001432
    16   Atom       -0.004006      0.007591     -0.003585
    17   Atom       -0.000836      0.004422     -0.003585
    18   Atom       -0.000838      0.004423     -0.003584
    19   Atom        0.000093      0.004685     -0.004778
    20   Atom        0.005291     -0.002128     -0.003163
    21   Atom        0.002518     -0.000837     -0.001682
    22   Atom       -0.022364      0.019274      0.003091
 --------------------------------------------------------
                        XY            XZ            YZ
 --------------------------------------------------------
     1   Atom       -0.003183      0.000001      0.000002
     2   Atom        0.010450     -0.000012     -0.000016
     3   Atom       -0.001021      0.000088      0.000036
     4   Atom        0.000747      0.000018     -0.000042
     5   Atom        0.005320     -0.000001     -0.000001
     6   Atom        0.002291     -0.000003     -0.000001
     7   Atom       -0.005115     -0.000002      0.000012
     8   Atom       -0.003720     -0.000004     -0.000008
     9   Atom        0.001509      0.000002     -0.000007
    10   Atom       -0.000440      0.000011     -0.000052
    11   Atom        0.004166      0.000007      0.000031
    12   Atom       -0.002988      0.001159     -0.001411
    13   Atom       -0.002992     -0.001158      0.001410
    14   Atom       -0.003922     -0.000001      0.000001
    15   Atom        0.005857     -0.000004      0.000001
    16   Atom        0.000785      0.000000      0.000000
    17   Atom        0.004659     -0.001613     -0.003014
    18   Atom        0.004657      0.001613      0.003015
    19   Atom       -0.003297     -0.000001      0.000000
    20   Atom        0.003958      0.000001      0.000001
    21   Atom        0.000975      0.000000     -0.000000
    22   Atom        0.030002      0.000000     -0.000000
 --------------------------------------------------------


 ---------------------------------------------------------------------------------
              Anisotropic Spin Dipole Couplings in Principal Axis System
 ---------------------------------------------------------------------------------

       Atom             a.u.   MegaHertz   Gauss  10(-4) cm-1        Axes

              Baa    -0.0050    -0.671    -0.239    -0.224 -0.0004 -0.0003  1.0000
     1 C(13)  Bbb    -0.0008    -0.113    -0.040    -0.038  0.8066  0.5911  0.0005
              Bcc     0.0058     0.783     0.280     0.261 -0.5911  0.8066  0.0000
 
              Baa    -0.1435   -19.250    -6.869    -6.421  0.0001  0.0001  1.0000
     2 C(13)  Bbb     0.0598     8.025     2.864     2.677 -0.5093  0.8606 -0.0000
              Bcc     0.0836    11.225     4.005     3.744  0.8606  0.5093 -0.0001
 
              Baa    -0.2178   -29.226   -10.429    -9.749  0.1247  0.9922 -0.0001
     3 C(13)  Bbb    -0.2095   -28.119   -10.034    -9.379  0.9922 -0.1247 -0.0001
              Bcc     0.4273    57.345    20.462    19.128  0.0001  0.0001  1.0000
 
              Baa    -0.2625   -10.125    -3.613    -3.377  0.9851 -0.1719 -0.0000
     4 N(14)  Bbb    -0.2581    -9.955    -3.552    -3.321  0.1719  0.9851  0.0000
              Bcc     0.5206    20.080     7.165     6.698  0.0000 -0.0001  1.0000
 
              Baa    -0.0074    -0.996    -0.355    -0.332  0.0002 -0.0000  1.0000
     5 C(13)  Bbb    -0.0040    -0.540    -0.193    -0.180  0.9289 -0.3703 -0.0002
              Bcc     0.0114     1.535     0.548     0.512  0.3703  0.9289 -0.0001
 
              Baa    -0.0132    -1.766    -0.630    -0.589 -0.2002  0.9798  0.0000
     6 C(13)  Bbb    -0.0015    -0.199    -0.071    -0.066  0.9798  0.2002  0.0002
              Bcc     0.0146     1.965     0.701     0.656 -0.0002 -0.0001  1.0000
 
              Baa    -0.0455    -6.108    -2.179    -2.037  0.8073  0.5901 -0.0000
     7 C(13)  Bbb    -0.0348    -4.667    -1.665    -1.557 -0.5901  0.8073 -0.0001
              Bcc     0.0803    10.775     3.845     3.594 -0.0000  0.0001  1.0000
 
              Baa    -0.0177    -2.375    -0.848    -0.792  0.4037  0.9149  0.0002
     8 C(13)  Bbb    -0.0076    -1.024    -0.365    -0.341  0.9149 -0.4037  0.0000
              Bcc     0.0253     3.399     1.213     1.134 -0.0001 -0.0002  1.0000
 
              Baa    -0.0048    -0.186    -0.066    -0.062 -0.0005  0.0021  1.0000
     9 N(14)  Bbb    -0.0015    -0.059    -0.021    -0.020 -0.1955  0.9807 -0.0021
              Bcc     0.0063     0.245     0.087     0.082  0.9807  0.1955  0.0001
 
              Baa    -0.0894     6.470     2.309     2.158  0.1434  0.9897  0.0002
    10 O(17)  Bbb    -0.0863     6.245     2.228     2.083  0.9897 -0.1434 -0.0001
              Bcc     0.1757   -12.715    -4.537    -4.241  0.0000 -0.0002  1.0000
 
              Baa    -0.2771   -37.181   -13.267   -12.402  0.8993 -0.4372  0.0000
    11 C(13)  Bbb    -0.2665   -35.759   -12.760   -11.928  0.4372  0.8993 -0.0000
              Bcc     0.5436    72.941    26.027    24.330  0.0000  0.0000  1.0000
 
              Baa    -0.0034    -1.817    -0.648    -0.606 -0.1472  0.1687  0.9746
    12 H(1)   Bbb    -0.0016    -0.835    -0.298    -0.278  0.7766  0.6299  0.0082
              Bcc     0.0050     2.651     0.946     0.884 -0.6125  0.7581 -0.2237
 
              Baa    -0.0034    -1.816    -0.648    -0.606  0.1469 -0.1686  0.9747
    13 H(1)   Bbb    -0.0016    -0.837    -0.299    -0.279  0.7767  0.6298 -0.0082
              Bcc     0.0050     2.652     0.946     0.885 -0.6125  0.7582  0.2235
 
              Baa    -0.0029    -1.560    -0.557    -0.520  0.0022  0.0013  1.0000
    14 H(1)   Bbb    -0.0027    -1.466    -0.523    -0.489  0.8255  0.5644 -0.0025
              Bcc     0.0057     3.025     1.080     1.009 -0.5644  0.8255  0.0002
 
              Baa    -0.0296   -15.796    -5.636    -5.269 -0.1019  0.9948 -0.0001
    15 H(1)   Bbb     0.0014     0.764     0.273     0.255  0.0001  0.0001  1.0000
              Bcc     0.0282    15.032     5.364     5.014  0.9948  0.1019 -0.0001
 
              Baa    -0.0041    -2.166    -0.773    -0.722  0.9977 -0.0672 -0.0001
    16 H(1)   Bbb    -0.0036    -1.913    -0.683    -0.638  0.0001 -0.0000  1.0000
              Bcc     0.0076     4.078     1.455     1.360  0.0672  0.9977  0.0000
 
              Baa    -0.0046    -2.452    -0.875    -0.818  0.0390  0.2986  0.9536
    17 H(1)   Bbb    -0.0035    -1.890    -0.674    -0.630  0.8756 -0.4700  0.1114
              Bcc     0.0081     4.342     1.549     1.448  0.4815  0.8306 -0.2798
 
              Baa    -0.0046    -2.452    -0.875    -0.818 -0.0396 -0.2984  0.9536
    18 H(1)   Bbb    -0.0035    -1.890    -0.674    -0.630  0.8757 -0.4701 -0.1107
              Bcc     0.0081     4.341     1.549     1.448  0.4813  0.8307  0.2799
 
              Baa    -0.0048    -2.549    -0.910    -0.850  0.0001  0.0000  1.0000
    19 H(1)   Bbb    -0.0016    -0.869    -0.310    -0.290  0.8864  0.4629 -0.0001
              Bcc     0.0064     3.418     1.220     1.140 -0.4629  0.8864  0.0000
 
              Baa    -0.0038    -2.050    -0.732    -0.684 -0.3976  0.9176 -0.0010
    20 H(1)   Bbb    -0.0032    -1.687    -0.602    -0.563 -0.0005  0.0009  1.0000
              Bcc     0.0070     3.738     1.334     1.247  0.9176  0.3976  0.0001
 
              Baa    -0.0017    -0.897    -0.320    -0.299 -0.0002  0.0005  1.0000
    21 H(1)   Bbb    -0.0011    -0.587    -0.209    -0.196 -0.2602  0.9656 -0.0005
              Bcc     0.0028     1.484     0.529     0.495  0.9656  0.2602  0.0001
 
              Baa    -0.0381   -20.309    -7.247    -6.774  0.8860 -0.4636 -0.0000
    22 H(1)   Bbb     0.0031     1.649     0.588     0.550  0.0000  0.0000  1.0000
              Bcc     0.0350    18.660     6.658     6.224  0.4636  0.8860 -0.0000
 

 ---------------------------------------------------------------------------------

 Unable to Open any file for archive entry.
 1\1\GINC-EXP-4-10\FOpt\UPBE1PBE\GenECP\C8H11N2O1(2)\APLATT\11-Feb-2026
 \0\\# pbe1pbe emp=gd3bj genECP scrf=(smd,solvent=DMSO) opt freq\\A1b_r
 ad_lowestE_conf_1_opt\\0,2\C,-2.2271954694,-1.8089525741,0.2210262645\
 C,-1.1635381859,-0.7555072655,0.1371691655\C,-1.5239510664,0.572658063
 6,0.0327633945\N,-0.5457904923,1.5703205712,-0.0465662609\C,-0.9788674
 756,2.9445431138,-0.1543080132\C,0.7612040034,1.2373615607,-0.02122111
 9\C,1.1866559387,-0.0643937614,0.0810646667\C,2.6497269923,-0.28307317
 08,0.0971820069\N,3.0590568979,-1.5698059619,0.1979674242\O,3.46520078
 43,0.6424041806,0.0238786566\C,0.1960439352,-1.1125069275,0.1643728511
 \H,-2.1310098641,-2.3845199134,1.1540702188\H,-2.1314476258,-2.5245036
 904,-0.6095829603\H,-3.2340009535,-1.3739682507,0.1867688261\H,-2.5558
 994988,0.9151466694,0.006370171\H,-0.1064222189,3.6034604137,-0.207013
 5922\H,-1.5886058513,3.0812204297,-1.0597273807\H,-1.5868999643,3.2212
 861037,0.7197409158\H,1.4795457006,2.0531291577,-0.0860079369\H,2.4205
 888329,-2.3487563109,0.2595060079\H,4.0496541059,-1.765814069,0.212771
 0065\H,0.4686514749,-2.1638283686,0.2469756872\\Version=ES64L-G16RevC.
 01\State=2-A\HF=-495.3244241\S2=0.768162\S2-1=0.\S2A=0.750143\RMSD=4.1
 65e-09\RMSF=6.529e-06\Dipole=-1.9383923,-0.3453126,0.0282472\Quadrupol
 e=-5.7111176,11.1766568,-5.4655392,-10.5918566,0.8326938,-1.3104144\PG
 =C01 [X(C8H11N2O1)]\\@
 The archive entry for this job was punched.


 THE REASON MAN'S BEST FRIEND IS A DOG IS BECAUSE
 HE WAGS HIS TAIL INSTEAD OF HIS TONGUE.
 Job cpu time:       0 days  3 hours 58 minutes 47.8 seconds.
 Elapsed time:       0 days  0 hours 15 minutes 17.0 seconds.
 File lengths (MBytes):  RWF=    163 Int=      0 D2E=      0 Chk=     12 Scr=      1
 Normal termination of Gaussian 16 at Wed Feb 11 12:39:41 2026.
 Link1:  Proceeding to internal job step number  2.
 --------------------------------------------------------------------
 #N Geom=AllCheck Guess=TCheck SCRF=Check GenChk UPBE1PBE/GenECP Freq
 --------------------------------------------------------------------
 1/10=4,29=7,30=1,38=1,40=1/1,3;
 2/12=2,40=1/2;
 3/5=7,6=2,11=2,14=-4,16=1,17=8,25=1,30=1,70=2,71=2,74=-13,82=7,116=2,124=41,140=1/1,2,3;
 4/5=101/1;
 5/5=2,38=6,98=1/2;
 8/6=4,10=90,11=11/1;
 11/6=1,8=1,9=11,15=111,16=1/1,2,10;
 10/6=1/2;
 6/7=2,8=2,9=2,10=2,28=1/1;
 7/8=1,10=1,25=1/1,2,3,16;
 1/10=4,30=1/3;
 99//99;
 Structure from the checkpoint file:  "/scratch/aplatt/job_46371443/Gau-3795827.chk"
 --------------------------
 A1b_rad_lowestE_conf_1_opt
 --------------------------
 Charge =  0 Multiplicity = 2
 Redundant internal coordinates found in file.  (old form).
 C,0,-2.2271954694,-1.8089525741,0.2210262645
 C,0,-1.1635381859,-0.7555072655,0.1371691655
 C,0,-1.5239510664,0.5726580636,0.0327633945
 N,0,-0.5457904923,1.5703205712,-0.0465662609
 C,0,-0.9788674756,2.9445431138,-0.1543080132
 C,0,0.7612040034,1.2373615607,-0.021221119
 C,0,1.1866559387,-0.0643937614,0.0810646667
 C,0,2.6497269923,-0.2830731708,0.0971820069
 N,0,3.0590568979,-1.5698059619,0.1979674242
 O,0,3.4652007843,0.6424041806,0.0238786566
 C,0,0.1960439352,-1.1125069275,0.1643728511
 H,0,-2.1310098641,-2.3845199134,1.1540702188
 H,0,-2.1314476258,-2.5245036904,-0.6095829603
 H,0,-3.2340009535,-1.3739682507,0.1867688261
 H,0,-2.5558994988,0.9151466694,0.006370171
 H,0,-0.1064222189,3.6034604137,-0.2070135922
 H,0,-1.5886058513,3.0812204297,-1.0597273807
 H,0,-1.5868999643,3.2212861037,0.7197409158
 H,0,1.4795457006,2.0531291577,-0.0860079369
 H,0,2.4205888329,-2.3487563109,0.2595060079
 H,0,4.0496541059,-1.765814069,0.2127710065
 H,0,0.4686514749,-2.1638283686,0.2469756872
 Recover connectivity data from disk.

 GradGradGradGradGradGradGradGradGradGradGradGradGradGradGradGradGradGrad
 Berny optimization.
 Initialization pass.
                           ----------------------------
                           !    Initial Parameters    !
                           ! (Angstroms and Degrees)  !
 --------------------------                            --------------------------
 ! Name  Definition              Value          Derivative Info.                !
 --------------------------------------------------------------------------------
 ! R1    R(1,2)                  1.4994         calculate D2E/DX2 analytically  !
 ! R2    R(1,12)                 1.1005         calculate D2E/DX2 analytically  !
 ! R3    R(1,13)                 1.1005         calculate D2E/DX2 analytically  !
 ! R4    R(1,14)                 1.0973         calculate D2E/DX2 analytically  !
 ! R5    R(2,3)                  1.3802         calculate D2E/DX2 analytically  !
 ! R6    R(2,11)                 1.4059         calculate D2E/DX2 analytically  !
 ! R7    R(3,4)                  1.3994         calculate D2E/DX2 analytically  !
 ! R8    R(3,15)                 1.0876         calculate D2E/DX2 analytically  !
 ! R9    R(4,5)                  1.4449         calculate D2E/DX2 analytically  !
 ! R10   R(4,6)                  1.349          calculate D2E/DX2 analytically  !
 ! R11   R(5,16)                 1.0946         calculate D2E/DX2 analytically  !
 ! R12   R(5,17)                 1.1001         calculate D2E/DX2 analytically  !
 ! R13   R(5,18)                 1.1001         calculate D2E/DX2 analytically  !
 ! R14   R(6,7)                  1.3733         calculate D2E/DX2 analytically  !
 ! R15   R(6,19)                 1.0889         calculate D2E/DX2 analytically  !
 ! R16   R(7,8)                  1.4794         calculate D2E/DX2 analytically  !
 ! R17   R(7,11)                 1.4446         calculate D2E/DX2 analytically  !
 ! R18   R(8,9)                  1.354          calculate D2E/DX2 analytically  !
 ! R19   R(8,10)                 1.2357         calculate D2E/DX2 analytically  !
 ! R20   R(9,20)                 1.0091         calculate D2E/DX2 analytically  !
 ! R21   R(9,21)                 1.0099         calculate D2E/DX2 analytically  !
 ! R22   R(11,22)                1.0892         calculate D2E/DX2 analytically  !
 ! A1    A(2,1,12)             110.663          calculate D2E/DX2 analytically  !
 ! A2    A(2,1,13)             110.6645         calculate D2E/DX2 analytically  !
 ! A3    A(2,1,14)             111.7549         calculate D2E/DX2 analytically  !
 ! A4    A(12,1,13)            106.9924         calculate D2E/DX2 analytically  !
 ! A5    A(12,1,14)            108.3            calculate D2E/DX2 analytically  !
 ! A6    A(13,1,14)            108.3016         calculate D2E/DX2 analytically  !
 ! A7    A(1,2,3)              119.6764         calculate D2E/DX2 analytically  !
 ! A8    A(1,2,11)             120.4325         calculate D2E/DX2 analytically  !
 ! A9    A(3,2,11)             119.8911         calculate D2E/DX2 analytically  !
 ! A10   A(2,3,4)              120.518          calculate D2E/DX2 analytically  !
 ! A11   A(2,3,15)             123.5487         calculate D2E/DX2 analytically  !
 ! A12   A(4,3,15)             115.9333         calculate D2E/DX2 analytically  !
 ! A13   A(3,4,5)              118.2141         calculate D2E/DX2 analytically  !
 ! A14   A(3,4,6)              120.0125         calculate D2E/DX2 analytically  !
 ! A15   A(5,4,6)              121.7734         calculate D2E/DX2 analytically  !
 ! A16   A(4,5,16)             109.7083         calculate D2E/DX2 analytically  !
 ! A17   A(4,5,17)             110.2224         calculate D2E/DX2 analytically  !
 ! A18   A(4,5,18)             110.2231         calculate D2E/DX2 analytically  !
 ! A19   A(16,5,17)            109.1081         calculate D2E/DX2 analytically  !
 ! A20   A(16,5,18)            109.1084         calculate D2E/DX2 analytically  !
 ! A21   A(17,5,18)            108.44           calculate D2E/DX2 analytically  !
 ! A22   A(4,6,7)              122.3787         calculate D2E/DX2 analytically  !
 ! A23   A(4,6,19)             116.9451         calculate D2E/DX2 analytically  !
 ! A24   A(7,6,19)             120.6762         calculate D2E/DX2 analytically  !
 ! A25   A(6,7,8)              116.5704         calculate D2E/DX2 analytically  !
 ! A26   A(6,7,11)             118.6587         calculate D2E/DX2 analytically  !
 ! A27   A(8,7,11)             124.7709         calculate D2E/DX2 analytically  !
 ! A28   A(7,8,9)              116.1196         calculate D2E/DX2 analytically  !
 ! A29   A(7,8,10)             122.7722         calculate D2E/DX2 analytically  !
 ! A30   A(9,8,10)             121.1082         calculate D2E/DX2 analytically  !
 ! A31   A(8,9,20)             123.1514         calculate D2E/DX2 analytically  !
 ! A32   A(8,9,21)             118.8196         calculate D2E/DX2 analytically  !
 ! A33   A(20,9,21)            118.029          calculate D2E/DX2 analytically  !
 ! A34   A(2,11,7)             118.541          calculate D2E/DX2 analytically  !
 ! A35   A(2,11,22)            119.2472         calculate D2E/DX2 analytically  !
 ! A36   A(7,11,22)            122.2117         calculate D2E/DX2 analytically  !
 ! D1    D(12,1,2,3)          -120.7423         calculate D2E/DX2 analytically  !
 ! D2    D(12,1,2,11)           59.2521         calculate D2E/DX2 analytically  !
 ! D3    D(13,1,2,3)           120.8298         calculate D2E/DX2 analytically  !
 ! D4    D(13,1,2,11)          -59.1759         calculate D2E/DX2 analytically  !
 ! D5    D(14,1,2,3)             0.0422         calculate D2E/DX2 analytically  !
 ! D6    D(14,1,2,11)         -179.9634         calculate D2E/DX2 analytically  !
 ! D7    D(1,2,3,4)            179.997          calculate D2E/DX2 analytically  !
 ! D8    D(1,2,3,15)            -0.0125         calculate D2E/DX2 analytically  !
 ! D9    D(11,2,3,4)             0.0026         calculate D2E/DX2 analytically  !
 ! D10   D(11,2,3,15)          179.9931         calculate D2E/DX2 analytically  !
 ! D11   D(1,2,11,7)          -179.9965         calculate D2E/DX2 analytically  !
 ! D12   D(1,2,11,22)            0.0086         calculate D2E/DX2 analytically  !
 ! D13   D(3,2,11,7)            -0.0022         calculate D2E/DX2 analytically  !
 ! D14   D(3,2,11,22)         -179.997          calculate D2E/DX2 analytically  !
 ! D15   D(2,3,4,5)           -179.9892         calculate D2E/DX2 analytically  !
 ! D16   D(2,3,4,6)             -0.0026         calculate D2E/DX2 analytically  !
 ! D17   D(15,3,4,5)             0.0196         calculate D2E/DX2 analytically  !
 ! D18   D(15,3,4,6)          -179.9938         calculate D2E/DX2 analytically  !
 ! D19   D(3,4,5,16)          -179.9935         calculate D2E/DX2 analytically  !
 ! D20   D(3,4,5,17)           -59.8268         calculate D2E/DX2 analytically  !
 ! D21   D(3,4,5,18)            59.8389         calculate D2E/DX2 analytically  !
 ! D22   D(6,4,5,16)             0.0201         calculate D2E/DX2 analytically  !
 ! D23   D(6,4,5,17)           120.1868         calculate D2E/DX2 analytically  !
 ! D24   D(6,4,5,18)          -120.1475         calculate D2E/DX2 analytically  !
 ! D25   D(3,4,6,7)              0.0023         calculate D2E/DX2 analytically  !
 ! D26   D(3,4,6,19)          -179.9986         calculate D2E/DX2 analytically  !
 ! D27   D(5,4,6,7)            179.9884         calculate D2E/DX2 analytically  !
 ! D28   D(5,4,6,19)            -0.0125         calculate D2E/DX2 analytically  !
 ! D29   D(4,6,7,8)            179.995          calculate D2E/DX2 analytically  !
 ! D30   D(4,6,7,11)            -0.0019         calculate D2E/DX2 analytically  !
 ! D31   D(19,6,7,8)            -0.0041         calculate D2E/DX2 analytically  !
 ! D32   D(19,6,7,11)          179.999          calculate D2E/DX2 analytically  !
 ! D33   D(6,7,8,9)           -179.9846         calculate D2E/DX2 analytically  !
 ! D34   D(6,7,8,10)             0.015          calculate D2E/DX2 analytically  !
 ! D35   D(11,7,8,9)             0.0121         calculate D2E/DX2 analytically  !
 ! D36   D(11,7,8,10)         -179.9883         calculate D2E/DX2 analytically  !
 ! D37   D(6,7,11,2)             0.0019         calculate D2E/DX2 analytically  !
 ! D38   D(6,7,11,22)          179.9965         calculate D2E/DX2 analytically  !
 ! D39   D(8,7,11,2)          -179.9948         calculate D2E/DX2 analytically  !
 ! D40   D(8,7,11,22)           -0.0001         calculate D2E/DX2 analytically  !
 ! D41   D(7,8,9,20)             0.0079         calculate D2E/DX2 analytically  !
 ! D42   D(7,8,9,21)          -179.992          calculate D2E/DX2 analytically  !
 ! D43   D(10,8,9,20)         -179.9916         calculate D2E/DX2 analytically  !
 ! D44   D(10,8,9,21)            0.0085         calculate D2E/DX2 analytically  !
 --------------------------------------------------------------------------------
 Trust Radius=3.00D-01 FncErr=1.00D-07 GrdErr=1.00D-07 EigMax=2.50D+02 EigMin=1.00D-04
 Number of steps in this run=      2 maximum allowed number of steps=      2.
 GradGradGradGradGradGradGradGradGradGradGradGradGradGradGradGradGradGrad

                          Input orientation:                          
 ---------------------------------------------------------------------
 Center     Atomic      Atomic             Coordinates (Angstroms)
 Number     Number       Type             X           Y           Z
 ---------------------------------------------------------------------
      1          6           0       -2.227195   -1.808953    0.221026
      2          6           0       -1.163538   -0.755507    0.137169
      3          6           0       -1.523951    0.572658    0.032763
      4          7           0       -0.545790    1.570321   -0.046566
      5          6           0       -0.978867    2.944543   -0.154308
      6          6           0        0.761204    1.237362   -0.021221
      7          6           0        1.186656   -0.064394    0.081065
      8          6           0        2.649727   -0.283073    0.097182
      9          7           0        3.059057   -1.569806    0.197967
     10          8           0        3.465201    0.642404    0.023879
     11          6           0        0.196044   -1.112507    0.164373
     12          1           0       -2.131010   -2.384520    1.154070
     13          1           0       -2.131448   -2.524504   -0.609583
     14          1           0       -3.234001   -1.373968    0.186769
     15          1           0       -2.555899    0.915147    0.006370
     16          1           0       -0.106422    3.603460   -0.207014
     17          1           0       -1.588606    3.081220   -1.059727
     18          1           0       -1.586900    3.221286    0.719741
     19          1           0        1.479546    2.053129   -0.086008
     20          1           0        2.420589   -2.348756    0.259506
     21          1           0        4.049654   -1.765814    0.212771
     22          1           0        0.468651   -2.163828    0.246976
 ---------------------------------------------------------------------
                    Distance matrix (angstroms):
                    1          2          3          4          5
     1  C    0.000000
     2  C    1.499382   0.000000
     3  C    2.490395   1.380153   0.000000
     4  N    3.783942   2.413472   1.399436   0.000000
     5  C    4.928988   3.716105   2.440891   1.444871   0.000000
     6  C    4.274254   2.775112   2.380479   1.348977   2.441317
     7  C    3.836334   2.450347   2.784880   2.385362   3.714646
     8  C    5.111557   3.842627   4.260987   3.696899   4.862865
     9  N    5.291709   4.300824   5.061759   4.786974   6.066983
    10  O    6.200919   4.836550   4.989647   4.117529   5.008127
    11  C    2.521971   1.405935   2.411532   2.791483   4.235756
    12  H    1.100500   2.150296   3.220365   4.426648   5.606978
    13  H    1.100497   2.150311   3.220881   4.427062   5.607690
    14  H    1.097289   2.161428   2.595639   3.993715   4.883800
    15  H    2.752243   2.178730   1.087618   2.114851   2.575131
    16  H    5.828817   4.498506   3.354496   2.086252   1.094582
    17  H    5.095284   4.041500   2.736896   2.096849   1.100112
    18  H    5.095292   4.041474   2.736993   2.096860   1.100114
    19  H    5.361891   3.863177   3.350656   2.082462   2.615928
    20  H    4.679185   3.924204   4.913804   4.924657   6.304488
    21  H    6.277003   5.310726   6.046977   5.684643   6.899873
    22  H    2.719228   2.158580   3.391859   3.880609   5.324641
                    6          7          8          9         10
     6  C    0.000000
     7  C    1.373331   0.000000
     8  C    2.427398   1.479411   0.000000
     9  N    3.634331   2.405373   1.354027   0.000000
    10  O    2.769044   2.386336   1.235670   2.255911   0.000000
    11  C    2.423991   1.444574   2.590953   2.899499   3.713063
    12  H    4.781656   4.188225   5.328089   5.339914   6.461979
    13  H    4.781760   4.187953   5.327585   5.339000   6.461660
    14  H    4.777443   4.611764   5.984675   6.296114   6.997971
    15  H    3.332831   3.869341   5.342520   6.143243   6.027300
    16  H    2.526998   3.899769   4.774310   6.078401   4.645176
    17  H    3.162265   4.347226   5.533568   6.694372   5.715154
    18  H    3.162052   4.346977   5.533274   6.694156   5.714768
    19  H    1.088893   2.144202   2.619298   3.962468   2.438247
    20  H    3.961390   2.602450   2.084682   1.009055   3.177070
    21  H    4.459565   3.333007   2.042468   1.009911   2.485313
    22  H    3.424268   2.225013   2.883881   2.658094   4.111450
                   11         12         13         14         15
    11  C    0.000000
    12  H    2.830671   0.000000
    13  H    2.830187   1.769200   0.000000
    14  H    3.440069   1.781425   1.781441   0.000000
    15  H    3.421920   3.519310   3.520050   2.394246   0.000000
    16  H    4.740228   6.465865   6.466431   5.891656   3.643145
    17  H    4.719189   5.921944   5.649907   4.910171   2.600788
    18  H    4.719013   5.648872   5.922646   4.910536   2.601180
    19  H    3.425101   5.853771   5.853898   5.834117   4.193847
    20  H    2.546755   4.638812   4.637590   5.738457   5.956725
    21  H    3.908895   6.282472   6.281552   7.294234   7.131864
    22  H    1.089227   2.762203   2.761213   3.786441   4.322718
                   16         17         18         19         20
    16  H    0.000000
    17  H    1.787938   0.000000
    18  H    1.787944   1.784973   0.000000
    19  H    2.221140   3.379150   3.378892   0.000000
    20  H    6.483233   6.877403   6.877293   4.514592   0.000000
    21  H    6.802815   7.543406   7.543138   4.612922   1.730855
    22  H    5.813642   5.783625   5.783447   4.349197   1.960718
                   21         22
    21  H    0.000000
    22  H    3.603216   0.000000
 Stoichiometry    C8H11N2O(2)
 Framework group  C1[X(C8H11N2O)]
 Deg. of freedom    60
 Full point group                 C1      NOp   1
 Largest Abelian subgroup         C1      NOp   1
 Largest concise Abelian subgroup C1      NOp   1
                         Standard orientation:                         
 ---------------------------------------------------------------------
 Center     Atomic      Atomic             Coordinates (Angstroms)
 Number     Number       Type             X           Y           Z
 ---------------------------------------------------------------------
      1          6           0       -2.157172    2.467786   -0.000104
      2          6           0       -1.350258    1.204047    0.000009
      3          6           0       -1.993194   -0.017204    0.000093
      4          7           0       -1.257475   -1.207641    0.000135
      5          6           0       -1.981412   -2.458067   -0.000018
      6          6           0        0.090905   -1.167512    0.000041
      7          6           0        0.791515    0.013667   -0.000050
      8          6           0        2.267133   -0.092202   -0.000031
      9          7           0        2.948712    1.077772    0.000206
     10          8           0        2.859935   -1.176391   -0.000210
     11          6           0        0.054708    1.256209   -0.000089
     12          1           0       -1.922504    3.078291   -0.885155
     13          1           0       -1.921416    3.079173    0.884044
     14          1           0       -3.235010    2.262101    0.000643
     15          1           0       -3.075275   -0.126810    0.000280
     16          1           0       -1.274571   -3.293822    0.000154
     17          1           0       -2.621084   -2.527238    0.892328
     18          1           0       -2.620692   -2.527263   -0.892645
     19          1           0        0.612980   -2.123089    0.000057
     20          1           0        2.496500    1.979823    0.000479
     21          1           0        3.958320    1.053033    0.000104
     22          1           0        0.551256    2.225670   -0.000105
 ---------------------------------------------------------------------
 Rotational constants (GHZ):           1.5655811           0.8636211           0.5605193
 Basis read from chk: "/scratch/aplatt/job_46371443/Gau-3795827.chk" (5D, 7F)
 Pseudo-potential data read from chk file.
 There are   333 symmetry adapted cartesian basis functions of A   symmetry.
 There are   311 symmetry adapted basis functions of A   symmetry.
   311 basis functions,   465 primitive gaussians,   333 cartesian basis functions
    41 alpha electrons       40 beta electrons
       nuclear repulsion energy       594.9771444430 Hartrees.
 NAtoms=   22 NActive=   22 NUniq=   22 SFac= 1.00D+00 NAtFMM=   60 NAOKFM=F Big=F
 Integral buffers will be    131072 words long.
 Raffenetti 2 integral format.
 Two-electron integral symmetry is turned on.
 Nuclear repulsion after empirical dispersion term =      594.9573067831 Hartrees.
 Force inversion solution in PCM.
 ------------------------------------------------------------------------------
 Polarizable Continuum Model (PCM)
 =================================
 Model                : PCM.
 Atomic radii         : SMD-Coulomb.
 Polarization charges : Total charges.
 Charge compensation  : None.
 Solution method      : Matrix inversion.
 Cavity type          : VdW (van der Waals Surface) (Alpha=1.000).
 Cavity algorithm     : GePol (No added spheres)
                        Default sphere list used, NSphG=   22.
                        Lebedev-Laikov grids with approx.  5.0 points / Ang**2.
                        Smoothing algorithm: York/Karplus (Gamma=1.0000).
                        Polarization charges: spherical gaussians, with
                                              point-specific exponents (IZeta= 3).
                        Self-potential: point-specific (ISelfS= 7).
                        Self-field    : sphere-specific E.n sum rule (ISelfD= 2).
 1st derivatives      : Analytical E(r).r(x)/FMM algorithm (CHGder, D1EAlg=3).
                        Cavity 1st derivative terms included.
 2nd derivatives      : Analytical E(r).r(xy)/FMM algorithm (CHGder, D2EAlg=3).
                        Cavity 2nd derivative terms included.
 Solvent              : DiMethylSulfoxide, Eps=  46.826000 Eps(inf)=   2.007889
 ------------------------------------------------------------------------------
 ------------------------------------------------------------------------------
 Atomic radii for non-electrostatic terms: SMD-CDS.
 ------------------------------------------------------------------------------
 Nuclear repulsion after PCM non-electrostatic terms =      594.9577789238 Hartrees.
 One-electron integrals computed using PRISM.
   1 Symmetry operations used in ECPInt.
 ECPInt:  NShTT=    8911 NPrTT=   24707 LenC2=    8777 LenP2D=   20106.
 LDataN:  DoStor=T MaxTD1= 4 Len=   56
 NBasis=   311 RedAO= T EigKep=  8.88D-06  NBF=   311
 NBsUse=   311 1.00D-06 EigRej= -1.00D+00 NBFU=   311
 Initial guess from the checkpoint file:  "/scratch/aplatt/job_46371443/Gau-3795827.chk"
 B after Tr=    -0.000000    0.000000    0.000000
         Rot=    1.000000    0.000000    0.000000   -0.000000 Ang=   0.00 deg.
 Initial guess <Sx>= 0.0000 <Sy>= 0.0000 <Sz>= 0.5000 <S**2>= 0.7682 S= 0.5090
 Requested convergence on RMS density matrix=1.00D-08 within 128 cycles.
 Requested convergence on MAX density matrix=1.00D-06.
 Requested convergence on             energy=1.00D-06.
 No special actions if energy rises.
 Inv3:  Mode=1 IEnd=     9398700.
 Iteration    1 A*A^-1 deviation from unit magnitude is 3.11D-15 for   1263.
 Iteration    1 A*A^-1 deviation from orthogonality  is 2.06D-15 for   1291    124.
 Iteration    1 A^-1*A deviation from unit magnitude is 3.11D-15 for    251.
 Iteration    1 A^-1*A deviation from orthogonality  is 1.46D-14 for   1371   1244.
 Error on total polarization charges =  0.03896
 SCF Done:  E(UPBE1PBE) =  -495.324424101     A.U. after    1 cycles
            NFock=  1  Conv=0.99D-09     -V/T= 2.0109
 <Sx>= 0.0000 <Sy>= 0.0000 <Sz>= 0.5000 <S**2>= 0.7682 S= 0.5090
 <L.S>= 0.000000000000E+00
 SMD-CDS (non-electrostatic) energy       (kcal/mol) =       0.30
 (included in total energy above)
 Annihilation of the first spin contaminant:
 S**2 before annihilation     0.7682,   after     0.7501
 DoSCS=F DFT=T ScalE2(SS,OS)=  1.000000  1.000000
 Range of M.O.s used for correlation:     1   311
 NBasis=   311 NAE=    41 NBE=    40 NFC=     0 NFV=     0
 NROrb=    311 NOA=    41 NOB=    40 NVA=   270 NVB=   271

 **** Warning!!: The largest alpha MO coefficient is  0.59219267D+02


 **** Warning!!: The largest beta MO coefficient is  0.61297949D+02

   1 Symmetry operations used in ECPInt.
 ECPInt:  NShTT=    8911 NPrTT=   24707 LenC2=    8777 LenP2D=   20106.
 LDataN:  DoStor=T MaxTD1= 5 Len=  102
 Symmetrizing basis deriv contribution to polar:
 IMax=3 JMax=2 DiffMx= 0.00D+00
 G2DrvN: will do    23 centers at a time, making    1 passes.
 Calling FoFCou, ICntrl=  3107 FMM=F I1Cent=   0 AccDes= 0.00D+00.
 NEqPCM:  Using equilibrium solvation (IEInf=0, Eps=  46.8260, EpsInf=   2.0079)
 G2PCM: DoFxE=T DoFxN=T DoGrad=T DoDP/DQ/DG/TGxP=FFFF NFrqRd=   0 IEInf=0 SqF1=F DoCFld=F IF1Alg=4.
 End of G2Drv F.D. properties file   721 does not exist.
 End of G2Drv F.D. properties file   722 does not exist.
 End of G2Drv F.D. properties file   788 does not exist.
          IDoAtm=1111111111111111111111
 NEqPCM:  Using equilibrium solvation (IEInf=0, Eps=  46.8260, EpsInf=   2.0079)
          Differentiating once with respect to electric field.
                with respect to dipole field.
          Differentiating once with respect to nuclear coordinates.
 Keep R1 and R2 ints in memory in canonical form, NReq=2372492778.
          There are    69 degrees of freedom in the 1st order CPHF.  IDoFFX=6 NUNeed=     3.
     66 vectors produced by pass  0 Test12= 3.18D-14 1.45D-09 XBig12= 3.67D+02 9.75D+00.
 AX will form    66 AO Fock derivatives at one time.
     66 vectors produced by pass  1 Test12= 3.18D-14 1.45D-09 XBig12= 5.73D+01 1.51D+00.
     66 vectors produced by pass  2 Test12= 3.18D-14 1.45D-09 XBig12= 7.38D-01 1.62D-01.
     66 vectors produced by pass  3 Test12= 3.18D-14 1.45D-09 XBig12= 7.76D-03 1.53D-02.
     66 vectors produced by pass  4 Test12= 3.18D-14 1.45D-09 XBig12= 5.82D-05 7.22D-04.
     66 vectors produced by pass  5 Test12= 3.18D-14 1.45D-09 XBig12= 2.39D-07 4.57D-05.
     58 vectors produced by pass  6 Test12= 3.18D-14 1.45D-09 XBig12= 1.60D-09 4.27D-06.
     25 vectors produced by pass  7 Test12= 3.18D-14 1.45D-09 XBig12= 8.13D-12 2.48D-07.
      3 vectors produced by pass  8 Test12= 3.18D-14 1.45D-09 XBig12= 2.83D-14 1.45D-08.
 InvSVY:  IOpt=1 It=  1 EMax= 3.75D-15
 Solved reduced A of dimension   482 with    69 vectors.
 Isotropic polarizability for W=    0.000000      181.79 Bohr**3.
 End of Minotr F.D. properties file   721 does not exist.
 End of Minotr F.D. properties file   722 does not exist.
 End of Minotr F.D. properties file   788 does not exist.

 **********************************************************************

            Population analysis using the SCF Density.

 **********************************************************************

 Orbital symmetries:
 Alpha Orbitals:
       Occupied  (A) (A) (A) (A) (A) (A) (A) (A) (A) (A) (A) (A)
                 (A) (A) (A) (A) (A) (A) (A) (A) (A) (A) (A) (A)
                 (A) (A) (A) (A) (A) (A) (A) (A) (A) (A) (A) (A)
                 (A) (A) (A) (A) (A)
       Virtual   (A) (A) (A) (A) (A) (A) (A) (A) (A) (A) (A) (A)
                 (A) (A) (A) (A) (A) (A) (A) (A) (A) (A) (A) (A)
                 (A) (A) (A) (A) (A) (A) (A) (A) (A) (A) (A) (A)
                 (A) (A) (A) (A) (A) (A) (A) (A) (A) (A) (A) (A)
                 (A) (A) (A) (A) (A) (A) (A) (A) (A) (A) (A) (A)
                 (A) (A) (A) (A) (A) (A) (A) (A) (A) (A) (A) (A)
                 (A) (A) (A) (A) (A) (A) (A) (A) (A) (A) (A) (A)
                 (A) (A) (A) (A) (A) (A) (A) (A) (A) (A) (A) (A)
                 (A) (A) (A) (A) (A) (A) (A) (A) (A) (A) (A) (A)
                 (A) (A) (A) (A) (A) (A) (A) (A) (A) (A) (A) (A)
                 (A) (A) (A) (A) (A) (A) (A) (A) (A) (A) (A) (A)
                 (A) (A) (A) (A) (A) (A) (A) (A) (A) (A) (A) (A)
                 (A) (A) (A) (A) (A) (A) (A) (A) (A) (A) (A) (A)
                 (A) (A) (A) (A) (A) (A) (A) (A) (A) (A) (A) (A)
                 (A) (A) (A) (A) (A) (A) (A) (A) (A) (A) (A) (A)
                 (A) (A) (A) (A) (A) (A) (A) (A) (A) (A) (A) (A)
                 (A) (A) (A) (A) (A) (A) (A) (A) (A) (A) (A) (A)
                 (A) (A) (A) (A) (A) (A) (A) (A) (A) (A) (A) (A)
                 (A) (A) (A) (A) (A) (A) (A) (A) (A) (A) (A) (A)
                 (A) (A) (A) (A) (A) (A) (A) (A) (A) (A) (A) (A)
                 (A) (A) (A) (A) (A) (A) (A) (A) (A) (A) (A) (A)
                 (A) (A) (A) (A) (A) (A) (A) (A) (A) (A) (A) (A)
                 (A) (A) (A) (A) (A) (A)
 Beta  Orbitals:
       Occupied  (A) (A) (A) (A) (A) (A) (A) (A) (A) (A) (A) (A)
                 (A) (A) (A) (A) (A) (A) (A) (A) (A) (A) (A) (A)
                 (A) (A) (A) (A) (A) (A) (A) (A) (A) (A) (A) (A)
                 (A) (A) (A) (A)
       Virtual   (A) (A) (A) (A) (A) (A) (A) (A) (A) (A) (A) (A)
                 (A) (A) (A) (A) (A) (A) (A) (A) (A) (A) (A) (A)
                 (A) (A) (A) (A) (A) (A) (A) (A) (A) (A) (A) (A)
                 (A) (A) (A) (A) (A) (A) (A) (A) (A) (A) (A) (A)
                 (A) (A) (A) (A) (A) (A) (A) (A) (A) (A) (A) (A)
                 (A) (A) (A) (A) (A) (A) (A) (A) (A) (A) (A) (A)
                 (A) (A) (A) (A) (A) (A) (A) (A) (A) (A) (A) (A)
                 (A) (A) (A) (A) (A) (A) (A) (A) (A) (A) (A) (A)
                 (A) (A) (A) (A) (A) (A) (A) (A) (A) (A) (A) (A)
                 (A) (A) (A) (A) (A) (A) (A) (A) (A) (A) (A) (A)
                 (A) (A) (A) (A) (A) (A) (A) (A) (A) (A) (A) (A)
                 (A) (A) (A) (A) (A) (A) (A) (A) (A) (A) (A) (A)
                 (A) (A) (A) (A) (A) (A) (A) (A) (A) (A) (A) (A)
                 (A) (A) (A) (A) (A) (A) (A) (A) (A) (A) (A) (A)
                 (A) (A) (A) (A) (A) (A) (A) (A) (A) (A) (A) (A)
                 (A) (A) (A) (A) (A) (A) (A) (A) (A) (A) (A) (A)
                 (A) (A) (A) (A) (A) (A) (A) (A) (A) (A) (A) (A)
                 (A) (A) (A) (A) (A) (A) (A) (A) (A) (A) (A) (A)
                 (A) (A) (A) (A) (A) (A) (A) (A) (A) (A) (A) (A)
                 (A) (A) (A) (A) (A) (A) (A) (A) (A) (A) (A) (A)
                 (A) (A) (A) (A) (A) (A) (A) (A) (A) (A) (A) (A)
                 (A) (A) (A) (A) (A) (A) (A) (A) (A) (A) (A) (A)
                 (A) (A) (A) (A) (A) (A) (A)
 The electronic state is 2-A.
 Alpha  occ. eigenvalues --  -19.17036 -14.45468 -14.40305 -10.32882 -10.27884
 Alpha  occ. eigenvalues --  -10.26255 -10.25653 -10.24769 -10.23740 -10.22546
 Alpha  occ. eigenvalues --  -10.22513  -1.04266  -1.00635  -0.91072  -0.84240
 Alpha  occ. eigenvalues --   -0.80305  -0.73261  -0.71335  -0.67279  -0.62687
 Alpha  occ. eigenvalues --   -0.59498  -0.55683  -0.52821  -0.50742  -0.49032
 Alpha  occ. eigenvalues --   -0.48458  -0.46354  -0.43707  -0.43374  -0.42419
 Alpha  occ. eigenvalues --   -0.42321  -0.41094  -0.39625  -0.37692  -0.37367
 Alpha  occ. eigenvalues --   -0.36431  -0.30108  -0.28270  -0.27842  -0.26891
 Alpha  occ. eigenvalues --   -0.13195
 Alpha virt. eigenvalues --   -0.02941   0.02757   0.04437   0.04745   0.05097
 Alpha virt. eigenvalues --    0.07401   0.08003   0.08212   0.09125   0.10922
 Alpha virt. eigenvalues --    0.11162   0.11767   0.12044   0.12925   0.13303
 Alpha virt. eigenvalues --    0.13973   0.14768   0.16016   0.16079   0.16346
 Alpha virt. eigenvalues --    0.17741   0.17759   0.18164   0.18996   0.19005
 Alpha virt. eigenvalues --    0.20291   0.20844   0.22231   0.22537   0.23518
 Alpha virt. eigenvalues --    0.23876   0.25368   0.25991   0.26022   0.26416
 Alpha virt. eigenvalues --    0.27176   0.27372   0.29035   0.29988   0.30042
 Alpha virt. eigenvalues --    0.30386   0.30595   0.32034   0.32284   0.32712
 Alpha virt. eigenvalues --    0.33945   0.34299   0.34584   0.35521   0.35849
 Alpha virt. eigenvalues --    0.36144   0.36438   0.37035   0.37183   0.37634
 Alpha virt. eigenvalues --    0.38600   0.38739   0.38863   0.38914   0.40455
 Alpha virt. eigenvalues --    0.40888   0.40897   0.41870   0.42112   0.42190
 Alpha virt. eigenvalues --    0.42615   0.42803   0.43452   0.44347   0.45129
 Alpha virt. eigenvalues --    0.45769   0.46888   0.47306   0.47687   0.48602
 Alpha virt. eigenvalues --    0.48788   0.49771   0.50143   0.50165   0.50916
 Alpha virt. eigenvalues --    0.51996   0.52273   0.52772   0.53413   0.53956
 Alpha virt. eigenvalues --    0.54993   0.55219   0.55600   0.55995   0.56987
 Alpha virt. eigenvalues --    0.57706   0.58284   0.60088   0.60283   0.60736
 Alpha virt. eigenvalues --    0.61977   0.62052   0.63001   0.63696   0.64662
 Alpha virt. eigenvalues --    0.66490   0.67393   0.68828   0.69498   0.70176
 Alpha virt. eigenvalues --    0.70188   0.70994   0.71690   0.71742   0.73002
 Alpha virt. eigenvalues --    0.73393   0.74345   0.74515   0.76144   0.76811
 Alpha virt. eigenvalues --    0.77110   0.78393   0.79874   0.81240   0.81635
 Alpha virt. eigenvalues --    0.83119   0.85153   0.85364   0.86643   0.88633
 Alpha virt. eigenvalues --    0.89620   0.91254   0.92479   0.95831   0.96485
 Alpha virt. eigenvalues --    0.96548   0.97775   0.98213   0.99579   1.00777
 Alpha virt. eigenvalues --    1.02457   1.02528   1.03532   1.04854   1.05376
 Alpha virt. eigenvalues --    1.06155   1.06649   1.08784   1.10525   1.11533
 Alpha virt. eigenvalues --    1.13193   1.13991   1.16300   1.17168   1.18741
 Alpha virt. eigenvalues --    1.22515   1.23139   1.24835   1.26233   1.27135
 Alpha virt. eigenvalues --    1.27537   1.30593   1.32158   1.33147   1.34053
 Alpha virt. eigenvalues --    1.36406   1.36697   1.37778   1.38316   1.40661
 Alpha virt. eigenvalues --    1.42633   1.43630   1.47575   1.51171   1.52479
 Alpha virt. eigenvalues --    1.56334   1.58679   1.58866   1.59926   1.61426
 Alpha virt. eigenvalues --    1.62566   1.62809   1.63998   1.65565   1.66078
 Alpha virt. eigenvalues --    1.68562   1.69870   1.70491   1.72138   1.74562
 Alpha virt. eigenvalues --    1.75936   1.76148   1.78009   1.78792   1.80472
 Alpha virt. eigenvalues --    1.82119   1.83122   1.84732   1.84778   1.86532
 Alpha virt. eigenvalues --    1.91206   1.92495   1.94124   1.95564   1.96798
 Alpha virt. eigenvalues --    1.97371   1.99328   1.99789   2.02218   2.03342
 Alpha virt. eigenvalues --    2.04308   2.05575   2.05711   2.08133   2.10835
 Alpha virt. eigenvalues --    2.11135   2.13576   2.14915   2.16114   2.16238
 Alpha virt. eigenvalues --    2.18913   2.21249   2.23130   2.23218   2.24295
 Alpha virt. eigenvalues --    2.24912   2.27346   2.29479   2.37044   2.37230
 Alpha virt. eigenvalues --    2.38783   2.41060   2.41784   2.42619   2.47020
 Alpha virt. eigenvalues --    2.47417   2.48790   2.51584   2.52437   2.54322
 Alpha virt. eigenvalues --    2.56681   2.64023   2.65647   2.66076   2.66983
 Alpha virt. eigenvalues --    2.68046   2.71658   2.72016   2.75279   2.75881
 Alpha virt. eigenvalues --    2.78850   2.85228   2.91148   2.92118   2.95642
 Alpha virt. eigenvalues --    2.95690   3.00177   3.02630   3.06008   3.07086
 Alpha virt. eigenvalues --    3.09385   3.12297   3.14987   3.17136   3.18673
 Alpha virt. eigenvalues --    3.20782   3.21968   3.22727   3.24753   3.35271
 Alpha virt. eigenvalues --    3.43509   3.55197   3.60831   3.74280   3.88771
  Beta  occ. eigenvalues --  -19.16910 -14.44971 -14.40310 -10.32852 -10.27882
  Beta  occ. eigenvalues --  -10.26289 -10.25085 -10.25018 -10.23667 -10.22499
  Beta  occ. eigenvalues --  -10.21778  -1.04075  -0.99797  -0.91007  -0.83666
  Beta  occ. eigenvalues --   -0.79879  -0.72870  -0.71004  -0.66360  -0.62169
  Beta  occ. eigenvalues --   -0.59404  -0.55573  -0.52595  -0.50314  -0.48697
  Beta  occ. eigenvalues --   -0.47082  -0.46078  -0.43623  -0.42858  -0.42283
  Beta  occ. eigenvalues --   -0.42185  -0.40970  -0.39476  -0.37129  -0.36717
  Beta  occ. eigenvalues --   -0.36231  -0.27843  -0.26906  -0.26757  -0.26147
  Beta virt. eigenvalues --   -0.03610  -0.02380   0.02931   0.04869   0.05176
  Beta virt. eigenvalues --    0.05625   0.07508   0.08198   0.08369   0.09264
  Beta virt. eigenvalues --    0.11015   0.11339   0.12139   0.12272   0.13064
  Beta virt. eigenvalues --    0.13802   0.14098   0.14813   0.16140   0.16701
  Beta virt. eigenvalues --    0.16826   0.18017   0.18197   0.18250   0.19138
  Beta virt. eigenvalues --    0.20079   0.20683   0.21092   0.22725   0.22737
  Beta virt. eigenvalues --    0.23736   0.24030   0.25476   0.26108   0.26205
  Beta virt. eigenvalues --    0.26725   0.27428   0.27695   0.29173   0.30112
  Beta virt. eigenvalues --    0.30134   0.30796   0.30892   0.32188   0.32455
  Beta virt. eigenvalues --    0.33069   0.34052   0.34568   0.34820   0.35624
  Beta virt. eigenvalues --    0.36018   0.36381   0.36648   0.37240   0.37380
  Beta virt. eigenvalues --    0.37899   0.38830   0.38844   0.39060   0.39453
  Beta virt. eigenvalues --    0.40600   0.41150   0.41167   0.42225   0.42415
  Beta virt. eigenvalues --    0.42547   0.42981   0.43104   0.43708   0.44495
  Beta virt. eigenvalues --    0.45294   0.45951   0.47108   0.47556   0.47955
  Beta virt. eigenvalues --    0.48705   0.49125   0.49988   0.50297   0.50392
  Beta virt. eigenvalues --    0.51193   0.52157   0.52378   0.52931   0.53520
  Beta virt. eigenvalues --    0.54274   0.55160   0.55540   0.55831   0.56098
  Beta virt. eigenvalues --    0.57077   0.57887   0.58710   0.60277   0.60453
  Beta virt. eigenvalues --    0.60845   0.62163   0.62353   0.63510   0.63863
  Beta virt. eigenvalues --    0.64727   0.66810   0.67556   0.69214   0.69740
  Beta virt. eigenvalues --    0.70393   0.70409   0.71183   0.71852   0.72119
  Beta virt. eigenvalues --    0.73127   0.73653   0.74539   0.74863   0.76288
  Beta virt. eigenvalues --    0.77296   0.77302   0.78545   0.80049   0.81478
  Beta virt. eigenvalues --    0.81770   0.83706   0.85323   0.85506   0.86746
  Beta virt. eigenvalues --    0.88771   0.89737   0.91906   0.92591   0.95932
  Beta virt. eigenvalues --    0.96563   0.96684   0.98113   0.98456   0.99688
  Beta virt. eigenvalues --    1.00887   1.02662   1.03183   1.03688   1.04894
  Beta virt. eigenvalues --    1.05624   1.06837   1.07272   1.09269   1.10665
  Beta virt. eigenvalues --    1.11883   1.14211   1.14721   1.17282   1.17373
  Beta virt. eigenvalues --    1.18983   1.22595   1.23226   1.25193   1.26415
  Beta virt. eigenvalues --    1.27424   1.27669   1.30845   1.32289   1.33429
  Beta virt. eigenvalues --    1.34664   1.36544   1.36989   1.38071   1.39186
  Beta virt. eigenvalues --    1.40941   1.42774   1.43793   1.47685   1.51567
  Beta virt. eigenvalues --    1.52727   1.57142   1.58816   1.59484   1.60855
  Beta virt. eigenvalues --    1.61808   1.62700   1.63119   1.64182   1.66007
  Beta virt. eigenvalues --    1.66356   1.68665   1.70094   1.70555   1.72622
  Beta virt. eigenvalues --    1.75024   1.76081   1.76413   1.78249   1.79026
  Beta virt. eigenvalues --    1.80657   1.82400   1.83235   1.85055   1.85134
  Beta virt. eigenvalues --    1.86615   1.91390   1.92737   1.94441   1.95760
  Beta virt. eigenvalues --    1.97165   1.97450   1.99446   2.00066   2.02384
  Beta virt. eigenvalues --    2.03664   2.05089   2.05763   2.06458   2.08330
  Beta virt. eigenvalues --    2.11339   2.11344   2.13767   2.15654   2.16647
  Beta virt. eigenvalues --    2.16793   2.19102   2.21560   2.23644   2.23779
  Beta virt. eigenvalues --    2.24527   2.24955   2.27422   2.29751   2.37421
  Beta virt. eigenvalues --    2.38200   2.39026   2.41669   2.41827   2.42917
  Beta virt. eigenvalues --    2.47916   2.48374   2.48887   2.52243   2.52524
  Beta virt. eigenvalues --    2.54355   2.57007   2.64164   2.65741   2.66112
  Beta virt. eigenvalues --    2.67083   2.68217   2.71896   2.72155   2.76097
  Beta virt. eigenvalues --    2.76663   2.78936   2.86250   2.91183   2.92696
  Beta virt. eigenvalues --    2.96063   2.96354   3.00595   3.02910   3.06087
  Beta virt. eigenvalues --    3.07223   3.09389   3.12534   3.15188   3.17352
  Beta virt. eigenvalues --    3.19044   3.21191   3.22297   3.22924   3.25127
  Beta virt. eigenvalues --    3.35304   3.43713   3.55306   3.60953   3.74422
  Beta virt. eigenvalues --    3.88875
          Condensed to atoms (all electrons):
               1          2          3          4          5          6
     1  C    5.715118  -0.603122  -0.497756   0.099312  -0.001904   0.082954
     2  C   -0.603122  11.029080  -1.393883  -0.273731  -0.067380  -0.531272
     3  C   -0.497756  -1.393883   7.855015  -0.364401  -0.128975  -0.208910
     4  N    0.099312  -0.273731  -0.364401   8.892369   0.600153   0.248270
     5  C   -0.001904  -0.067380  -0.128975   0.600153   4.442849  -0.206586
     6  C    0.082954  -0.531272  -0.208910   0.248270  -0.206586   6.899394
     7  C    0.030576  -0.361948  -0.154778  -0.500398  -0.095296  -0.153912
     8  C   -0.011298   0.152559   0.030675   0.013519   0.000438  -0.328863
     9  N    0.000520   0.006472   0.001679   0.004993  -0.000161   0.003085
    10  O    0.000735  -0.025932   0.003648   0.035727  -0.002494  -0.121046
    11  C   -0.087905   0.305360  -0.493035   0.127738  -0.036032  -0.367408
    12  H    0.071432   0.136178   0.068895  -0.004037   0.000043  -0.003931
    13  H    0.071870   0.135669   0.068912  -0.004032   0.000043  -0.003930
    14  H    0.480080   0.083605  -0.160073   0.013899   0.000587   0.004453
    15  H   -0.113959  -0.580033   0.754882  -0.504086  -0.071698   0.059145
    16  H    0.000227   0.010637   0.025532  -0.009572   0.262849   0.050021
    17  H   -0.000772   0.009300   0.035433   0.061976   0.249665  -0.003152
    18  H   -0.000771   0.009311   0.035367   0.062098   0.249732  -0.003174
    19  H   -0.003289   0.170477   0.132016  -0.541569   0.023924  -0.308825
    20  H    0.001374   0.007639   0.000237   0.000871  -0.000034  -0.017765
    21  H   -0.000081  -0.000213  -0.000176  -0.000292   0.000013   0.004185
    22  H    0.062375  -0.735283   0.140124  -0.029933   0.004041   0.115868
               7          8          9         10         11         12
     1  C    0.030576  -0.011298   0.000520   0.000735  -0.087905   0.071432
     2  C   -0.361948   0.152559   0.006472  -0.025932   0.305360   0.136178
     3  C   -0.154778   0.030675   0.001679   0.003648  -0.493035   0.068895
     4  N   -0.500398   0.013519   0.004993   0.035727   0.127738  -0.004037
     5  C   -0.095296   0.000438  -0.000161  -0.002494  -0.036032   0.000043
     6  C   -0.153912  -0.328863   0.003085  -0.121046  -0.367408  -0.003931
     7  C   10.099331  -1.398844   0.140544  -0.026684  -0.014223  -0.004173
     8  C   -1.398844   6.749290  -0.049115   0.179747  -0.285338   0.000598
     9  N    0.140544  -0.049115   6.098051   0.048292   0.022010  -0.000113
    10  O   -0.026684   0.179747   0.048292   8.641343   0.003543  -0.000013
    11  C   -0.014223  -0.285338   0.022010   0.003543   7.733278   0.016093
    12  H   -0.004173   0.000598  -0.000113  -0.000013   0.016093   0.561005
    13  H   -0.004180   0.000597  -0.000113  -0.000013   0.016019   0.069770
    14  H    0.000198  -0.000544   0.000040   0.000024   0.022156  -0.046756
    15  H    0.114689   0.000525  -0.000120  -0.000876  -0.030541   0.010298
    16  H    0.028724  -0.001227   0.000035   0.001295   0.005545   0.000000
    17  H   -0.001400   0.000644  -0.000012  -0.000107  -0.003008  -0.000024
    18  H   -0.001405   0.000644  -0.000012  -0.000107  -0.003009   0.000011
    19  H   -0.320884   0.062686  -0.002806   0.053985   0.062335   0.000194
    20  H   -0.086046   0.228659   0.249778  -0.030875  -0.061809  -0.000139
    21  H    0.044308  -0.180533   0.509400   0.004844   0.042176  -0.000009
    22  H   -0.260306  -0.046555  -0.038922  -0.014554  -0.927586   0.005175
              13         14         15         16         17         18
     1  C    0.071870   0.480080  -0.113959   0.000227  -0.000772  -0.000771
     2  C    0.135669   0.083605  -0.580033   0.010637   0.009300   0.009311
     3  C    0.068912  -0.160073   0.754882   0.025532   0.035433   0.035367
     4  N   -0.004032   0.013899  -0.504086  -0.009572   0.061976   0.062098
     5  C    0.000043   0.000587  -0.071698   0.262849   0.249665   0.249732
     6  C   -0.003930   0.004453   0.059145   0.050021  -0.003152  -0.003174
     7  C   -0.004180   0.000198   0.114689   0.028724  -0.001400  -0.001405
     8  C    0.000597  -0.000544   0.000525  -0.001227   0.000644   0.000644
     9  N   -0.000113   0.000040  -0.000120   0.000035  -0.000012  -0.000012
    10  O   -0.000013   0.000024  -0.000876   0.001295  -0.000107  -0.000107
    11  C    0.016019   0.022156  -0.030541   0.005545  -0.003008  -0.003009
    12  H    0.069770  -0.046756   0.010298   0.000000  -0.000024   0.000011
    13  H    0.560701  -0.046707   0.010279   0.000000   0.000011  -0.000024
    14  H   -0.046707   0.600845  -0.069662  -0.000030   0.000025   0.000025
    15  H    0.010279  -0.069662   1.372917   0.015817  -0.016976  -0.017026
    16  H    0.000000  -0.000030   0.015817   0.773370  -0.037207  -0.037221
    17  H    0.000011   0.000025  -0.016976  -0.037207   0.624527  -0.025363
    18  H   -0.000024   0.000025  -0.017026  -0.037221  -0.025363   0.624550
    19  H    0.000194  -0.000278   0.026813   0.021658   0.003935   0.003919
    20  H   -0.000139   0.000041  -0.000043  -0.000004   0.000000   0.000000
    21  H   -0.000009   0.000001  -0.000001   0.000002   0.000001   0.000001
    22  H    0.005263   0.002106  -0.004261  -0.000286   0.000075   0.000075
              19         20         21         22
     1  C   -0.003289   0.001374  -0.000081   0.062375
     2  C    0.170477   0.007639  -0.000213  -0.735283
     3  C    0.132016   0.000237  -0.000176   0.140124
     4  N   -0.541569   0.000871  -0.000292  -0.029933
     5  C    0.023924  -0.000034   0.000013   0.004041
     6  C   -0.308825  -0.017765   0.004185   0.115868
     7  C   -0.320884  -0.086046   0.044308  -0.260306
     8  C    0.062686   0.228659  -0.180533  -0.046555
     9  N   -0.002806   0.249778   0.509400  -0.038922
    10  O    0.053985  -0.030875   0.004844  -0.014554
    11  C    0.062335  -0.061809   0.042176  -0.927586
    12  H    0.000194  -0.000139  -0.000009   0.005175
    13  H    0.000194  -0.000139  -0.000009   0.005263
    14  H   -0.000278   0.000041   0.000001   0.002106
    15  H    0.026813  -0.000043  -0.000001  -0.004261
    16  H    0.021658  -0.000004   0.000002  -0.000286
    17  H    0.003935   0.000000   0.000001   0.000075
    18  H    0.003919   0.000000   0.000001   0.000075
    19  H    1.658572   0.002159   0.000296   0.014495
    20  H    0.002159   1.296299  -0.495658  -0.000319
    21  H    0.000296  -0.495658   1.056924   0.004743
    22  H    0.014495  -0.000319   0.004743   2.179945
          Atomic-Atomic Spin Densities.
               1          2          3          4          5          6
     1  C    0.041200   0.021881  -0.008271  -0.004692  -0.000442  -0.003390
     2  C    0.021881  -0.414725  -0.025990   0.055103  -0.001848   0.083129
     3  C   -0.008271  -0.025990   0.698245  -0.061783   0.011781  -0.028278
     4  N   -0.004692   0.055103  -0.061783   0.083053  -0.029796  -0.051392
     5  C   -0.000442  -0.001848   0.011781  -0.029796  -0.031182   0.012289
     6  C   -0.003390   0.083129  -0.028278  -0.051392   0.012289  -0.065096
     7  C   -0.006390  -0.052361   0.044072   0.029398   0.002743   0.021996
     8  C   -0.000008  -0.006666  -0.001730   0.003617  -0.000257   0.007939
     9  N    0.000012  -0.000765  -0.000129  -0.000262  -0.000001  -0.001376
    10  O    0.000014  -0.000288  -0.000003  -0.001551  -0.000008  -0.005806
    11  C   -0.003196  -0.016339  -0.085494   0.030065  -0.001669   0.030519
    12  H   -0.005074  -0.002644   0.004685   0.000080   0.000003  -0.000032
    13  H   -0.005039  -0.002671   0.004695   0.000082   0.000003  -0.000032
    14  H    0.012397  -0.006161  -0.006934   0.000200  -0.000018   0.000195
    15  H    0.007894   0.044936   0.000473   0.031362   0.001387  -0.002233
    16  H    0.000008  -0.000615  -0.001986   0.007366   0.001448  -0.002445
    17  H    0.000023  -0.001282   0.002688   0.000590   0.003265  -0.000849
    18  H    0.000023  -0.001281   0.002689   0.000579   0.003265  -0.000849
    19  H    0.000185  -0.016211  -0.000683   0.058345   0.006104   0.045654
    20  H    0.000048   0.000105   0.000084   0.000160  -0.000000   0.000066
    21  H   -0.000001   0.000078   0.000004   0.000030  -0.000000  -0.000110
    22  H   -0.022071   0.003082   0.002013  -0.009709   0.000149  -0.017507
               7          8          9         10         11         12
     1  C   -0.006390  -0.000008   0.000012   0.000014  -0.003196  -0.005074
     2  C   -0.052361  -0.006666  -0.000765  -0.000288  -0.016339  -0.002644
     3  C    0.044072  -0.001730  -0.000129  -0.000003  -0.085494   0.004685
     4  N    0.029398   0.003617  -0.000262  -0.001551   0.030065   0.000080
     5  C    0.002743  -0.000257  -0.000001  -0.000008  -0.001669   0.000003
     6  C    0.021996   0.007939  -0.001376  -0.005806   0.030519  -0.000032
     7  C    0.110576   0.027821   0.000462  -0.005775  -0.057168   0.000100
     8  C    0.027821   0.044793  -0.003672  -0.015156  -0.034738  -0.000015
     9  N    0.000462  -0.003672  -0.000549   0.002146   0.004203   0.000007
    10  O   -0.005775  -0.015156   0.002146   0.055030   0.002717   0.000001
    11  C   -0.057168  -0.034738   0.004203   0.002717   0.884684  -0.005518
    12  H    0.000100  -0.000015   0.000007   0.000001  -0.005518   0.007447
    13  H    0.000095  -0.000014   0.000007   0.000001  -0.005528  -0.006929
    14  H   -0.000441  -0.000010   0.000001   0.000001   0.001737  -0.002172
    15  H   -0.011205  -0.000261   0.000011   0.000005  -0.002912  -0.001253
    16  H   -0.000331   0.000011   0.000001   0.000017  -0.000033  -0.000000
    17  H   -0.000474  -0.000009   0.000000   0.000008  -0.000179   0.000000
    18  H   -0.000474  -0.000009   0.000000   0.000007  -0.000179   0.000005
    19  H   -0.015024  -0.010208   0.000333   0.004661  -0.005900  -0.000004
    20  H   -0.000804   0.000610   0.000294   0.000281   0.004350  -0.000008
    21  H    0.000089   0.000024   0.000618   0.000973  -0.000178   0.000000
    22  H   -0.055956   0.003953  -0.005386  -0.002282  -0.039046   0.003912
              13         14         15         16         17         18
     1  C   -0.005039   0.012397   0.007894   0.000008   0.000023   0.000023
     2  C   -0.002671  -0.006161   0.044936  -0.000615  -0.001282  -0.001281
     3  C    0.004695  -0.006934   0.000473  -0.001986   0.002688   0.002689
     4  N    0.000082   0.000200   0.031362   0.007366   0.000590   0.000579
     5  C    0.000003  -0.000018   0.001387   0.001448   0.003265   0.003265
     6  C   -0.000032   0.000195  -0.002233  -0.002445  -0.000849  -0.000849
     7  C    0.000095  -0.000441  -0.011205  -0.000331  -0.000474  -0.000474
     8  C   -0.000014  -0.000010  -0.000261   0.000011  -0.000009  -0.000009
     9  N    0.000007   0.000001   0.000011   0.000001   0.000000   0.000000
    10  O    0.000001   0.000001   0.000005   0.000017   0.000008   0.000007
    11  C   -0.005528   0.001737  -0.002912  -0.000033  -0.000179  -0.000179
    12  H   -0.006929  -0.002172  -0.001253  -0.000000   0.000000   0.000005
    13  H    0.007483  -0.002192  -0.001260  -0.000000   0.000005   0.000000
    14  H   -0.002192   0.004115   0.003398   0.000001  -0.000004  -0.000004
    15  H   -0.001260   0.003398  -0.125553  -0.000733   0.002017   0.002021
    16  H   -0.000000   0.000001  -0.000733  -0.001432  -0.000654  -0.000652
    17  H    0.000005  -0.000004   0.002017  -0.000654   0.009522   0.000292
    18  H    0.000000  -0.000004   0.002021  -0.000652   0.000292   0.009521
    19  H   -0.000004  -0.000001  -0.003824  -0.001479  -0.000302  -0.000302
    20  H   -0.000008   0.000005  -0.000004  -0.000000  -0.000000  -0.000000
    21  H    0.000000  -0.000000  -0.000000  -0.000000  -0.000000  -0.000000
    22  H    0.003908  -0.001834   0.000008   0.000011   0.000027   0.000027
              19         20         21         22
     1  C    0.000185   0.000048  -0.000001  -0.022071
     2  C   -0.016211   0.000105   0.000078   0.003082
     3  C   -0.000683   0.000084   0.000004   0.002013
     4  N    0.058345   0.000160   0.000030  -0.009709
     5  C    0.006104  -0.000000  -0.000000   0.000149
     6  C    0.045654   0.000066  -0.000110  -0.017507
     7  C   -0.015024  -0.000804   0.000089  -0.055956
     8  C   -0.010208   0.000610   0.000024   0.003953
     9  N    0.000333   0.000294   0.000618  -0.005386
    10  O    0.004661   0.000281   0.000973  -0.002282
    11  C   -0.005900   0.004350  -0.000178  -0.039046
    12  H   -0.000004  -0.000008   0.000000   0.003912
    13  H   -0.000004  -0.000008   0.000000   0.003908
    14  H   -0.000001   0.000005  -0.000000  -0.001834
    15  H   -0.003824  -0.000004  -0.000000   0.000008
    16  H   -0.001479  -0.000000  -0.000000   0.000011
    17  H   -0.000302  -0.000000  -0.000000   0.000027
    18  H   -0.000302  -0.000000  -0.000000   0.000027
    19  H   -0.072502  -0.000214  -0.000080   0.002913
    20  H   -0.000214   0.000298   0.000631  -0.000723
    21  H   -0.000080   0.000631  -0.001810   0.000618
    22  H    0.002913  -0.000723   0.000618   0.024479
 Mulliken charges and spin densities:
               1          2
     1  C    0.704284   0.025109
     2  C   -1.483489  -0.341530
     3  C    0.249572   0.550147
     4  N   -0.928873   0.140844
     5  C    0.776221  -0.022784
     6  C    0.791397   0.022392
     7  C   -1.073894   0.030950
     8  C    0.881738   0.016015
     9  N    0.006473  -0.004043
    10  O   -0.750483   0.034993
    11  C   -0.046358   0.700197
    12  H    0.119500  -0.007407
    13  H    0.119818  -0.007398
    14  H    0.115965   0.002276
    15  H    0.043919  -0.055724
    16  H   -0.110163  -0.001499
    17  H    0.102432   0.014682
    18  H    0.102379   0.014679
    19  H   -0.060009  -0.008543
    20  H   -0.094228   0.005173
    21  H    0.010080   0.000887
    22  H    0.523720  -0.109414
 Sum of Mulliken charges =  -0.00000   1.00000
 Mulliken charges and spin densities with hydrogens summed into heavy atoms:
               1          2
     1  C    1.059566   0.012580
     2  C   -1.483489  -0.341530
     3  C    0.293491   0.494423
     4  N   -0.928873   0.140844
     5  C    0.870868   0.005078
     6  C    0.731389   0.013849
     7  C   -1.073894   0.030950
     8  C    0.881738   0.016015
     9  N   -0.077676   0.002016
    10  O   -0.750483   0.034993
    11  C    0.477362   0.590782
 APT charges:
               1
     1  C    0.016646
     2  C    0.194341
     3  C   -0.059207
     4  N   -0.971119
     5  C    0.497550
     6  C    0.786106
     7  C   -0.848575
     8  C    2.077236
     9  N   -1.138358
    10  O   -1.265827
    11  C   -0.161837
    12  H   -0.000513
    13  H   -0.000512
    14  H    0.002087
    15  H    0.097488
    16  H    0.030158
    17  H   -0.047867
    18  H   -0.047925
    19  H    0.141010
    20  H    0.323093
    21  H    0.310048
    22  H    0.065977
 Sum of APT charges =   0.00000
 APT charges with hydrogens summed into heavy atoms:
               1
     1  C    0.017708
     2  C    0.194341
     3  C    0.038281
     4  N   -0.971119
     5  C    0.431916
     6  C    0.927116
     7  C   -0.848575
     8  C    2.077236
     9  N   -0.505218
    10  O   -1.265827
    11  C   -0.095860
 Electronic spatial extent (au):  <R**2>=           1986.8401
 Charge=             -0.0000 electrons
 Dipole moment (field-independent basis, Debye):
    X=             -4.6152    Y=              1.9364    Z=              0.0010  Tot=              5.0050
 Quadrupole moment (field-independent basis, Debye-Ang):
   XX=            -62.7250   YY=            -54.2502   ZZ=            -69.7215
   XY=             17.7994   XZ=              0.0020   YZ=              0.0000
 Traceless Quadrupole moment (field-independent basis, Debye-Ang):
   XX=             -0.4928   YY=              7.9820   ZZ=             -7.4893
   XY=             17.7994   XZ=              0.0020   YZ=              0.0000
 Octapole moment (field-independent basis, Debye-Ang**2):
  XXX=            -14.0903  YYY=             -5.0568  ZZZ=             -0.0022  XYY=            -11.3525
  XXY=             38.2403  XXZ=              0.0101  XZZ=              0.8033  YZZ=             -3.5707
  YYZ=              0.0049  XYZ=              0.0017
 Hexadecapole moment (field-independent basis, Debye-Ang**3):
 XXXX=          -1444.0074 YYYY=           -875.5383 ZZZZ=            -87.9150 XXXY=            187.4960
 XXXZ=             -0.0003 YYYX=             71.4000 YYYZ=              0.0080 ZZZX=              0.0044
 ZZZY=             -0.0038 XXYY=           -399.4895 XXZZ=           -291.0252 YYZZ=           -177.5454
 XXYZ=             -0.0016 YYXZ=              0.0134 ZZXY=              3.7488
 N-N= 5.949577789238D+02 E-N=-2.341240131827D+03  KE= 4.899624130328D+02
  Exact polarizability:     235.670      21.526     199.789       0.001       0.001     109.911
 Approx polarizability:     219.666      20.229     199.240      -0.002       0.001     110.155
                          Isotropic Fermi Contact Couplings
        Atom                 a.u.       MegaHertz       Gauss      10(-4) cm-1
     1  C(13)              0.00481       5.41012       1.93046       1.80462
     2  C(13)             -0.05498     -61.80856     -22.05483     -20.61712
     3  C(13)              0.06354      71.42986      25.48795      23.82644
     4  N(14)              0.06449      20.83706       7.43518       6.95050
     5  C(13)             -0.01156     -12.99984      -4.63867      -4.33628
     6  C(13)             -0.00999     -11.23587      -4.00924      -3.74788
     7  C(13)             -0.00832      -9.35758      -3.33902      -3.12135
     8  C(13)             -0.00178      -1.99646      -0.71239      -0.66595
     9  N(14)             -0.00285      -0.92245      -0.32915      -0.30770
    10  O(17)              0.01698     -10.29416      -3.67321      -3.43376
    11  C(13)              0.08711      97.92935      34.94363      32.66572
    12  H(1)              -0.00231     -10.31981      -3.68236      -3.44232
    13  H(1)              -0.00231     -10.30375      -3.67663      -3.43696
    14  H(1)              -0.00042      -1.87001      -0.66727      -0.62377
    15  H(1)              -0.00695     -31.07041     -11.08670     -10.36397
    16  H(1)               0.00004       0.17567       0.06268       0.05860
    17  H(1)               0.00398      17.76972       6.34068       5.92734
    18  H(1)               0.00398      17.77700       6.34328       5.92977
    19  H(1)              -0.00060      -2.66950      -0.95254      -0.89045
    20  H(1)              -0.00002      -0.06895      -0.02460      -0.02300
    21  H(1)              -0.00008      -0.36627      -0.13069      -0.12218
    22  H(1)              -0.00845     -37.76297     -13.47477     -12.59637
 --------------------------------------------------------
       Center         ----  Spin Dipole Couplings  ----
                      3XX-RR        3YY-RR        3ZZ-RR
 --------------------------------------------------------
     1   Atom        0.001494      0.003505     -0.004999
     2   Atom        0.077462      0.065988     -0.143450
     3   Atom       -0.209673     -0.217665      0.427338
     4   Atom       -0.262389     -0.258240      0.520630
     5   Atom       -0.001901      0.009320     -0.007419
     6   Atom       -0.001952     -0.012694      0.014646
     7   Atom       -0.041778     -0.038519      0.080297
     8   Atom       -0.009271     -0.016058      0.025329
     9   Atom        0.006044     -0.001227     -0.004817
    10   Atom       -0.086374     -0.089345      0.175719
    11   Atom       -0.275052     -0.268508      0.543560
    12   Atom        0.000847      0.002138     -0.002985
    13   Atom        0.000846      0.002139     -0.002985
    14   Atom       -0.000066      0.002989     -0.002923
    15   Atom        0.027573     -0.029005      0.001432
    16   Atom       -0.004006      0.007591     -0.003585
    17   Atom       -0.000836      0.004422     -0.003585
    18   Atom       -0.000838      0.004423     -0.003584
    19   Atom        0.000093      0.004684     -0.004778
    20   Atom        0.005291     -0.002128     -0.003163
    21   Atom        0.002518     -0.000837     -0.001682
    22   Atom       -0.022364      0.019274      0.003091
 --------------------------------------------------------
                        XY            XZ            YZ
 --------------------------------------------------------
     1   Atom       -0.003183      0.000001      0.000002
     2   Atom        0.010450     -0.000012     -0.000016
     3   Atom       -0.001021      0.000088      0.000036
     4   Atom        0.000747      0.000018     -0.000042
     5   Atom        0.005320     -0.000001     -0.000001
     6   Atom        0.002291     -0.000003     -0.000001
     7   Atom       -0.005115     -0.000002      0.000012
     8   Atom       -0.003720     -0.000004     -0.000008
     9   Atom        0.001509      0.000002     -0.000007
    10   Atom       -0.000440      0.000011     -0.000052
    11   Atom        0.004166      0.000007      0.000031
    12   Atom       -0.002988      0.001159     -0.001411
    13   Atom       -0.002992     -0.001158      0.001410
    14   Atom       -0.003922     -0.000001      0.000001
    15   Atom        0.005857     -0.000004      0.000001
    16   Atom        0.000785      0.000000      0.000000
    17   Atom        0.004659     -0.001613     -0.003014
    18   Atom        0.004657      0.001613      0.003015
    19   Atom       -0.003297     -0.000001      0.000000
    20   Atom        0.003958      0.000001      0.000001
    21   Atom        0.000975      0.000000     -0.000000
    22   Atom        0.030002      0.000000     -0.000000
 --------------------------------------------------------


 ---------------------------------------------------------------------------------
              Anisotropic Spin Dipole Couplings in Principal Axis System
 ---------------------------------------------------------------------------------

       Atom             a.u.   MegaHertz   Gauss  10(-4) cm-1        Axes

              Baa    -0.0050    -0.671    -0.239    -0.224 -0.0004 -0.0003  1.0000
     1 C(13)  Bbb    -0.0008    -0.113    -0.040    -0.038  0.8066  0.5911  0.0005
              Bcc     0.0058     0.783     0.280     0.261 -0.5911  0.8066  0.0000
 
              Baa    -0.1435   -19.250    -6.869    -6.421  0.0001  0.0001  1.0000
     2 C(13)  Bbb     0.0598     8.025     2.864     2.677 -0.5093  0.8606 -0.0000
              Bcc     0.0836    11.225     4.005     3.744  0.8606  0.5093 -0.0001
 
              Baa    -0.2178   -29.226   -10.428    -9.749  0.1247  0.9922 -0.0001
     3 C(13)  Bbb    -0.2095   -28.119   -10.034    -9.379  0.9922 -0.1247 -0.0001
              Bcc     0.4273    57.345    20.462    19.128  0.0001  0.0001  1.0000
 
              Baa    -0.2625   -10.125    -3.613    -3.377  0.9851 -0.1719 -0.0000
     4 N(14)  Bbb    -0.2581    -9.955    -3.552    -3.321  0.1719  0.9851  0.0000
              Bcc     0.5206    20.080     7.165     6.698  0.0000 -0.0001  1.0000
 
              Baa    -0.0074    -0.996    -0.355    -0.332  0.0002 -0.0000  1.0000
     5 C(13)  Bbb    -0.0040    -0.540    -0.193    -0.180  0.9289 -0.3703 -0.0002
              Bcc     0.0114     1.535     0.548     0.512  0.3703  0.9289 -0.0001
 
              Baa    -0.0132    -1.766    -0.630    -0.589 -0.2002  0.9798  0.0000
     6 C(13)  Bbb    -0.0015    -0.199    -0.071    -0.066  0.9798  0.2002  0.0002
              Bcc     0.0146     1.965     0.701     0.656 -0.0002 -0.0001  1.0000
 
              Baa    -0.0455    -6.108    -2.179    -2.037  0.8073  0.5901 -0.0000
     7 C(13)  Bbb    -0.0348    -4.667    -1.665    -1.557 -0.5901  0.8073 -0.0001
              Bcc     0.0803    10.775     3.845     3.594 -0.0000  0.0001  1.0000
 
              Baa    -0.0177    -2.375    -0.847    -0.792  0.4037  0.9149  0.0002
     8 C(13)  Bbb    -0.0076    -1.024    -0.365    -0.341  0.9149 -0.4037  0.0000
              Bcc     0.0253     3.399     1.213     1.134 -0.0001 -0.0002  1.0000
 
              Baa    -0.0048    -0.186    -0.066    -0.062 -0.0005  0.0021  1.0000
     9 N(14)  Bbb    -0.0015    -0.059    -0.021    -0.020 -0.1955  0.9807 -0.0021
              Bcc     0.0063     0.245     0.087     0.082  0.9807  0.1955  0.0001
 
              Baa    -0.0894     6.470     2.309     2.158  0.1434  0.9897  0.0002
    10 O(17)  Bbb    -0.0863     6.245     2.228     2.083  0.9897 -0.1434 -0.0001
              Bcc     0.1757   -12.715    -4.537    -4.241  0.0000 -0.0002  1.0000
 
              Baa    -0.2771   -37.181   -13.267   -12.402  0.8993 -0.4372  0.0000
    11 C(13)  Bbb    -0.2665   -35.759   -12.760   -11.928  0.4372  0.8993 -0.0000
              Bcc     0.5436    72.941    26.027    24.330  0.0000  0.0000  1.0000
 
              Baa    -0.0034    -1.817    -0.648    -0.606 -0.1472  0.1687  0.9746
    12 H(1)   Bbb    -0.0016    -0.835    -0.298    -0.278  0.7766  0.6299  0.0082
              Bcc     0.0050     2.651     0.946     0.884 -0.6125  0.7581 -0.2237
 
              Baa    -0.0034    -1.816    -0.648    -0.606  0.1469 -0.1686  0.9747
    13 H(1)   Bbb    -0.0016    -0.837    -0.299    -0.279  0.7767  0.6298 -0.0082
              Bcc     0.0050     2.652     0.946     0.885 -0.6125  0.7582  0.2235
 
              Baa    -0.0029    -1.560    -0.557    -0.520  0.0022  0.0013  1.0000
    14 H(1)   Bbb    -0.0027    -1.466    -0.523    -0.489  0.8255  0.5644 -0.0025
              Bcc     0.0057     3.025     1.080     1.009 -0.5644  0.8255  0.0002
 
              Baa    -0.0296   -15.796    -5.636    -5.269 -0.1019  0.9948 -0.0001
    15 H(1)   Bbb     0.0014     0.764     0.273     0.255  0.0001  0.0001  1.0000
              Bcc     0.0282    15.032     5.364     5.014  0.9948  0.1019 -0.0001
 
              Baa    -0.0041    -2.166    -0.773    -0.722  0.9977 -0.0672 -0.0001
    16 H(1)   Bbb    -0.0036    -1.913    -0.683    -0.638  0.0001 -0.0000  1.0000
              Bcc     0.0076     4.078     1.455     1.360  0.0672  0.9977  0.0000
 
              Baa    -0.0046    -2.452    -0.875    -0.818  0.0390  0.2986  0.9536
    17 H(1)   Bbb    -0.0035    -1.890    -0.674    -0.630  0.8756 -0.4700  0.1114
              Bcc     0.0081     4.342     1.549     1.448  0.4815  0.8306 -0.2798
 
              Baa    -0.0046    -2.452    -0.875    -0.818 -0.0396 -0.2984  0.9536
    18 H(1)   Bbb    -0.0035    -1.890    -0.674    -0.630  0.8757 -0.4701 -0.1107
              Bcc     0.0081     4.341     1.549     1.448  0.4813  0.8307  0.2799
 
              Baa    -0.0048    -2.549    -0.910    -0.850  0.0001  0.0000  1.0000
    19 H(1)   Bbb    -0.0016    -0.869    -0.310    -0.290  0.8864  0.4629 -0.0001
              Bcc     0.0064     3.418     1.220     1.140 -0.4629  0.8864  0.0000
 
              Baa    -0.0038    -2.050    -0.732    -0.684 -0.3976  0.9176 -0.0010
    20 H(1)   Bbb    -0.0032    -1.687    -0.602    -0.563 -0.0005  0.0009  1.0000
              Bcc     0.0070     3.738     1.334     1.247  0.9176  0.3976  0.0001
 
              Baa    -0.0017    -0.897    -0.320    -0.299 -0.0002  0.0005  1.0000
    21 H(1)   Bbb    -0.0011    -0.587    -0.209    -0.196 -0.2602  0.9656 -0.0005
              Bcc     0.0028     1.484     0.529     0.495  0.9656  0.2602  0.0001
 
              Baa    -0.0381   -20.309    -7.247    -6.774  0.8860 -0.4636 -0.0000
    22 H(1)   Bbb     0.0031     1.649     0.588     0.550  0.0000  0.0000  1.0000
              Bcc     0.0350    18.660     6.658     6.224  0.4636  0.8860 -0.0000
 

 ---------------------------------------------------------------------------------

   1 Symmetry operations used in ECPInt.
 ECPInt:  NShTT=    8911 NPrTT=   24707 LenC2=    8777 LenP2D=   20106.
 LDataN:  DoStor=T MaxTD1= 6 Len=  172
 D2PCM: PCM CHGder 2nd derivatives, FixD1E=F FixD2E=F DoIter=F DoCFld=F I1PDM=0
 Calling FoFJK, ICntrl=    100127 FMM=F ISym2X=0 I1Cent= 0 IOpClX= 1 NMat=1 NMatS=1 NMatT=0.
 Full mass-weighted force constant matrix:
 Low frequencies ---  -14.2653   -9.9927   -8.5109   -0.0007    0.0004    0.0007
 Low frequencies ---   35.9363   98.0307  118.8730
 Diagonal vibrational polarizability:
       56.9484746      16.0081577    1018.6169545
 Harmonic frequencies (cm**-1), IR intensities (KM/Mole), Raman scattering
 activities (A**4/AMU), depolarization ratios for plane and unpolarized
 incident light, reduced masses (AMU), force constants (mDyne/A),
 and normal coordinates:
                      1                      2                      3
                      A                      A                      A
 Frequencies --     35.3480                98.0248               118.8433
 Red. masses --      3.7115                 1.5710                 1.1069
 Frc consts  --      0.0027                 0.0089                 0.0092
 IR Inten    --     40.2166                 0.1299                 1.6087
  Atom  AN      X      Y      Z        X      Y      Z        X      Y      Z
     1   6     0.00   0.00   0.09    -0.00  -0.00  -0.06    -0.00  -0.00  -0.02
     2   6     0.00  -0.00   0.04    -0.00   0.00   0.02     0.00   0.00   0.03
     3   6     0.00   0.00  -0.01    -0.00   0.00   0.06     0.00   0.00   0.06
     4   7    -0.00  -0.00  -0.03    -0.00   0.00   0.11     0.00   0.00  -0.01
     5   6    -0.00   0.00  -0.14     0.00   0.00  -0.12     0.00   0.00  -0.03
     6   6    -0.00  -0.00   0.00     0.00   0.00   0.08     0.00   0.00  -0.03
     7   6     0.00  -0.00   0.04    -0.00   0.00   0.05     0.00   0.00  -0.02
     8   6    -0.00  -0.00   0.02     0.00  -0.00  -0.01     0.00  -0.00   0.01
     9   7    -0.00   0.00  -0.30     0.00  -0.00  -0.02     0.00  -0.00   0.01
    10   8     0.00  -0.00   0.28    -0.00  -0.00  -0.07    -0.00  -0.00   0.03
    11   6     0.00  -0.00   0.07    -0.00   0.00   0.03    -0.00   0.00  -0.02
    12   1     0.02   0.04   0.12    -0.06  -0.10  -0.15    -0.38  -0.28  -0.31
    13   1    -0.02  -0.04   0.12     0.06   0.10  -0.15     0.38   0.28  -0.31
    14   1     0.00   0.00   0.06     0.00   0.00   0.03     0.00   0.00   0.50
    15   1     0.00   0.00  -0.03    -0.00   0.00   0.06     0.00   0.00   0.11
    16   1    -0.00  -0.00  -0.14    -0.00   0.00   0.33     0.00   0.00  -0.21
    17   1    -0.05  -0.04  -0.18    -0.43   0.11  -0.42     0.12  -0.09   0.04
    18   1     0.05   0.04  -0.18     0.43  -0.11  -0.42    -0.12   0.09   0.04
    19   1    -0.00  -0.00  -0.02     0.00   0.00   0.07     0.00   0.00  -0.04
    20   1    -0.00   0.00  -0.70     0.00  -0.00   0.05     0.00  -0.00  -0.00
    21   1    -0.00   0.00  -0.40     0.00  -0.00  -0.06     0.00  -0.00   0.04
    22   1     0.00  -0.00   0.15    -0.00   0.00  -0.01     0.00   0.00  -0.05
                      4                      5                      6
                      A                      A                      A
 Frequencies --    122.6362               162.1096               178.9349
 Red. masses --      3.0109                 1.6164                 4.3340
 Frc consts  --      0.0267                 0.0250                 0.0818
 IR Inten    --      4.4732                 0.1188                10.2287
  Atom  AN      X      Y      Z        X      Y      Z        X      Y      Z
     1   6     0.00  -0.00  -0.14     0.00   0.00   0.06     0.20   0.05  -0.00
     2   6     0.00   0.00   0.04     0.00   0.00  -0.01     0.05  -0.04   0.00
     3   6    -0.00  -0.00  -0.11    -0.00   0.00  -0.13    -0.01  -0.00   0.00
     4   7    -0.00  -0.00  -0.03    -0.00   0.00  -0.08    -0.06  -0.04   0.00
     5   6    -0.00   0.00   0.02    -0.00  -0.00   0.12    -0.19   0.03  -0.00
     6   6    -0.00  -0.00   0.06    -0.00  -0.00  -0.08    -0.04  -0.13  -0.00
     7   6     0.00  -0.00   0.18     0.00  -0.00  -0.03    -0.00  -0.15  -0.00
     8   6     0.00   0.00  -0.00    -0.00  -0.00  -0.01     0.01   0.03  -0.00
     9   7    -0.00   0.00  -0.06    -0.00   0.00   0.01    -0.19   0.15   0.00
    10   8     0.00   0.00  -0.12     0.00   0.00   0.02     0.20   0.14  -0.00
    11   6     0.00  -0.00   0.29     0.00  -0.00   0.07     0.04  -0.13  -0.00
    12   1    -0.01  -0.15  -0.25    -0.20  -0.07  -0.04     0.28   0.02   0.00
    13   1     0.01   0.15  -0.25     0.20   0.07  -0.04     0.28   0.02  -0.00
    14   1     0.00   0.00  -0.11     0.00   0.00   0.32     0.17   0.19  -0.00
    15   1    -0.00  -0.00  -0.31    -0.00   0.00  -0.17    -0.01   0.04   0.00
    16   1    -0.00  -0.00  -0.27    -0.00   0.00   0.60    -0.29  -0.05  -0.00
    17   1     0.23  -0.11   0.18    -0.23   0.31  -0.02    -0.20   0.10  -0.00
    18   1    -0.23   0.11   0.18     0.23  -0.31  -0.02    -0.20   0.10   0.00
    19   1    -0.00  -0.00  -0.01    -0.00  -0.00  -0.09    -0.11  -0.17  -0.00
    20   1    -0.00   0.00  -0.06    -0.00   0.00  -0.09    -0.33   0.08  -0.00
    21   1    -0.00   0.00  -0.26    -0.00   0.00   0.00    -0.18   0.32   0.00
    22   1     0.00  -0.00   0.45     0.00  -0.00   0.21     0.06  -0.15  -0.00
                      7                      8                      9
                      A                      A                      A
 Frequencies --    237.1866               263.6164               272.2321
 Red. masses --      2.6020                 1.4876                 2.6976
 Frc consts  --      0.0862                 0.0609                 0.1178
 IR Inten    --     99.1512               204.8155                 4.7673
  Atom  AN      X      Y      Z        X      Y      Z        X      Y      Z
     1   6     0.00   0.00   0.13    -0.00  -0.00  -0.04     0.20   0.14  -0.00
     2   6     0.00  -0.00  -0.11    -0.00  -0.00   0.05    -0.03  -0.01   0.00
     3   6    -0.00  -0.00  -0.17    -0.00  -0.00   0.05    -0.06  -0.01   0.00
     4   7    -0.00  -0.00  -0.02    -0.00  -0.00  -0.02    -0.02  -0.02   0.00
     5   6    -0.00  -0.00  -0.02    -0.00   0.00   0.01     0.19  -0.14  -0.00
     6   6    -0.00  -0.00   0.22    -0.00  -0.00  -0.08    -0.02   0.02  -0.00
     7   6     0.00  -0.00   0.10     0.00  -0.00  -0.02    -0.05   0.02  -0.00
     8   6     0.00   0.00   0.04     0.00   0.00   0.01    -0.07   0.01  -0.00
     9   7     0.00   0.00  -0.11     0.00   0.00  -0.14    -0.07   0.01  -0.00
    10   8     0.00   0.00  -0.04     0.00   0.00   0.04    -0.10  -0.01   0.00
    11   6    -0.00  -0.00  -0.11    -0.00  -0.00   0.05    -0.04  -0.01   0.00
    12   1    -0.23   0.07   0.11     0.08  -0.04  -0.05     0.36   0.09   0.00
    13   1     0.23  -0.07   0.11    -0.08   0.04  -0.05     0.36   0.09  -0.00
    14   1     0.00   0.00   0.40    -0.00  -0.00  -0.13     0.15   0.41   0.00
    15   1    -0.00   0.00  -0.17    -0.00  -0.00   0.03    -0.06  -0.03   0.00
    16   1    -0.00  -0.00  -0.09    -0.00  -0.00   0.07     0.36  -0.00  -0.00
    17   1     0.04  -0.04   0.00    -0.02   0.04   0.00     0.21  -0.28   0.00
    18   1    -0.04   0.04   0.00     0.02  -0.04   0.00     0.21  -0.28  -0.00
    19   1    -0.00  -0.00   0.41    -0.00  -0.00  -0.16     0.01   0.04  -0.00
    20   1     0.00  -0.00   0.57     0.00  -0.00   0.79    -0.09   0.00   0.00
    21   1     0.00  -0.00   0.14     0.00  -0.00   0.52    -0.07   0.02   0.00
    22   1    -0.00  -0.00  -0.08    -0.00   0.00   0.06    -0.06  -0.00   0.00
                     10                     11                     12
                      A                      A                      A
 Frequencies --    374.6490               380.7928               399.8167
 Red. masses --      3.5123                 4.0544                 4.5187
 Frc consts  --      0.2905                 0.3464                 0.4256
 IR Inten    --      5.5587                 4.2955                16.3931
  Atom  AN      X      Y      Z        X      Y      Z        X      Y      Z
     1   6    -0.00  -0.00   0.03     0.04   0.07   0.00    -0.15   0.07  -0.00
     2   6     0.00   0.00  -0.08    -0.16  -0.07  -0.00    -0.04   0.10   0.00
     3   6     0.00   0.00  -0.17    -0.18  -0.06  -0.00    -0.12   0.12   0.00
     4   7     0.00   0.00   0.31    -0.09  -0.02   0.00    -0.11   0.12  -0.00
     5   6     0.00   0.00  -0.01    -0.08  -0.05  -0.00     0.17  -0.04  -0.00
     6   6     0.00  -0.00  -0.02    -0.05   0.02  -0.00    -0.11   0.04   0.00
     7   6    -0.00  -0.00  -0.22     0.01   0.01  -0.00     0.03  -0.07   0.00
     8   6    -0.00  -0.00  -0.11     0.10   0.08  -0.00     0.09  -0.16   0.00
     9   7    -0.00   0.00   0.02     0.31  -0.02   0.00    -0.08  -0.07  -0.00
    10   8    -0.00  -0.00   0.05     0.12   0.09   0.00     0.30  -0.06  -0.00
    11   6     0.00   0.00   0.10    -0.14  -0.07   0.00    -0.01  -0.02  -0.00
    12   1    -0.09   0.07   0.05     0.18   0.02   0.00    -0.24   0.10  -0.00
    13   1     0.09  -0.07   0.05     0.18   0.02  -0.00    -0.24   0.10   0.00
    14   1     0.00  -0.00   0.14    -0.01   0.30   0.00    -0.12  -0.06  -0.00
    15   1     0.00   0.00  -0.34    -0.18  -0.11  -0.00    -0.12   0.14   0.00
    16   1     0.00   0.00  -0.28    -0.07  -0.04  -0.00     0.41   0.16   0.00
    17   1    -0.01  -0.28  -0.04    -0.08  -0.05  -0.00     0.20  -0.23   0.00
    18   1     0.01   0.28  -0.04    -0.08  -0.05   0.00     0.20  -0.23  -0.00
    19   1     0.00   0.00  -0.04    -0.09  -0.01  -0.00    -0.22  -0.02   0.00
    20   1    -0.00  -0.00  -0.04     0.54   0.10  -0.00    -0.25  -0.16   0.00
    21   1    -0.00   0.00   0.43     0.30  -0.30   0.00    -0.08   0.12  -0.00
    22   1     0.00   0.00   0.44    -0.18  -0.04   0.00     0.01  -0.03  -0.00
                     13                     14                     15
                      A                      A                      A
 Frequencies --    490.9694               501.3588               548.9111
 Red. masses --      3.7407                 2.8101                 4.3391
 Frc consts  --      0.5313                 0.4162                 0.7703
 IR Inten    --      8.4314                 0.5546                 0.8850
  Atom  AN      X      Y      Z        X      Y      Z        X      Y      Z
     1   6    -0.03   0.11  -0.00     0.00  -0.00  -0.00    -0.16   0.28  -0.00
     2   6    -0.19  -0.03   0.00     0.00  -0.00   0.28    -0.03   0.20   0.00
     3   6    -0.03  -0.09  -0.00    -0.00   0.00  -0.06     0.16   0.04   0.00
     4   7     0.19   0.05  -0.00    -0.00   0.00  -0.10     0.07  -0.11  -0.00
     5   6     0.04   0.21   0.00    -0.00  -0.00  -0.01    -0.02  -0.12  -0.00
     6   6     0.17  -0.03   0.00    -0.00   0.00   0.18     0.07  -0.22   0.00
     7   6     0.05  -0.00  -0.00    -0.00   0.00  -0.17    -0.07  -0.12  -0.00
     8   6     0.04  -0.07  -0.00     0.00   0.00  -0.10    -0.07   0.04  -0.00
     9   7    -0.07  -0.02   0.00    -0.00  -0.00   0.02     0.04  -0.03  -0.00
    10   8     0.02  -0.09   0.00     0.00   0.00   0.02    -0.01   0.08  -0.00
    11   6    -0.18  -0.09   0.00     0.00   0.00  -0.01    -0.01  -0.04   0.00
    12   1     0.11   0.06   0.00     0.17  -0.23  -0.12    -0.23   0.31  -0.00
    13   1     0.11   0.06  -0.00    -0.17   0.23  -0.12    -0.23   0.31   0.00
    14   1    -0.07   0.34  -0.00    -0.00   0.00  -0.18    -0.15   0.19  -0.00
    15   1    -0.01  -0.35  -0.00    -0.00   0.00  -0.37     0.16  -0.02  -0.00
    16   1    -0.14   0.05   0.00    -0.00   0.00   0.01    -0.05  -0.14  -0.00
    17   1     0.02   0.36  -0.01     0.01   0.05  -0.00    -0.02  -0.10   0.00
    18   1     0.02   0.36   0.01    -0.01  -0.05  -0.00    -0.02  -0.10  -0.00
    19   1     0.15  -0.04   0.00    -0.00   0.00   0.53     0.10  -0.21   0.00
    20   1    -0.25  -0.11   0.00    -0.00   0.00  -0.16     0.26   0.08  -0.00
    21   1    -0.07   0.18  -0.00     0.00  -0.00   0.33     0.03  -0.28   0.00
    22   1    -0.25  -0.05  -0.00    -0.00   0.00  -0.22     0.22  -0.15  -0.00
                     16                     17                     18
                      A                      A                      A
 Frequencies --    562.4635               574.8339               613.1518
 Red. masses --      1.1865                 4.3638                 1.2187
 Frc consts  --      0.2212                 0.8496                 0.2699
 IR Inten    --     41.8756                 0.9670                47.2555
  Atom  AN      X      Y      Z        X      Y      Z        X      Y      Z
     1   6     0.00  -0.00  -0.01    -0.00   0.09  -0.00    -0.00   0.00  -0.01
     2   6    -0.00  -0.00  -0.06    -0.04   0.01  -0.00    -0.00   0.00  -0.01
     3   6    -0.00  -0.00   0.05     0.08  -0.09   0.00    -0.00   0.00   0.06
     4   7    -0.00  -0.00  -0.05     0.01  -0.17   0.00    -0.00   0.00  -0.04
     5   6    -0.00  -0.00  -0.00    -0.17  -0.18  -0.00    -0.00  -0.00  -0.01
     6   6     0.00   0.00   0.04     0.03   0.14   0.00     0.00  -0.00   0.05
     7   6     0.00   0.00   0.06    -0.02   0.19  -0.00     0.00  -0.00  -0.07
     8   6     0.00  -0.00  -0.03     0.06  -0.10   0.00     0.00   0.00  -0.00
     9   7     0.00  -0.00  -0.02    -0.06  -0.07   0.00     0.00   0.00   0.01
    10   8     0.00  -0.00  -0.03     0.14  -0.07   0.00    -0.00  -0.00   0.01
    11   6    -0.00   0.00  -0.01    -0.02   0.26  -0.00     0.00  -0.00  -0.07
    12   1    -0.02   0.04   0.02     0.10   0.06   0.01     0.03  -0.01  -0.01
    13   1     0.02  -0.04   0.02     0.10   0.06  -0.01    -0.03   0.01  -0.01
    14   1     0.00   0.00   0.01    -0.03   0.25   0.00    -0.00   0.00  -0.04
    15   1    -0.00  -0.00   0.18     0.08  -0.07  -0.00    -0.00   0.00   0.10
    16   1    -0.00  -0.00   0.02    -0.28  -0.27   0.00     0.00   0.00   0.01
    17   1     0.01   0.03   0.00    -0.18  -0.07  -0.00     0.00   0.02   0.00
    18   1    -0.01  -0.03   0.00    -0.18  -0.07   0.00    -0.00  -0.02   0.00
    19   1     0.00   0.00   0.02     0.25   0.25  -0.00    -0.00  -0.00   0.19
    20   1    -0.00   0.00  -0.49    -0.25  -0.16   0.00    -0.00  -0.00   0.19
    21   1     0.00  -0.00   0.79    -0.06   0.15  -0.00     0.00   0.00  -0.28
    22   1    -0.00   0.00   0.28    -0.15   0.34   0.00     0.00  -0.00   0.90
                     19                     20                     21
                      A                      A                      A
 Frequencies --    650.5263               655.5513               690.5924
 Red. masses --      3.3964                 1.3651                 3.1954
 Frc consts  --      0.8468                 0.3456                 0.8979
 IR Inten    --     57.3967                31.3348                40.6434
  Atom  AN      X      Y      Z        X      Y      Z        X      Y      Z
     1   6    -0.06   0.08   0.00    -0.00   0.00  -0.01     0.00  -0.00  -0.03
     2   6    -0.01   0.03   0.00     0.00   0.00  -0.04     0.00  -0.00  -0.20
     3   6    -0.04   0.03   0.00    -0.00   0.00  -0.08     0.00   0.00   0.23
     4   7    -0.05  -0.02   0.00    -0.00  -0.00  -0.03    -0.00   0.00  -0.11
     5   6    -0.06  -0.10   0.00    -0.00  -0.00  -0.00     0.00   0.00  -0.01
     6   6     0.01  -0.01  -0.00     0.00  -0.00   0.05    -0.00   0.00   0.10
     7   6     0.12  -0.03   0.00     0.00  -0.00  -0.06     0.00  -0.00  -0.10
     8   6     0.22   0.03   0.00     0.00   0.00  -0.05    -0.00   0.00  -0.15
     9   7     0.08   0.19   0.00     0.00   0.00   0.01    -0.00   0.00   0.03
    10   8    -0.14  -0.16  -0.00    -0.00  -0.00   0.02    -0.00  -0.00   0.05
    11   6     0.03  -0.07  -0.00     0.00  -0.00   0.12     0.00  -0.00   0.20
    12   1    -0.11   0.10  -0.00     0.00   0.01  -0.00    -0.17   0.26   0.11
    13   1    -0.11   0.10   0.00    -0.00  -0.01  -0.00     0.17  -0.26   0.11
    14   1    -0.05   0.02   0.00    -0.00  -0.00  -0.03     0.00  -0.00   0.17
    15   1    -0.05   0.06  -0.00     0.00   0.00   0.95    -0.00  -0.00  -0.60
    16   1    -0.03  -0.07  -0.00    -0.00  -0.00   0.00     0.00   0.00   0.03
    17   1    -0.06  -0.13   0.00     0.01   0.01   0.00     0.02   0.07   0.01
    18   1    -0.06  -0.13  -0.00    -0.01  -0.01   0.00    -0.02  -0.07   0.01
    19   1    -0.05  -0.04  -0.00    -0.00  -0.00   0.18    -0.00  -0.00   0.19
    20   1    -0.37  -0.02  -0.00    -0.00  -0.00   0.10     0.00  -0.00   0.18
    21   1     0.09   0.75   0.00     0.00   0.00  -0.08    -0.00   0.00  -0.11
    22   1     0.02  -0.06  -0.00    -0.00  -0.00  -0.15    -0.00  -0.00  -0.32
                     22                     23                     24
                      A                      A                      A
 Frequencies --    774.8103               926.4994               947.4525
 Red. masses --      5.7167                 3.0428                 1.4679
 Frc consts  --      2.0220                 1.5389                 0.7764
 IR Inten    --     15.0590                 1.9929                11.5217
  Atom  AN      X      Y      Z        X      Y      Z        X      Y      Z
     1   6    -0.00   0.00  -0.02     0.02   0.10  -0.00     0.00  -0.00  -0.00
     2   6    -0.00  -0.00  -0.06     0.06  -0.02   0.00    -0.00   0.00  -0.00
     3   6    -0.00  -0.00   0.06    -0.17  -0.00   0.00    -0.00   0.00   0.01
     4   7     0.00  -0.00  -0.01     0.05  -0.00   0.00    -0.00   0.00   0.03
     5   6    -0.00  -0.00  -0.00    -0.04  -0.10  -0.00    -0.00  -0.00   0.01
     6   6     0.00   0.00  -0.03     0.08   0.17  -0.00     0.00  -0.00  -0.18
     7   6     0.00  -0.00  -0.28     0.17   0.05   0.00    -0.00   0.00   0.08
     8   6     0.00  -0.00   0.53    -0.05   0.02   0.00     0.00   0.00  -0.05
     9   7    -0.00   0.00  -0.11    -0.09  -0.06  -0.00    -0.00  -0.00   0.01
    10   8    -0.00  -0.00  -0.15    -0.02   0.05   0.00     0.00   0.00   0.01
    11   6     0.00   0.00   0.13     0.08  -0.17  -0.00     0.00  -0.00  -0.00
    12   1    -0.05   0.09   0.03    -0.33   0.19  -0.03    -0.01   0.01   0.00
    13   1     0.05  -0.09   0.03    -0.33   0.19   0.04     0.01  -0.01   0.00
    14   1     0.00  -0.00   0.04     0.10  -0.33  -0.00     0.00  -0.00   0.00
    15   1    -0.00  -0.00  -0.04    -0.17  -0.07  -0.00    -0.00   0.00  -0.03
    16   1    -0.00  -0.00  -0.02    -0.21  -0.24  -0.00     0.00   0.00  -0.04
    17   1    -0.00  -0.00  -0.00    -0.08   0.06  -0.02    -0.03  -0.04  -0.02
    18   1     0.00   0.00  -0.00    -0.08   0.06   0.02     0.03   0.04  -0.02
    19   1     0.00   0.00   0.62     0.19   0.23  -0.00     0.00   0.00   0.97
    20   1     0.00   0.00  -0.38     0.10   0.03   0.00    -0.00  -0.00   0.02
    21   1     0.00  -0.00   0.12    -0.10  -0.33  -0.00    -0.00   0.00   0.01
    22   1     0.00   0.00  -0.14     0.07  -0.17   0.00     0.00  -0.00  -0.01
                     25                     26                     27
                      A                      A                      A
 Frequencies --    988.2315               999.3511              1032.8257
 Red. masses --      2.9425                 1.8788                 5.7469
 Frc consts  --      1.6931                 1.1055                 3.6119
 IR Inten    --     46.8150               131.3789                 4.5735
  Atom  AN      X      Y      Z        X      Y      Z        X      Y      Z
     1   6    -0.14   0.09  -0.00    -0.11  -0.08   0.00    -0.03   0.03  -0.00
     2   6     0.03  -0.12   0.00    -0.07  -0.02  -0.00    -0.01  -0.00   0.00
     3   6    -0.03  -0.18   0.00     0.01   0.09  -0.00     0.40  -0.06  -0.00
     4   7    -0.02  -0.04  -0.00    -0.02   0.05   0.00    -0.04  -0.01   0.00
     5   6     0.07   0.08   0.00    -0.06  -0.03  -0.00    -0.03   0.02  -0.00
     6   6    -0.14   0.05  -0.00     0.12   0.02   0.00    -0.20   0.31  -0.00
     7   6     0.07  -0.05   0.00     0.04   0.01  -0.00    -0.01   0.03   0.00
     8   6    -0.02  -0.01  -0.00     0.02   0.02   0.00     0.00  -0.00  -0.00
     9   7    -0.03   0.06   0.00    -0.04  -0.06  -0.00     0.01   0.00   0.00
    10   8    -0.01  -0.02   0.00    -0.02   0.05   0.00     0.01  -0.00  -0.00
    11   6     0.21   0.07  -0.00     0.09  -0.06   0.00    -0.15  -0.32  -0.00
    12   1     0.10   0.08   0.05     0.36  -0.16   0.06     0.03   0.02   0.01
    13   1     0.10   0.08  -0.05     0.36  -0.16  -0.06     0.03   0.01  -0.01
    14   1    -0.23   0.54   0.00    -0.23   0.54   0.00    -0.04   0.09   0.00
    15   1    -0.01  -0.32   0.00    -0.01   0.22   0.00     0.42   0.02   0.00
    16   1    -0.01   0.02  -0.00     0.07   0.07   0.00     0.15   0.17   0.00
    17   1     0.04   0.19  -0.01    -0.03  -0.20   0.01     0.02  -0.06   0.02
    18   1     0.04   0.19   0.01    -0.03  -0.20  -0.01     0.02  -0.06  -0.02
    19   1    -0.28  -0.02   0.00     0.20   0.06  -0.00    -0.10   0.39   0.00
    20   1     0.21   0.17   0.00    -0.07  -0.08   0.00    -0.02  -0.01   0.00
    21   1    -0.03  -0.16  -0.00    -0.04  -0.07  -0.00     0.01   0.02   0.00
    22   1     0.29   0.03  -0.00     0.21  -0.12  -0.00    -0.04  -0.39   0.00
                     28                     29                     30
                      A                      A                      A
 Frequencies --   1042.5894              1063.3893              1103.0683
 Red. masses --      1.5261                 1.9943                 1.4953
 Frc consts  --      0.9774                 1.3287                 1.0720
 IR Inten    --      9.3610               172.4047               133.2624
  Atom  AN      X      Y      Z        X      Y      Z        X      Y      Z
     1   6    -0.00  -0.00  -0.16    -0.01  -0.06  -0.00     0.03   0.04   0.00
     2   6    -0.00  -0.00   0.14    -0.01   0.06   0.00    -0.02  -0.05  -0.00
     3   6    -0.00   0.00  -0.02     0.02   0.06  -0.00     0.02  -0.06  -0.00
     4   7    -0.00   0.00  -0.00     0.05   0.04   0.00    -0.05   0.01   0.00
     5   6    -0.00   0.00  -0.00    -0.02  -0.08   0.00    -0.10   0.09  -0.00
     6   6     0.00  -0.00  -0.00    -0.00   0.01  -0.00     0.08  -0.02   0.00
     7   6    -0.00  -0.00   0.00     0.08  -0.01   0.00     0.01   0.01  -0.00
     8   6     0.00   0.00   0.00    -0.02  -0.04  -0.00     0.02  -0.00  -0.00
     9   7     0.00  -0.00   0.00    -0.07   0.15   0.00    -0.04   0.03   0.00
    10   8    -0.00   0.00  -0.00     0.03  -0.12  -0.00     0.00  -0.03  -0.00
    11   6     0.00   0.00  -0.03    -0.07   0.01  -0.00     0.02   0.02   0.00
    12   1    -0.24   0.57   0.18     0.14  -0.10   0.01    -0.15   0.08  -0.02
    13   1     0.24  -0.57   0.18     0.14  -0.10  -0.01    -0.15   0.08   0.02
    14   1     0.00  -0.00   0.35    -0.03   0.08   0.00     0.06  -0.14  -0.00
    15   1    -0.00   0.00   0.08     0.02   0.08   0.00     0.03  -0.15   0.00
    16   1     0.00   0.00   0.01    -0.10  -0.15  -0.00     0.37   0.48   0.00
    17   1     0.01   0.01   0.00    -0.03   0.03  -0.01     0.05  -0.40   0.07
    18   1    -0.01  -0.01   0.00    -0.03   0.03   0.01     0.05  -0.40  -0.07
    19   1     0.00  -0.00  -0.01    -0.13  -0.07   0.00     0.20   0.04  -0.00
    20   1    -0.00  -0.00  -0.00     0.55   0.47   0.00     0.19   0.15   0.00
    21   1     0.00   0.00  -0.00    -0.08  -0.48  -0.00    -0.04  -0.22  -0.00
    22   1     0.00   0.00   0.04    -0.15   0.05   0.00    -0.05   0.05   0.00
                     31                     32                     33
                      A                      A                      A
 Frequencies --   1129.7540              1141.1952              1206.1000
 Red. masses --      1.9705                 1.3207                 1.4162
 Frc consts  --      1.4818                 1.0134                 1.2137
 IR Inten    --    187.3119                 0.2804               118.8225
  Atom  AN      X      Y      Z        X      Y      Z        X      Y      Z
     1   6    -0.01   0.01   0.00     0.00  -0.00  -0.00    -0.03   0.04   0.00
     2   6     0.02  -0.01  -0.00    -0.00  -0.00   0.00     0.07  -0.09   0.00
     3   6     0.06  -0.03   0.00    -0.00   0.00   0.00     0.01   0.02   0.00
     4   7     0.01   0.08  -0.00    -0.00  -0.00  -0.08    -0.05  -0.09  -0.00
     5   6    -0.05  -0.05   0.00    -0.00   0.00   0.15     0.05   0.06   0.00
     6   6    -0.02  -0.03  -0.00     0.00   0.00   0.00     0.01  -0.03   0.00
     7   6     0.20  -0.04   0.00    -0.00   0.00   0.00     0.01  -0.00  -0.00
     8   6    -0.00   0.04   0.00    -0.00  -0.00   0.00     0.03   0.01   0.00
     9   7    -0.02  -0.09  -0.00     0.00   0.00  -0.00    -0.02  -0.00   0.00
    10   8    -0.04   0.08   0.00     0.00  -0.00  -0.00    -0.00  -0.00   0.00
    11   6    -0.04   0.05  -0.00     0.00  -0.00   0.00    -0.02  -0.02   0.00
    12   1     0.00   0.01   0.00    -0.00   0.01   0.00    -0.06   0.08   0.02
    13   1     0.00   0.01  -0.00     0.00  -0.01   0.00    -0.06   0.08  -0.02
    14   1    -0.01   0.05  -0.00     0.00  -0.00   0.00    -0.06   0.15  -0.00
    15   1     0.08  -0.12   0.00    -0.00   0.00   0.01    -0.06   0.72  -0.00
    16   1     0.05   0.03  -0.00     0.00   0.00  -0.35    -0.01   0.01  -0.00
    17   1    -0.00  -0.11   0.02    -0.42  -0.46  -0.19     0.01   0.10  -0.02
    18   1    -0.00  -0.11  -0.02     0.42   0.46  -0.19     0.01   0.10   0.02
    19   1    -0.57  -0.32   0.00     0.00   0.00  -0.06     0.21   0.07  -0.00
    20   1    -0.18  -0.17  -0.00     0.00   0.00   0.00     0.03   0.02  -0.00
    21   1    -0.02  -0.05  -0.00     0.00   0.00  -0.00    -0.02  -0.12  -0.00
    22   1    -0.53   0.31   0.00     0.00  -0.00  -0.00    -0.51   0.23   0.00
                     34                     35                     36
                      A                      A                      A
 Frequencies --   1278.6103              1305.3127              1340.1146
 Red. masses --      1.8281                 2.4657                 2.4530
 Frc consts  --      1.7608                 2.4752                 2.5955
 IR Inten    --    258.0987               202.8442               111.9635
  Atom  AN      X      Y      Z        X      Y      Z        X      Y      Z
     1   6    -0.06  -0.02   0.00     0.01  -0.03  -0.00     0.04   0.02   0.00
     2   6     0.16   0.03  -0.00    -0.06   0.17  -0.00    -0.11  -0.11   0.00
     3   6    -0.06   0.03   0.00    -0.02   0.05  -0.00     0.10   0.04  -0.00
     4   7     0.06   0.03   0.00    -0.07  -0.15  -0.00    -0.08   0.18  -0.00
     5   6    -0.06  -0.02  -0.00     0.05   0.07   0.00     0.06  -0.09   0.00
     6   6    -0.05  -0.00  -0.00    -0.08  -0.00   0.00     0.01  -0.02   0.00
     7   6    -0.02  -0.05   0.00     0.11  -0.08  -0.00    -0.11  -0.06   0.00
     8   6    -0.12  -0.05  -0.00     0.13   0.07   0.00     0.07   0.02   0.00
     9   7     0.07   0.03   0.00    -0.06  -0.04  -0.00    -0.01   0.00   0.00
    10   8     0.02  -0.00  -0.00    -0.04   0.03   0.00    -0.01   0.00   0.00
    11   6    -0.00  -0.04  -0.00     0.01   0.01  -0.00     0.13  -0.01   0.00
    12   1     0.10   0.04   0.08     0.20  -0.18  -0.04    -0.19   0.06  -0.03
    13   1     0.10   0.04  -0.08     0.20  -0.18   0.04    -0.19   0.06   0.03
    14   1    -0.10   0.22   0.00     0.06  -0.24   0.00     0.03   0.02  -0.00
    15   1    -0.01  -0.43  -0.00     0.03  -0.48   0.00     0.15  -0.35   0.00
    16   1     0.11   0.12   0.00     0.03   0.06  -0.00    -0.20  -0.30  -0.00
    17   1     0.03  -0.07   0.05     0.01   0.11  -0.02    -0.17   0.13  -0.14
    18   1     0.03  -0.07  -0.05     0.01   0.11   0.02    -0.17   0.13   0.14
    19   1     0.46   0.27  -0.00     0.43   0.27  -0.00     0.35   0.16  -0.00
    20   1    -0.03  -0.01  -0.00    -0.05  -0.04  -0.00     0.02   0.02  -0.00
    21   1     0.07   0.25   0.00    -0.07  -0.31  -0.00    -0.01  -0.14  -0.00
    22   1    -0.47   0.20   0.00    -0.18   0.13   0.00    -0.39   0.26   0.00
                     37                     38                     39
                      A                      A                      A
 Frequencies --   1375.2809              1399.0045              1408.8177
 Red. masses --      1.5596                 2.0630                 3.0964
 Frc consts  --      1.7380                 2.3789                 3.6209
 IR Inten    --    272.4584               157.7510               178.4763
  Atom  AN      X      Y      Z        X      Y      Z        X      Y      Z
     1   6     0.03  -0.12   0.00    -0.07   0.06  -0.00    -0.10   0.11  -0.00
     2   6     0.09   0.04   0.00     0.09  -0.02  -0.00     0.22  -0.02  -0.00
     3   6    -0.02  -0.01   0.00    -0.02   0.08  -0.00    -0.01  -0.15   0.00
     4   7    -0.03   0.00  -0.00     0.01  -0.05  -0.00    -0.08   0.15   0.00
     5   6     0.02   0.01   0.00     0.03   0.06   0.00     0.02  -0.06  -0.00
     6   6     0.02  -0.01  -0.00     0.03  -0.01   0.00     0.06  -0.01  -0.00
     7   6    -0.04   0.02  -0.00    -0.13   0.16  -0.00    -0.04  -0.06   0.00
     8   6     0.10   0.06   0.00     0.07   0.04   0.00     0.10   0.07   0.00
     9   7    -0.04  -0.02  -0.00    -0.02  -0.01  -0.00    -0.04  -0.03  -0.00
    10   8    -0.01  -0.01  -0.00     0.01  -0.03  -0.00    -0.01  -0.01  -0.00
    11   6    -0.07  -0.00   0.00     0.05  -0.10   0.00    -0.17   0.06   0.00
    12   1    -0.14   0.45   0.33     0.20  -0.12  -0.05     0.31  -0.26  -0.14
    13   1    -0.14   0.45  -0.33     0.20  -0.12   0.05     0.31  -0.26   0.14
    14   1    -0.07   0.41  -0.00    -0.01  -0.19   0.00    -0.02  -0.27   0.00
    15   1     0.00  -0.21  -0.00     0.02  -0.39   0.00    -0.03   0.06  -0.00
    16   1    -0.04  -0.04  -0.00    -0.22  -0.15  -0.00     0.07  -0.01   0.00
    17   1    -0.04  -0.01  -0.03    -0.03  -0.24  -0.05    -0.19   0.12  -0.13
    18   1    -0.04  -0.01   0.03    -0.03  -0.24   0.05    -0.19   0.12   0.13
    19   1    -0.05  -0.04  -0.00    -0.46  -0.27   0.00     0.26   0.09  -0.00
    20   1    -0.03  -0.02   0.00    -0.01   0.00  -0.00    -0.05  -0.04   0.00
    21   1    -0.04  -0.19  -0.00    -0.03  -0.15  -0.00    -0.04  -0.18  -0.00
    22   1     0.10  -0.10  -0.00    -0.32   0.07   0.00     0.30  -0.19  -0.00
                     40                     41                     42
                      A                      A                      A
 Frequencies --   1437.2919              1441.2019              1442.5331
 Red. masses --      1.0404                 1.0347                 1.3775
 Frc consts  --      1.2663                 1.2662                 1.6888
 IR Inten    --     15.8038                17.7210                 5.4317
  Atom  AN      X      Y      Z        X      Y      Z        X      Y      Z
     1   6    -0.00  -0.00  -0.05     0.00   0.00   0.00     0.03   0.01  -0.00
     2   6    -0.00   0.00  -0.02     0.00  -0.00   0.00     0.03  -0.02  -0.00
     3   6     0.00  -0.00   0.00    -0.00   0.00   0.00    -0.02   0.03   0.00
     4   7    -0.00  -0.00  -0.00     0.00  -0.00  -0.02     0.06   0.01   0.00
     5   6     0.00   0.00  -0.00    -0.00  -0.00  -0.05    -0.07  -0.05   0.00
     6   6     0.00   0.00  -0.00    -0.00  -0.00  -0.00    -0.05  -0.02   0.00
     7   6     0.00  -0.00   0.00    -0.00   0.00  -0.00    -0.05   0.02  -0.00
     8   6    -0.00  -0.00  -0.00     0.00   0.00   0.00     0.08   0.06   0.00
     9   7     0.00   0.00   0.00    -0.00  -0.00  -0.00    -0.03  -0.02  -0.00
    10   8     0.00   0.00  -0.00     0.00  -0.00  -0.00    -0.00  -0.01  -0.00
    11   6     0.00   0.00   0.00     0.00  -0.00  -0.00    -0.00  -0.01   0.00
    12   1     0.49  -0.07   0.05    -0.03   0.00  -0.00    -0.24  -0.24  -0.23
    13   1    -0.49   0.08   0.04     0.03  -0.01  -0.00    -0.24  -0.24   0.24
    14   1     0.00  -0.00   0.71    -0.00   0.00  -0.04    -0.05   0.34   0.00
    15   1     0.00   0.00   0.00     0.00  -0.00  -0.00    -0.01  -0.04   0.00
    16   1     0.00  -0.00   0.04     0.00   0.00   0.69     0.13   0.11  -0.00
    17   1     0.01  -0.03   0.00     0.15  -0.48   0.04     0.32   0.19   0.28
    18   1    -0.01   0.03   0.00    -0.15   0.48   0.04     0.32   0.19  -0.28
    19   1     0.00   0.00   0.00    -0.00  -0.00   0.00    -0.01   0.00   0.00
    20   1     0.00   0.00   0.00    -0.00  -0.00   0.00    -0.08  -0.05   0.00
    21   1     0.00   0.00   0.00    -0.00  -0.00  -0.00    -0.03  -0.19  -0.00
    22   1    -0.00   0.00  -0.01    -0.00  -0.00  -0.00     0.02  -0.02  -0.00
                     43                     44                     45
                      A                      A                      A
 Frequencies --   1448.3567              1462.9912              1509.5862
 Red. masses --      1.1763                 1.2599                 2.2495
 Frc consts  --      1.4538                 1.5889                 3.0202
 IR Inten    --      3.8404                69.4209                34.8198
  Atom  AN      X      Y      Z        X      Y      Z        X      Y      Z
     1   6     0.04  -0.01  -0.00     0.01  -0.01  -0.00    -0.00   0.00   0.00
     2   6     0.04   0.02  -0.00     0.01   0.01  -0.00    -0.04  -0.03   0.00
     3   6    -0.00   0.00   0.00     0.00   0.03  -0.00    -0.04   0.01   0.00
     4   7    -0.01  -0.02  -0.00    -0.04  -0.03   0.00     0.24  -0.01  -0.00
     5   6     0.05   0.06  -0.00     0.01  -0.06   0.00    -0.02  -0.01  -0.00
     6   6     0.01   0.01  -0.00     0.03  -0.04   0.00    -0.13   0.04   0.00
     7   6     0.03  -0.02   0.00     0.02   0.09  -0.00    -0.08  -0.08   0.00
     8   6    -0.02  -0.01  -0.00    -0.04  -0.01   0.00     0.08   0.06   0.00
     9   7     0.01   0.00  -0.00     0.00   0.00  -0.00    -0.01   0.00   0.00
    10   8    -0.00   0.01   0.00     0.01  -0.01  -0.00    -0.01  -0.01  -0.00
    11   6    -0.04   0.01   0.00     0.01  -0.04   0.00     0.03   0.03  -0.00
    12   1    -0.29  -0.25  -0.25    -0.07  -0.06  -0.06     0.03   0.05   0.04
    13   1    -0.29  -0.25   0.25    -0.08  -0.06   0.06     0.03   0.05  -0.04
    14   1    -0.05   0.44   0.00    -0.02   0.12   0.00     0.02  -0.09   0.00
    15   1     0.00  -0.07   0.00     0.02  -0.15   0.00    -0.07   0.29  -0.00
    16   1    -0.21  -0.15   0.00     0.51   0.37  -0.00     0.26   0.24   0.00
    17   1    -0.20  -0.27  -0.19    -0.32   0.32  -0.20    -0.40  -0.19  -0.27
    18   1    -0.20  -0.27   0.19    -0.32   0.32   0.20    -0.40  -0.19   0.27
    19   1     0.03   0.03   0.00    -0.10  -0.12   0.00    -0.06   0.09   0.00
    20   1     0.02   0.01   0.00     0.03   0.01  -0.00    -0.19  -0.09  -0.00
    21   1     0.01   0.06   0.00     0.00   0.06   0.00    -0.01  -0.27  -0.00
    22   1     0.07  -0.04  -0.00    -0.03  -0.02   0.00    -0.00   0.05  -0.00
                     46                     47                     48
                      A                      A                      A
 Frequencies --   1569.1316              1588.0431              1641.2047
 Red. masses --      3.7662                 1.5374                 4.1905
 Frc consts  --      5.4635                 2.2843                 6.6503
 IR Inten    --    478.1865               327.9054               179.4779
  Atom  AN      X      Y      Z        X      Y      Z        X      Y      Z
     1   6     0.02  -0.05  -0.00    -0.01   0.02   0.00    -0.02   0.04   0.00
     2   6     0.00   0.21  -0.00     0.02  -0.07   0.00     0.04  -0.21   0.00
     3   6    -0.05  -0.16   0.00     0.00   0.08  -0.00     0.01   0.25  -0.00
     4   7    -0.02  -0.02  -0.00     0.04  -0.02  -0.00    -0.03  -0.12  -0.00
     5   6    -0.02  -0.02   0.00    -0.01  -0.00   0.00     0.00  -0.00   0.00
     6   6     0.19   0.20  -0.00    -0.04   0.00   0.00     0.13   0.16  -0.00
     7   6    -0.18  -0.18   0.00    -0.00  -0.02   0.00    -0.02  -0.19   0.00
     8   6     0.08  -0.09  -0.00     0.09  -0.02  -0.00     0.02  -0.18  -0.00
     9   7    -0.01  -0.00  -0.00    -0.07  -0.10  -0.00     0.05   0.10   0.00
    10   8    -0.04   0.06   0.00    -0.03   0.05   0.00    -0.05   0.08   0.00
    11   6     0.09  -0.03  -0.00    -0.04   0.03  -0.00    -0.12   0.11   0.00
    12   1    -0.02  -0.11  -0.05     0.01   0.03   0.01     0.02   0.06   0.02
    13   1    -0.02  -0.11   0.05     0.01   0.03  -0.01     0.02   0.06  -0.02
    14   1    -0.01   0.13  -0.00    -0.00  -0.04  -0.00    -0.00  -0.07  -0.00
    15   1    -0.11   0.20  -0.00     0.02  -0.09   0.00     0.09  -0.43   0.00
    16   1     0.13   0.11   0.00     0.04   0.04   0.00     0.10   0.08   0.00
    17   1     0.01   0.12   0.04    -0.02   0.00  -0.01     0.02   0.12   0.03
    18   1     0.01   0.12  -0.04    -0.02   0.00   0.01     0.02   0.12  -0.03
    19   1    -0.45  -0.11   0.00     0.00   0.02   0.00    -0.27  -0.05   0.00
    20   1     0.26   0.14   0.00     0.68   0.28   0.00    -0.37  -0.11   0.00
    21   1     0.00   0.17   0.00    -0.06   0.62   0.00     0.05  -0.42  -0.00
    22   1    -0.45   0.25   0.00     0.05  -0.02   0.00     0.24  -0.08  -0.00
                     49                     50                     51
                      A                      A                      A
 Frequencies --   1723.8142              3048.6960              3050.6223
 Red. masses --      8.6526                 1.0362                 1.0381
 Frc consts  --     15.1488                 5.6746                 5.6923
 IR Inten    --    603.0500               128.0787                24.5083
  Atom  AN      X      Y      Z        X      Y      Z        X      Y      Z
     1   6    -0.00   0.01   0.00     0.00  -0.01   0.00    -0.02   0.05  -0.00
     2   6    -0.02  -0.08   0.00    -0.00   0.00  -0.00     0.00  -0.00   0.00
     3   6     0.01   0.11  -0.00     0.00   0.00  -0.00     0.00  -0.00   0.00
     4   7    -0.06  -0.09   0.00    -0.00  -0.00   0.00    -0.00   0.00  -0.00
     5   6     0.00   0.01   0.00    -0.04  -0.03  -0.00    -0.01  -0.01  -0.00
     6   6     0.16   0.18  -0.00     0.00   0.00  -0.00     0.00   0.00  -0.00
     7   6    -0.03  -0.25   0.00    -0.00  -0.00  -0.00    -0.00   0.00  -0.00
     8   6    -0.25   0.55   0.00     0.00  -0.00  -0.00     0.00  -0.00  -0.00
     9   7    -0.00  -0.11  -0.00    -0.00  -0.00  -0.00    -0.00  -0.00  -0.00
    10   8     0.16  -0.30  -0.00    -0.00   0.00   0.00    -0.00   0.00  -0.00
    11   6    -0.01   0.07  -0.00     0.00  -0.00   0.00     0.00  -0.00   0.00
    12   1     0.00   0.02   0.01     0.03   0.08  -0.12    -0.13  -0.32   0.49
    13   1     0.00   0.02  -0.01     0.03   0.08   0.12    -0.13  -0.32  -0.49
    14   1     0.01  -0.04   0.00    -0.11  -0.02   0.00     0.46   0.10  -0.00
    15   1     0.04  -0.18   0.00    -0.01  -0.00   0.00    -0.00   0.00   0.00
    16   1     0.03   0.03   0.00    -0.25   0.29  -0.00    -0.06   0.07  -0.00
    17   1     0.01   0.05   0.01     0.36   0.03  -0.52     0.09   0.01  -0.13
    18   1     0.01   0.05  -0.01     0.36   0.03   0.52     0.09   0.01   0.13
    19   1    -0.29  -0.02   0.00     0.00  -0.01   0.00     0.00  -0.00   0.00
    20   1     0.10  -0.06  -0.00     0.00  -0.00  -0.00     0.00  -0.00   0.00
    21   1     0.01   0.45   0.00    -0.00  -0.00   0.00    -0.00  -0.00   0.00
    22   1    -0.01   0.08  -0.00    -0.00  -0.00  -0.00     0.00   0.01   0.00
                     52                     53                     54
                      A                      A                      A
 Frequencies --   3128.5445              3130.5677              3157.7826
 Red. masses --      1.1061                 1.1024                 1.1040
 Frc consts  --      6.3785                 6.3654                 6.4863
 IR Inten    --     27.0728                15.6928                22.2921
  Atom  AN      X      Y      Z        X      Y      Z        X      Y      Z
     1   6     0.00   0.00   0.00    -0.00  -0.00  -0.09    -0.08  -0.04   0.00
     2   6    -0.00  -0.00   0.00    -0.00   0.00  -0.00     0.00  -0.00   0.00
     3   6    -0.00  -0.00   0.00    -0.00  -0.00  -0.00     0.00   0.00  -0.00
     4   7    -0.00  -0.00   0.00    -0.00  -0.00   0.00     0.00   0.00  -0.00
     5   6     0.00   0.00  -0.09     0.00   0.00  -0.00    -0.00  -0.00  -0.00
     6   6    -0.00  -0.00  -0.00    -0.00  -0.00  -0.00    -0.00  -0.00  -0.00
     7   6    -0.00   0.00  -0.00     0.00   0.00   0.00     0.00  -0.00   0.00
     8   6     0.00  -0.00  -0.00    -0.00   0.00   0.00    -0.00   0.00  -0.00
     9   7    -0.00  -0.00   0.00     0.00   0.00   0.00     0.00  -0.00  -0.00
    10   8    -0.00   0.00   0.00     0.00  -0.00  -0.00     0.00  -0.00  -0.00
    11   6     0.00  -0.00   0.00     0.00   0.00   0.00     0.00   0.00   0.00
    12   1     0.00   0.01  -0.01    -0.16  -0.39   0.56     0.06   0.18  -0.27
    13   1    -0.00  -0.01  -0.01     0.16   0.39   0.56     0.06   0.18   0.27
    14   1     0.00   0.00   0.00    -0.00  -0.00  -0.01     0.86   0.17  -0.00
    15   1     0.00   0.00  -0.00    -0.00  -0.00  -0.00    -0.01   0.00   0.00
    16   1     0.00  -0.00  -0.01     0.00  -0.00  -0.00     0.00   0.00   0.00
    17   1    -0.41  -0.03   0.57    -0.01  -0.00   0.01     0.00   0.00  -0.00
    18   1     0.41   0.03   0.57     0.01   0.00   0.01     0.00   0.00   0.00
    19   1    -0.00   0.00   0.00     0.00  -0.00  -0.00    -0.00   0.00  -0.00
    20   1     0.00  -0.00  -0.00    -0.00   0.00  -0.00     0.00   0.00   0.00
    21   1    -0.00   0.00   0.00     0.00  -0.00   0.00     0.00   0.00  -0.00
    22   1     0.00   0.00   0.00    -0.00  -0.00  -0.00    -0.01  -0.01  -0.00
                     55                     56                     57
                      A                      A                      A
 Frequencies --   3190.1746              3219.6796              3239.7201
 Red. masses --      1.1038                 1.0903                 1.0928
 Frc consts  --      6.6185                 6.6590                 6.7577
 IR Inten    --      7.6176                11.7560                 0.8021
  Atom  AN      X      Y      Z        X      Y      Z        X      Y      Z
     1   6    -0.00  -0.00  -0.00    -0.00  -0.00  -0.00     0.00   0.00  -0.00
     2   6    -0.00   0.00  -0.00     0.00  -0.00  -0.00     0.00  -0.00  -0.00
     3   6    -0.00   0.00   0.00    -0.01  -0.00   0.00     0.03   0.00  -0.00
     4   7     0.00   0.00   0.00    -0.00  -0.00  -0.00    -0.00   0.00  -0.00
     5   6     0.07  -0.06   0.00    -0.00   0.00   0.00     0.00  -0.00  -0.00
     6   6    -0.00   0.00  -0.00     0.00   0.00   0.00     0.04  -0.08   0.00
     7   6    -0.00  -0.00  -0.00    -0.00   0.00  -0.00     0.00   0.00  -0.00
     8   6    -0.00   0.00   0.00    -0.00  -0.00  -0.00    -0.00  -0.00  -0.00
     9   7     0.00   0.00  -0.00    -0.00   0.00  -0.00    -0.00   0.00  -0.00
    10   8     0.00  -0.00  -0.00     0.00   0.00  -0.00     0.00   0.00  -0.00
    11   6    -0.00  -0.00  -0.00    -0.04  -0.08   0.00    -0.00  -0.00   0.00
    12   1     0.00   0.00  -0.00     0.00   0.01  -0.01    -0.00  -0.00   0.00
    13   1     0.00   0.00   0.00     0.00   0.01   0.01    -0.00  -0.00  -0.00
    14   1     0.00   0.00   0.00     0.01   0.00  -0.00    -0.00   0.00   0.00
    15   1     0.01   0.00  -0.00     0.09   0.01  -0.00    -0.30  -0.03   0.00
    16   1    -0.60   0.70  -0.00     0.00  -0.00   0.00    -0.03   0.03  -0.00
    17   1    -0.14  -0.02   0.22     0.00  -0.00  -0.00    -0.00   0.00   0.01
    18   1    -0.14  -0.02  -0.22     0.00  -0.00   0.00    -0.00   0.00  -0.01
    19   1     0.01  -0.03   0.00    -0.00   0.00   0.00    -0.44   0.84  -0.00
    20   1    -0.00   0.00   0.00     0.00   0.00   0.00    -0.00   0.00   0.00
    21   1     0.00   0.00  -0.00    -0.00   0.00   0.00     0.00  -0.00  -0.00
    22   1     0.00   0.00   0.00     0.46   0.88  -0.00     0.01   0.02  -0.00
                     58                     59                     60
                      A                      A                      A
 Frequencies --   3245.7740              3625.0695              3755.1231
 Red. masses --      1.0940                 1.0470                 1.1054
 Frc consts  --      6.7907                 8.1061                 9.1841
 IR Inten    --      4.0522               163.3423               124.2599
  Atom  AN      X      Y      Z        X      Y      Z        X      Y      Z
     1   6    -0.00  -0.00   0.00    -0.00   0.00   0.00     0.00   0.00   0.00
     2   6    -0.00   0.00   0.00     0.00   0.00  -0.00     0.00  -0.00  -0.00
     3   6    -0.08  -0.01   0.00    -0.00  -0.00   0.00    -0.00  -0.00   0.00
     4   7    -0.00  -0.00   0.00     0.00   0.00  -0.00     0.00   0.00  -0.00
     5   6    -0.00  -0.00   0.00    -0.00  -0.00   0.00    -0.00   0.00  -0.00
     6   6     0.01  -0.02   0.00    -0.00  -0.00   0.00    -0.00  -0.00   0.00
     7   6     0.00   0.00  -0.00     0.00   0.00   0.00    -0.00  -0.00  -0.00
     8   6     0.00  -0.00   0.00     0.00   0.00   0.00     0.00  -0.00   0.00
     9   7    -0.00  -0.00   0.00    -0.03  -0.04  -0.00     0.07  -0.05  -0.00
    10   8    -0.00   0.00   0.00    -0.00   0.00   0.00    -0.00   0.00   0.00
    11   6     0.01   0.01  -0.00    -0.00   0.00   0.00    -0.00   0.00   0.00
    12   1     0.00   0.00  -0.00    -0.00  -0.00   0.00     0.00   0.00   0.00
    13   1     0.00   0.00   0.00    -0.00  -0.00  -0.00     0.00   0.00  -0.00
    14   1     0.01  -0.00  -0.00    -0.00  -0.00   0.00    -0.00  -0.00   0.00
    15   1     0.94   0.10  -0.00     0.00  -0.00   0.00     0.00  -0.00   0.00
    16   1    -0.00   0.00  -0.00    -0.00   0.00  -0.00     0.00  -0.00  -0.00
    17   1     0.00   0.00  -0.01     0.00   0.00  -0.00    -0.00   0.00  -0.00
    18   1     0.00   0.00   0.01     0.00   0.00   0.00    -0.00   0.00   0.00
    19   1    -0.14   0.27  -0.00     0.00  -0.00   0.00     0.00   0.00  -0.00
    20   1     0.00  -0.00  -0.00    -0.30   0.59   0.00    -0.34   0.67   0.00
    21   1    -0.00  -0.00   0.00     0.75  -0.02  -0.00    -0.66   0.01   0.00
    22   1    -0.04  -0.08   0.00     0.00  -0.00   0.00     0.00  -0.00  -0.00

 -------------------
 - Thermochemistry -
 -------------------
 Temperature   298.150 Kelvin.  Pressure   1.00000 Atm.
 Atom     1 has atomic number  6 and mass  12.00000
 Atom     2 has atomic number  6 and mass  12.00000
 Atom     3 has atomic number  6 and mass  12.00000
 Atom     4 has atomic number  7 and mass  14.00307
 Atom     5 has atomic number  6 and mass  12.00000
 Atom     6 has atomic number  6 and mass  12.00000
 Atom     7 has atomic number  6 and mass  12.00000
 Atom     8 has atomic number  6 and mass  12.00000
 Atom     9 has atomic number  7 and mass  14.00307
 Atom    10 has atomic number  8 and mass  15.99491
 Atom    11 has atomic number  6 and mass  12.00000
 Atom    12 has atomic number  1 and mass   1.00783
 Atom    13 has atomic number  1 and mass   1.00783
 Atom    14 has atomic number  1 and mass   1.00783
 Atom    15 has atomic number  1 and mass   1.00783
 Atom    16 has atomic number  1 and mass   1.00783
 Atom    17 has atomic number  1 and mass   1.00783
 Atom    18 has atomic number  1 and mass   1.00783
 Atom    19 has atomic number  1 and mass   1.00783
 Atom    20 has atomic number  1 and mass   1.00783
 Atom    21 has atomic number  1 and mass   1.00783
 Atom    22 has atomic number  1 and mass   1.00783
 Molecular mass:   151.08714 amu.
 Principal axes and moments of inertia in atomic units:
                           1         2         3
     Eigenvalues --  1152.761212089.737393219.76654
           X            0.99960   0.02839   0.00000
           Y           -0.02839   0.99960  -0.00000
           Z           -0.00000   0.00000   1.00000
 This molecule is an asymmetric top.
 Rotational symmetry number  1.
 Warning -- assumption of classical behavior for rotation
           may cause significant error
 Rotational temperatures (Kelvin)      0.07514     0.04145     0.02690
 Rotational constants (GHZ):           1.56558     0.86362     0.56052
 Zero-point vibrational energy     475221.7 (Joules/Mol)
                                  113.58071 (Kcal/Mol)
 Warning -- explicit consideration of  18 degrees of freedom as
           vibrations may cause significant error
 Vibrational temperatures:     50.86   141.04   170.99   176.45   233.24
          (Kelvin)            257.45   341.26   379.29   391.68   539.04
                              547.88   575.25   706.40   721.34   789.76
                              809.26   827.06   882.19   935.96   943.19
                              993.61  1114.78  1333.03  1363.17  1421.84
                             1437.84  1486.01  1500.05  1529.98  1587.07
                             1625.46  1641.93  1735.31  1839.64  1878.05
                             1928.13  1978.72  2012.86  2026.97  2067.94
                             2073.57  2075.48  2083.86  2104.92  2171.96
                             2257.63  2284.84  2361.33  2480.18  4386.39
                             4389.17  4501.28  4504.19  4543.34  4589.95
                             4632.40  4661.23  4669.94  5215.67  5402.78
 
 Zero-point correction=                           0.181002 (Hartree/Particle)
 Thermal correction to Energy=                    0.192520
 Thermal correction to Enthalpy=                  0.193464
 Thermal correction to Gibbs Free Energy=         0.142803
 Sum of electronic and zero-point Energies=           -495.143422
 Sum of electronic and thermal Energies=              -495.131904
 Sum of electronic and thermal Enthalpies=            -495.130960
 Sum of electronic and thermal Free Energies=         -495.181621
 
                     E (Thermal)             CV                S
                      KCal/Mol        Cal/Mol-Kelvin    Cal/Mol-Kelvin
 Total                  120.808             42.629            106.625
 Electronic               0.000              0.000              1.377
 Translational            0.889              2.981             40.948
 Rotational               0.889              2.981             30.429
 Vibrational            119.031             36.668             33.871
 Vibration     1          0.594              1.982              5.504
 Vibration     2          0.603              1.951              3.493
 Vibration     3          0.609              1.934              3.119
 Vibration     4          0.610              1.930              3.058
 Vibration     5          0.622              1.889              2.525
 Vibration     6          0.629              1.868              2.339
 Vibration     7          0.656              1.784              1.824
 Vibration     8          0.670              1.740              1.638
 Vibration     9          0.675              1.724              1.582
 Vibration    10          0.746              1.524              1.061
 Vibration    11          0.751              1.511              1.036
 Vibration    12          0.766              1.471              0.963
 Vibration    13          0.847              1.270              0.681
 Vibration    14          0.857              1.247              0.655
 Vibration    15          0.904              1.142              0.546
 Vibration    16          0.918              1.112              0.519
 Vibration    17          0.931              1.086              0.495
 Vibration    18          0.972              1.004              0.428
                       Q            Log10(Q)             Ln(Q)
 Total Bot       0.206656D-65        -65.684753       -151.244732
 Total V=0       0.371957D+18         17.570493         40.457555
 Vib (Bot)       0.141987D-79        -79.847751       -183.856241
 Vib (Bot)    1  0.585531D+01          0.767550          1.767349
 Vib (Bot)    2  0.209442D+01          0.321064          0.739277
 Vib (Bot)    3  0.172001D+01          0.235531          0.542331
 Vib (Bot)    4  0.166534D+01          0.221503          0.510030
 Vib (Bot)    5  0.124628D+01          0.095614          0.220160
 Vib (Bot)    6  0.112289D+01          0.050337          0.115905
 Vib (Bot)    7  0.827748D+00         -0.082102         -0.189047
 Vib (Bot)    8  0.735478D+00         -0.133430         -0.307235
 Vib (Bot)    9  0.709103D+00         -0.149291         -0.343754
 Vib (Bot)   10  0.484397D+00         -0.314799         -0.724851
 Vib (Bot)   11  0.474549D+00         -0.323718         -0.745389
 Vib (Bot)   12  0.445854D+00         -0.350807         -0.807763
 Vib (Bot)   13  0.337425D+00         -0.471823         -1.086412
 Vib (Bot)   14  0.327419D+00         -0.484896         -1.116514
 Vib (Bot)   15  0.286196D+00         -0.543336         -1.251078
 Vib (Bot)   16  0.275661D+00         -0.559625         -1.288585
 Vib (Bot)   17  0.266459D+00         -0.574370         -1.322536
 Vib (Bot)   18  0.240228D+00         -0.619376         -1.426166
 Vib (V=0)       0.255561D+04          3.407494          7.846046
 Vib (V=0)    1  0.637662D+01          0.804591          1.852638
 Vib (V=0)    2  0.265328D+01          0.423782          0.975795
 Vib (V=0)    3  0.229121D+01          0.360065          0.829081
 Vib (V=0)    4  0.223878D+01          0.350012          0.805932
 Vib (V=0)    5  0.184283D+01          0.265486          0.611305
 Vib (V=0)    6  0.172918D+01          0.237840          0.547647
 Vib (V=0)    7  0.146704D+01          0.166442          0.383247
 Vib (V=0)    8  0.138934D+01          0.142809          0.328830
 Vib (V=0)    9  0.136766D+01          0.135977          0.313099
 Vib (V=0)   10  0.119616D+01          0.077790          0.179117
 Vib (V=0)   11  0.118935D+01          0.075308          0.173403
 Vib (V=0)   12  0.116991D+01          0.068154          0.156931
 Vib (V=0)   13  0.110320D+01          0.042656          0.098219
 Vib (V=0)   14  0.109766D+01          0.040470          0.093185
 Vib (V=0)   15  0.107611D+01          0.031859          0.073357
 Vib (V=0)   16  0.107095D+01          0.029771          0.068550
 Vib (V=0)   17  0.106657D+01          0.027989          0.064447
 Vib (V=0)   18  0.105472D+01          0.023135          0.053271
 Electronic      0.200000D+01          0.301030          0.693147
 Translational   0.729953D+08          7.863295         18.105906
 Rotational      0.996950D+06          5.998673         13.812456
 ***** Axes restored to original set *****
 -------------------------------------------------------------------
 Center     Atomic                   Forces (Hartrees/Bohr)
 Number     Number              X              Y              Z
 -------------------------------------------------------------------
      1        6          -0.000004920    0.000008160   -0.000001979
      2        6           0.000006133    0.000002531    0.000004502
      3        6          -0.000003402   -0.000000306   -0.000007289
      4        7           0.000006766    0.000006623    0.000006234
      5        6           0.000005366    0.000007268   -0.000003520
      6        6           0.000005616   -0.000011478    0.000001126
      7        6           0.000010362    0.000010971   -0.000003597
      8        6          -0.000014981   -0.000010210   -0.000000545
      9        7           0.000003808   -0.000010417    0.000003834
     10        8           0.000007294   -0.000005772    0.000002289
     11        6          -0.000017810   -0.000010499   -0.000004235
     12        1          -0.000006853    0.000004364   -0.000000350
     13        1          -0.000007959    0.000005469   -0.000000931
     14        1          -0.000004698    0.000008808   -0.000000064
     15        1           0.000002688    0.000007756    0.000002187
     16        1           0.000010348   -0.000000343    0.000000168
     17        1           0.000008600    0.000003152   -0.000000160
     18        1           0.000008912    0.000003193   -0.000000223
     19        1           0.000004032   -0.000002255    0.000000067
     20        1          -0.000005269   -0.000004489    0.000001837
     21        1          -0.000006898   -0.000012781   -0.000001884
     22        1          -0.000007134    0.000000258    0.000002531
 -------------------------------------------------------------------
 Cartesian Forces:  Max     0.000017810 RMS     0.000006528
 FormGI is forming the generalized inverse of G from B-inverse, IUseBI=4.

 GradGradGradGradGradGradGradGradGradGradGradGradGradGradGradGradGradGrad
 Berny optimization.
 Internal  Forces:  Max     0.000014004 RMS     0.000002327
 Search for a local minimum.
 Step number   1 out of a maximum of    2
 All quantities printed in internal units (Hartrees-Bohrs-Radians)
 Second derivative matrix not updated -- analytic derivatives used.
 ITU=  0
     Eigenvalues ---    0.00088   0.00108   0.00131   0.00371   0.00655
     Eigenvalues ---    0.00841   0.01086   0.01260   0.01528   0.01652
     Eigenvalues ---    0.01911   0.02059   0.02305   0.02946   0.05368
     Eigenvalues ---    0.05489   0.05564   0.05766   0.05944   0.10237
     Eigenvalues ---    0.10536   0.11449   0.11768   0.11840   0.12067
     Eigenvalues ---    0.12922   0.14100   0.14147   0.15548   0.17564
     Eigenvalues ---    0.17852   0.18076   0.18900   0.20451   0.20961
     Eigenvalues ---    0.21063   0.23286   0.29259   0.32274   0.33204
     Eigenvalues ---    0.33873   0.33982   0.34024   0.34452   0.34802
     Eigenvalues ---    0.35174   0.35624   0.36629   0.37030   0.37183
     Eigenvalues ---    0.39368   0.40257   0.42354   0.44491   0.46235
     Eigenvalues ---    0.47254   0.48519   0.49347   0.55191   0.77398
 Angle between quadratic step and forces=  78.63 degrees.
 Linear search not attempted -- first point.
 Iteration  1 RMS(Cart)=  0.00029951 RMS(Int)=  0.00000010
 Iteration  2 RMS(Cart)=  0.00000010 RMS(Int)=  0.00000000
 Variable       Old X    -DE/DX   Delta X   Delta X   Delta X     New X
                                 (Linear)    (Quad)   (Total)
    R1        2.83342   0.00000   0.00000   0.00000   0.00000   2.83343
    R2        2.07964   0.00000   0.00000  -0.00000  -0.00000   2.07964
    R3        2.07964   0.00000   0.00000   0.00001   0.00001   2.07964
    R4        2.07357   0.00000   0.00000   0.00000   0.00000   2.07358
    R5        2.60811   0.00000   0.00000   0.00001   0.00001   2.60812
    R6        2.65683  -0.00000   0.00000  -0.00002  -0.00002   2.65681
    R7        2.64455   0.00000   0.00000   0.00001   0.00001   2.64456
    R8        2.05530  -0.00000   0.00000  -0.00000  -0.00000   2.05530
    R9        2.73041   0.00000   0.00000   0.00001   0.00001   2.73042
   R10        2.54920   0.00000   0.00000  -0.00000  -0.00000   2.54919
   R11        2.06846   0.00000   0.00000   0.00000   0.00000   2.06846
   R12        2.07891  -0.00000   0.00000   0.00000   0.00000   2.07891
   R13        2.07891  -0.00000   0.00000  -0.00000  -0.00000   2.07891
   R14        2.59522  -0.00000   0.00000  -0.00001  -0.00001   2.59521
   R15        2.05771   0.00000   0.00000   0.00000   0.00000   2.05771
   R16        2.79568  -0.00000   0.00000  -0.00002  -0.00002   2.79566
   R17        2.72985   0.00001   0.00000   0.00005   0.00005   2.72989
   R18        2.55874   0.00000   0.00000   0.00001   0.00001   2.55875
   R19        2.33508   0.00001   0.00000   0.00001   0.00001   2.33509
   R20        1.90684  -0.00000   0.00000  -0.00000  -0.00000   1.90683
   R21        1.90846  -0.00000   0.00000  -0.00000  -0.00000   1.90845
   R22        2.05834  -0.00000   0.00000  -0.00000  -0.00000   2.05834
    A1        1.93143   0.00000   0.00000   0.00002   0.00002   1.93145
    A2        1.93146   0.00000   0.00000  -0.00000  -0.00000   1.93145
    A3        1.95049   0.00000   0.00000  -0.00000  -0.00000   1.95049
    A4        1.86737  -0.00000   0.00000  -0.00001  -0.00001   1.86736
    A5        1.89019  -0.00000   0.00000   0.00001   0.00001   1.89020
    A6        1.89022  -0.00000   0.00000  -0.00002  -0.00002   1.89020
    A7        2.08875  -0.00000   0.00000  -0.00002  -0.00002   2.08872
    A8        2.10194   0.00000   0.00000   0.00001   0.00001   2.10196
    A9        2.09249   0.00000   0.00000   0.00001   0.00001   2.09251
   A10        2.10344   0.00000   0.00000  -0.00001  -0.00001   2.10343
   A11        2.15633   0.00000   0.00000   0.00001   0.00001   2.15634
   A12        2.02342  -0.00000   0.00000  -0.00000  -0.00000   2.02341
   A13        2.06323  -0.00000   0.00000  -0.00000  -0.00000   2.06322
   A14        2.09461  -0.00000   0.00000  -0.00000  -0.00000   2.09461
   A15        2.12535   0.00000   0.00000   0.00001   0.00001   2.12535
   A16        1.91477  -0.00000   0.00000  -0.00001  -0.00001   1.91476
   A17        1.92374  -0.00000   0.00000  -0.00001  -0.00001   1.92374
   A18        1.92376  -0.00000   0.00000  -0.00002  -0.00002   1.92374
   A19        1.90429   0.00000   0.00000   0.00001   0.00001   1.90431
   A20        1.90430   0.00000   0.00000   0.00001   0.00001   1.90431
   A21        1.89264   0.00000   0.00000   0.00001   0.00001   1.89264
   A22        2.13591   0.00000   0.00000   0.00001   0.00001   2.13593
   A23        2.04108  -0.00000   0.00000  -0.00002  -0.00002   2.04105
   A24        2.10620   0.00000   0.00000   0.00001   0.00001   2.10621
   A25        2.03454  -0.00000   0.00000   0.00000   0.00000   2.03454
   A26        2.07098  -0.00000   0.00000  -0.00001  -0.00001   2.07097
   A27        2.17766   0.00000   0.00000   0.00001   0.00001   2.17767
   A28        2.02667   0.00001   0.00000   0.00002   0.00002   2.02669
   A29        2.14278  -0.00000   0.00000  -0.00000  -0.00000   2.14278
   A30        2.11374  -0.00001   0.00000  -0.00002  -0.00002   2.11371
   A31        2.14940  -0.00000   0.00000  -0.00001  -0.00001   2.14939
   A32        2.07379   0.00000   0.00000   0.00002   0.00002   2.07381
   A33        2.05999  -0.00000   0.00000  -0.00001  -0.00001   2.05999
   A34        2.06893  -0.00000   0.00000  -0.00000  -0.00000   2.06893
   A35        2.08126  -0.00000   0.00000   0.00001   0.00001   2.08126
   A36        2.13300   0.00000   0.00000  -0.00000  -0.00000   2.13299
    D1       -2.10735  -0.00000   0.00000  -0.00076  -0.00076  -2.10811
    D2        1.03414  -0.00000   0.00000  -0.00066  -0.00066   1.03348
    D3        2.10888  -0.00000   0.00000  -0.00076  -0.00076   2.10811
    D4       -1.03281  -0.00000   0.00000  -0.00066  -0.00066  -1.03348
    D5        0.00074  -0.00000   0.00000  -0.00073  -0.00073   0.00000
    D6       -3.14095  -0.00000   0.00000  -0.00064  -0.00064  -3.14159
    D7        3.14154  -0.00000   0.00000   0.00005   0.00005  -3.14159
    D8       -0.00022   0.00000   0.00000   0.00022   0.00022  -0.00000
    D9        0.00004  -0.00000   0.00000  -0.00004  -0.00004   0.00000
   D10        3.14147   0.00000   0.00000   0.00012   0.00012   3.14159
   D11       -3.14153   0.00000   0.00000  -0.00006  -0.00006  -3.14159
   D12        0.00015  -0.00000   0.00000  -0.00015  -0.00015  -0.00000
   D13       -0.00004   0.00000   0.00000   0.00004   0.00004   0.00000
   D14       -3.14154  -0.00000   0.00000  -0.00005  -0.00005   3.14159
   D15       -3.14140  -0.00000   0.00000  -0.00019  -0.00019   3.14159
   D16       -0.00004   0.00000   0.00000   0.00004   0.00004  -0.00000
   D17        0.00034  -0.00000   0.00000  -0.00035  -0.00035  -0.00000
   D18       -3.14148  -0.00000   0.00000  -0.00011  -0.00011   3.14159
   D19       -3.14148   0.00000   0.00000  -0.00011  -0.00011  -3.14159
   D20       -1.04417   0.00000   0.00000  -0.00010  -0.00010  -1.04428
   D21        1.04439   0.00000   0.00000  -0.00011  -0.00011   1.04428
   D22        0.00035  -0.00000   0.00000  -0.00035  -0.00035  -0.00000
   D23        2.09766  -0.00000   0.00000  -0.00034  -0.00034   2.09731
   D24       -2.09697  -0.00000   0.00000  -0.00035  -0.00035  -2.09731
   D25        0.00004  -0.00000   0.00000  -0.00004  -0.00004   0.00000
   D26       -3.14157  -0.00000   0.00000  -0.00002  -0.00002  -3.14159
   D27        3.14139   0.00000   0.00000   0.00021   0.00021  -3.14159
   D28       -0.00022   0.00000   0.00000   0.00022   0.00022   0.00000
   D29        3.14151   0.00000   0.00000   0.00009   0.00009   3.14159
   D30       -0.00003   0.00000   0.00000   0.00003   0.00003  -0.00000
   D31       -0.00007   0.00000   0.00000   0.00007   0.00007  -0.00000
   D32        3.14158   0.00000   0.00000   0.00002   0.00002  -3.14159
   D33       -3.14132  -0.00000   0.00000  -0.00026  -0.00026  -3.14158
   D34        0.00026  -0.00000   0.00000  -0.00025  -0.00025   0.00001
   D35        0.00021  -0.00000   0.00000  -0.00021  -0.00021   0.00001
   D36       -3.14139   0.00000   0.00000  -0.00020  -0.00020  -3.14159
   D37        0.00003  -0.00000   0.00000  -0.00003  -0.00003  -0.00000
   D38        3.14153   0.00000   0.00000   0.00006   0.00006  -3.14159
   D39       -3.14150  -0.00000   0.00000  -0.00009  -0.00009  -3.14159
   D40       -0.00000   0.00000   0.00000   0.00001   0.00001   0.00000
   D41        0.00014  -0.00000   0.00000  -0.00013  -0.00013   0.00001
   D42       -3.14145  -0.00000   0.00000  -0.00014  -0.00014   3.14159
   D43       -3.14145  -0.00000   0.00000  -0.00014  -0.00014  -3.14159
   D44        0.00015  -0.00000   0.00000  -0.00015  -0.00015  -0.00000
         Item               Value     Threshold  Converged?
 Maximum Force            0.000014     0.000450     YES
 RMS     Force            0.000002     0.000300     YES
 Maximum Displacement     0.001324     0.001800     YES
 RMS     Displacement     0.000300     0.001200     YES
 Predicted change in Energy=-4.674654D-09
 Optimization completed.
    -- Stationary point found.
                           ----------------------------
                           !   Optimized Parameters   !
                           ! (Angstroms and Degrees)  !
 --------------------------                            --------------------------
 ! Name  Definition              Value          Derivative Info.                !
 --------------------------------------------------------------------------------
 ! R1    R(1,2)                  1.4994         -DE/DX =    0.0                 !
 ! R2    R(1,12)                 1.1005         -DE/DX =    0.0                 !
 ! R3    R(1,13)                 1.1005         -DE/DX =    0.0                 !
 ! R4    R(1,14)                 1.0973         -DE/DX =    0.0                 !
 ! R5    R(2,3)                  1.3802         -DE/DX =    0.0                 !
 ! R6    R(2,11)                 1.4059         -DE/DX =    0.0                 !
 ! R7    R(3,4)                  1.3994         -DE/DX =    0.0                 !
 ! R8    R(3,15)                 1.0876         -DE/DX =    0.0                 !
 ! R9    R(4,5)                  1.4449         -DE/DX =    0.0                 !
 ! R10   R(4,6)                  1.349          -DE/DX =    0.0                 !
 ! R11   R(5,16)                 1.0946         -DE/DX =    0.0                 !
 ! R12   R(5,17)                 1.1001         -DE/DX =    0.0                 !
 ! R13   R(5,18)                 1.1001         -DE/DX =    0.0                 !
 ! R14   R(6,7)                  1.3733         -DE/DX =    0.0                 !
 ! R15   R(6,19)                 1.0889         -DE/DX =    0.0                 !
 ! R16   R(7,8)                  1.4794         -DE/DX =    0.0                 !
 ! R17   R(7,11)                 1.4446         -DE/DX =    0.0                 !
 ! R18   R(8,9)                  1.354          -DE/DX =    0.0                 !
 ! R19   R(8,10)                 1.2357         -DE/DX =    0.0                 !
 ! R20   R(9,20)                 1.0091         -DE/DX =    0.0                 !
 ! R21   R(9,21)                 1.0099         -DE/DX =    0.0                 !
 ! R22   R(11,22)                1.0892         -DE/DX =    0.0                 !
 ! A1    A(2,1,12)             110.663          -DE/DX =    0.0                 !
 ! A2    A(2,1,13)             110.6645         -DE/DX =    0.0                 !
 ! A3    A(2,1,14)             111.7549         -DE/DX =    0.0                 !
 ! A4    A(12,1,13)            106.9924         -DE/DX =    0.0                 !
 ! A5    A(12,1,14)            108.3            -DE/DX =    0.0                 !
 ! A6    A(13,1,14)            108.3016         -DE/DX =    0.0                 !
 ! A7    A(1,2,3)              119.6764         -DE/DX =    0.0                 !
 ! A8    A(1,2,11)             120.4325         -DE/DX =    0.0                 !
 ! A9    A(3,2,11)             119.8911         -DE/DX =    0.0                 !
 ! A10   A(2,3,4)              120.518          -DE/DX =    0.0                 !
 ! A11   A(2,3,15)             123.5487         -DE/DX =    0.0                 !
 ! A12   A(4,3,15)             115.9333         -DE/DX =    0.0                 !
 ! A13   A(3,4,5)              118.2141         -DE/DX =    0.0                 !
 ! A14   A(3,4,6)              120.0125         -DE/DX =    0.0                 !
 ! A15   A(5,4,6)              121.7734         -DE/DX =    0.0                 !
 ! A16   A(4,5,16)             109.7083         -DE/DX =    0.0                 !
 ! A17   A(4,5,17)             110.2224         -DE/DX =    0.0                 !
 ! A18   A(4,5,18)             110.2231         -DE/DX =    0.0                 !
 ! A19   A(16,5,17)            109.1081         -DE/DX =    0.0                 !
 ! A20   A(16,5,18)            109.1084         -DE/DX =    0.0                 !
 ! A21   A(17,5,18)            108.44           -DE/DX =    0.0                 !
 ! A22   A(4,6,7)              122.3787         -DE/DX =    0.0                 !
 ! A23   A(4,6,19)             116.9451         -DE/DX =    0.0                 !
 ! A24   A(7,6,19)             120.6762         -DE/DX =    0.0                 !
 ! A25   A(6,7,8)              116.5704         -DE/DX =    0.0                 !
 ! A26   A(6,7,11)             118.6587         -DE/DX =    0.0                 !
 ! A27   A(8,7,11)             124.7709         -DE/DX =    0.0                 !
 ! A28   A(7,8,9)              116.1196         -DE/DX =    0.0                 !
 ! A29   A(7,8,10)             122.7722         -DE/DX =    0.0                 !
 ! A30   A(9,8,10)             121.1082         -DE/DX =    0.0                 !
 ! A31   A(8,9,20)             123.1514         -DE/DX =    0.0                 !
 ! A32   A(8,9,21)             118.8196         -DE/DX =    0.0                 !
 ! A33   A(20,9,21)            118.029          -DE/DX =    0.0                 !
 ! A34   A(2,11,7)             118.541          -DE/DX =    0.0                 !
 ! A35   A(2,11,22)            119.2472         -DE/DX =    0.0                 !
 ! A36   A(7,11,22)            122.2117         -DE/DX =    0.0                 !
 ! D1    D(12,1,2,3)          -120.7423         -DE/DX =    0.0                 !
 ! D2    D(12,1,2,11)           59.2521         -DE/DX =    0.0                 !
 ! D3    D(13,1,2,3)           120.8298         -DE/DX =    0.0                 !
 ! D4    D(13,1,2,11)          -59.1759         -DE/DX =    0.0                 !
 ! D5    D(14,1,2,3)             0.0422         -DE/DX =    0.0                 !
 ! D6    D(14,1,2,11)         -179.9634         -DE/DX =    0.0                 !
 ! D7    D(1,2,3,4)           -180.003          -DE/DX =    0.0                 !
 ! D8    D(1,2,3,15)            -0.0125         -DE/DX =    0.0                 !
 ! D9    D(11,2,3,4)             0.0026         -DE/DX =    0.0                 !
 ! D10   D(11,2,3,15)          179.9931         -DE/DX =    0.0                 !
 ! D11   D(1,2,11,7)          -179.9965         -DE/DX =    0.0                 !
 ! D12   D(1,2,11,22)            0.0086         -DE/DX =    0.0                 !
 ! D13   D(3,2,11,7)            -0.0022         -DE/DX =    0.0                 !
 ! D14   D(3,2,11,22)          180.003          -DE/DX =    0.0                 !
 ! D15   D(2,3,4,5)            180.0108         -DE/DX =    0.0                 !
 ! D16   D(2,3,4,6)             -0.0026         -DE/DX =    0.0                 !
 ! D17   D(15,3,4,5)             0.0196         -DE/DX =    0.0                 !
 ! D18   D(15,3,4,6)           180.0062         -DE/DX =    0.0                 !
 ! D19   D(3,4,5,16)          -179.9935         -DE/DX =    0.0                 !
 ! D20   D(3,4,5,17)           -59.8268         -DE/DX =    0.0                 !
 ! D21   D(3,4,5,18)            59.8389         -DE/DX =    0.0                 !
 ! D22   D(6,4,5,16)             0.0201         -DE/DX =    0.0                 !
 ! D23   D(6,4,5,17)           120.1868         -DE/DX =    0.0                 !
 ! D24   D(6,4,5,18)          -120.1475         -DE/DX =    0.0                 !
 ! D25   D(3,4,6,7)              0.0023         -DE/DX =    0.0                 !
 ! D26   D(3,4,6,19)          -179.9986         -DE/DX =    0.0                 !
 ! D27   D(5,4,6,7)           -180.0116         -DE/DX =    0.0                 !
 ! D28   D(5,4,6,19)            -0.0125         -DE/DX =    0.0                 !
 ! D29   D(4,6,7,8)            179.995          -DE/DX =    0.0                 !
 ! D30   D(4,6,7,11)            -0.0019         -DE/DX =    0.0                 !
 ! D31   D(19,6,7,8)            -0.0041         -DE/DX =    0.0                 !
 ! D32   D(19,6,7,11)         -180.001          -DE/DX =    0.0                 !
 ! D33   D(6,7,8,9)           -179.9846         -DE/DX =    0.0                 !
 ! D34   D(6,7,8,10)             0.015          -DE/DX =    0.0                 !
 ! D35   D(11,7,8,9)             0.0121         -DE/DX =    0.0                 !
 ! D36   D(11,7,8,10)         -179.9883         -DE/DX =    0.0                 !
 ! D37   D(6,7,11,2)             0.0019         -DE/DX =    0.0                 !
 ! D38   D(6,7,11,22)         -180.0035         -DE/DX =    0.0                 !
 ! D39   D(8,7,11,2)          -179.9948         -DE/DX =    0.0                 !
 ! D40   D(8,7,11,22)           -0.0001         -DE/DX =    0.0                 !
 ! D41   D(7,8,9,20)             0.0079         -DE/DX =    0.0                 !
 ! D42   D(7,8,9,21)           180.008          -DE/DX =    0.0                 !
 ! D43   D(10,8,9,20)         -179.9916         -DE/DX =    0.0                 !
 ! D44   D(10,8,9,21)            0.0085         -DE/DX =    0.0                 !
 --------------------------------------------------------------------------------
 GradGradGradGradGradGradGradGradGradGradGradGradGradGradGradGradGradGrad


 ----------------------------------------------------------------------

 Electric dipole moment (input orientation):
 (Debye = 10**-18 statcoulomb cm , SI units = C m)
                  (au)            (Debye)         (10**-30 SI)
   Tot        0.196911D+01      0.500498D+01      0.166948D+02
   x         -0.193839D+01     -0.492690D+01     -0.164344D+02
   y         -0.345312D+00     -0.877696D+00     -0.292768D+01
   z          0.282471D-01      0.717971D-01      0.239489D+00

 Dipole polarizability, Alpha (input orientation).
 (esu units = cm**3 , SI units = C**2 m**2 J**-1)
 Alpha(0;0):
               (au)            (10**-24 esu)      (10**-40 SI)
   iso        0.181790D+03      0.269385D+02      0.299731D+02
   aniso      0.118239D+03      0.175212D+02      0.194950D+02
   xx         0.224772D+03      0.333077D+02      0.370598D+02
   yx        -0.270460D+02     -0.400781D+01     -0.445929D+01
   yy         0.210069D+03      0.311291D+02      0.346358D+02
   zx         0.204404D+01      0.302895D+00      0.337017D+00
   zy        -0.786630D+01     -0.116566D+01     -0.129698D+01
   zz         0.110529D+03      0.163787D+02      0.182238D+02

 ----------------------------------------------------------------------

 Dipole orientation:
     6          0.80495854         -2.52525758          4.74859027
     6          0.39994149         -0.96475814          2.41855223
     6         -0.25184549          1.55032924          2.64603637
     7         -0.63771621          3.03760710          0.49365177
     6         -1.31665416          5.65935507          0.84095554
     6         -0.37317486          2.01554196         -1.82665113
     6          0.27166411         -0.47277040         -2.18393332
     6          0.49545931         -1.33867910         -4.83269816
     7          1.13131516         -3.79477592         -5.16500843
     8          0.13028339          0.07064255         -6.65836069
     6          0.68011026         -2.04717284          0.00844072
     1          2.73387332         -3.30167848          4.78569248
     1         -0.50197020         -4.14250708          4.78508646
     1          0.51636219         -1.41573422          6.47641633
     1         -0.49818726          2.50105260          4.45149987
     1         -1.55297710          6.56872654         -1.00179394
     1         -3.09637440          5.80585588          1.90538008
     1          0.16896980          6.65166770          1.90402865
     1         -0.69542249          3.25788844         -3.43503654
     1          1.44242098         -4.99642160         -3.71749647
     1          1.30549810         -4.46762530         -6.94240500
     1          1.19489261         -4.03394857         -0.14803855

 Electric dipole moment (dipole orientation):
 (Debye = 10**-18 statcoulomb cm , SI units = C m)
                  (au)            (Debye)         (10**-30 SI)
   Tot        0.196911D+01      0.500498D+01      0.166948D+02
   x          0.000000D+00      0.000000D+00      0.000000D+00
   y          0.000000D+00      0.000000D+00      0.000000D+00
   z          0.196911D+01      0.500498D+01      0.166948D+02

 Dipole polarizability, Alpha (dipole orientation).
 (esu units = cm**3 , SI units = C**2 m**2 J**-1)
 Alpha(0;0):
               (au)            (10**-24 esu)      (10**-40 SI)
   iso        0.181790D+03      0.269385D+02      0.299731D+02
   aniso      0.118239D+03      0.175212D+02      0.194950D+02
   xx         0.116867D+03      0.173179D+02      0.192687D+02
   yx        -0.268504D+02     -0.397882D+01     -0.442703D+01
   yy         0.213563D+03      0.316468D+02      0.352118D+02
   zx        -0.697359D+01     -0.103338D+01     -0.114979D+01
   zy         0.269971D+02      0.400055D+01      0.445122D+01
   zz         0.214940D+03      0.318508D+02      0.354388D+02

 ----------------------------------------------------------------------
 Unable to Open any file for archive entry.
 1\1\GINC-EXP-4-10\Freq\UPBE1PBE\GenECP\C8H11N2O1(2)\APLATT\11-Feb-2026
 \0\\#N Geom=AllCheck Guess=TCheck SCRF=Check GenChk UPBE1PBE/GenECP Fr
 eq\\A1b_rad_lowestE_conf_1_opt\\0,2\C,-2.2271954694,-1.8089525741,0.22
 10262645\C,-1.1635381859,-0.7555072655,0.1371691655\C,-1.5239510664,0.
 5726580636,0.0327633945\N,-0.5457904923,1.5703205712,-0.0465662609\C,-
 0.9788674756,2.9445431138,-0.1543080132\C,0.7612040034,1.2373615607,-0
 .021221119\C,1.1866559387,-0.0643937614,0.0810646667\C,2.6497269923,-0
 .2830731708,0.0971820069\N,3.0590568979,-1.5698059619,0.1979674242\O,3
 .4652007843,0.6424041806,0.0238786566\C,0.1960439352,-1.1125069275,0.1
 643728511\H,-2.1310098641,-2.3845199134,1.1540702188\H,-2.1314476258,-
 2.5245036904,-0.6095829603\H,-3.2340009535,-1.3739682507,0.1867688261\
 H,-2.5558994988,0.9151466694,0.006370171\H,-0.1064222189,3.6034604137,
 -0.2070135922\H,-1.5886058513,3.0812204297,-1.0597273807\H,-1.58689996
 43,3.2212861037,0.7197409158\H,1.4795457006,2.0531291577,-0.0860079369
 \H,2.4205888329,-2.3487563109,0.2595060079\H,4.0496541059,-1.765814069
 ,0.2127710065\H,0.4686514749,-2.1638283686,0.2469756872\\Version=ES64L
 -G16RevC.01\State=2-A\HF=-495.3244241\S2=0.768162\S2-1=0.\S2A=0.750143
 \RMSD=9.894e-10\RMSF=6.528e-06\ZeroPoint=0.1810024\Thermal=0.1925199\E
 Tot=-495.1319042\HTot=-495.1309601\GTot=-495.1816211\Dipole=-1.9383924
 ,-0.3453123,0.0282471\DipoleDeriv=0.0485706,-0.0726982,0.0057814,-0.17
 71197,-0.0660807,0.010772,0.0142645,0.0109592,0.0674493,0.2469682,0.12
 2429,-0.0099126,0.2383601,0.3740994,-0.0329386,-0.0191623,-0.0329795,-
 0.0380445,0.0757309,0.4201431,-0.0333732,-0.0215937,0.0970699,-0.03549
 74,0.0016666,-0.0360349,-0.3504223,-1.59107,0.7365662,-0.0568585,0.757
 7529,-1.2722917,0.0963084,-0.0589386,0.0968505,-0.0499943,0.2483832,-0
 .2802304,0.0220481,-0.4841926,0.9606586,-0.053225,0.0382333,-0.053515,
 0.2836078,1.6154522,-1.2526382,0.0974951,-1.0338213,0.7527912,-0.05972
 26,0.0803551,-0.0596973,-0.0099252,-1.7045606,0.9703657,-0.0752718,0.8
 330884,-0.667604,0.0385221,-0.0645319,0.0384591,-0.1735591,3.3707465,-
 0.816644,0.0620876,-0.3090857,2.495959,-0.1682121,0.0221978,-0.1678535
 ,0.3650031,-0.8730143,0.6064859,-0.0474939,0.8219344,-1.8121077,0.0849
 874,-0.0644659,0.085155,-0.7299532,-2.098925,-0.2864901,0.0235902,-0.8
 787403,-1.1738466,0.0519213,0.0702434,0.0514685,-0.5247096,0.0093022,-
 0.2211587,0.0171475,0.1055079,-0.1415196,-0.0168701,-0.0085502,-0.0165
 964,-0.3532946,0.033349,-0.0429149,-0.0396761,-0.0541211,0.0151396,0.0
 926982,0.002458,0.1390841,-0.0500276,0.0333658,-0.0360931,0.04594,-0.0
 53823,-0.0225338,-0.0970678,0.0060104,-0.143541,-0.0123667,-0.1275235,
 0.01189,-0.0008841,0.1154723,0.0213549,0.0072228,-0.009145,0.0072174,0
 .1124284,-0.0403666,0.0378181,-0.0027907,0.01712,0.0766844,0.0142326,-
 0.001248,0.0142844,0.2561455,-0.0359533,-0.1079152,0.0086592,0.0191921
 ,-0.0054054,0.0108632,-0.0013554,0.0109776,0.1318319,0.0033958,0.13043
 29,-0.1072284,0.0793828,-0.0711457,-0.0243898,-0.1627227,0.1121076,-0.
 0758503,0.0038198,0.1454461,0.0853681,0.1039716,-0.0849629,0.0256598,0
 .1482099,-0.1110457,-0.0626315,0.1536057,-0.0625046,0.0049469,-0.06442
 16,0.0879713,0.0074651,0.0050639,0.0074768,0.1814529,0.2458297,0.01953
 91,-0.0014519,-0.0281094,0.3161741,0.007229,0.0023241,0.007149,0.40727
 5,0.322257,-0.075753,0.005988,-0.0532802,0.2224091,0.0129149,0.0041786
 ,0.0129741,0.3854775,0.0606368,0.0539243,-0.0041109,0.066526,-0.102813
 2,0.0271267,-0.0050857,0.0271,0.2401075\Polar=224.7716462,-27.0460354,
 210.0693084,2.0440399,-7.8662958,110.5290983\Quadrupole=-5.7111183,11.
 1766566,-5.4655383,-10.591856,0.8326938,-1.3104143\PG=C01 [X(C8H11N2O1
 )]\NImag=0\\0.56381324,-0.04112136,0.54112777,0.00324942,0.00062466,0.
 54839682,-0.16491385,-0.06943801,0.00553399,0.58351149,-0.08171493,-0.
 16411090,0.00730571,0.05036804,0.65875198,0.00651090,0.00730147,-0.072
 73131,-0.00426006,-0.03869669,0.17139930,0.00471672,-0.02604282,0.0020
 5119,-0.09667381,0.05402304,-0.00423140,0.70512125,0.00068214,-0.02459
 178,0.00224859,0.00810054,-0.33048073,0.02150726,-0.06722961,0.7020754
 0,-0.00005381,0.00227135,0.00375657,-0.00062932,0.02148834,-0.05921192
 ,0.00490584,-0.04864602,0.08831842,0.00245447,0.00370540,-0.00028714,-
 0.02405275,0.01727326,-0.00134226,-0.18504046,-0.09151938,0.00731353,0
 .71072616,0.00351097,-0.00149754,0.00084337,-0.01638785,-0.05036752,0.
 00448700,-0.09723154,-0.19832134,0.01269820,-0.02622555,0.68140178,-0.
 00027455,0.00084510,0.00919444,0.00130703,0.00446769,0.00606615,0.0077
 6993,0.01268470,-0.03910227,0.00162255,-0.04474902,0.11617692,0.000808
 18,-0.00093152,0.00007385,-0.00711974,-0.00163391,0.00013411,0.0141943
 1,-0.02546650,0.00199270,-0.12195789,0.03856629,-0.00299235,0.62026023
 ,0.00017296,-0.00018382,0.00005032,-0.00439425,0.00263950,-0.00011258,
 0.00189597,-0.03608371,0.00283066,0.03636225,-0.22984637,0.01308079,0.
 04377629,0.52365470,-0.00001423,0.00005202,0.00046001,0.00035573,-0.00
 011588,0.00118056,-0.00016284,0.00285812,-0.00031267,-0.00280753,0.013
 07173,-0.06420800,-0.00347508,0.00370805,0.57108590,-0.00263068,-0.000
 30596,0.00002592,0.03649242,-0.02164412,0.00167873,-0.07561577,-0.0026
 1069,0.00026378,-0.30580339,0.05286040,-0.00397108,-0.01110277,0.02500
 227,-0.00197174,0.68449014,0.00117370,-0.00216933,0.00016945,-0.007104
 02,0.00452412,-0.00055099,-0.00715562,0.01583771,-0.00092464,0.0056174
 5,-0.14265231,0.00724238,0.03524508,-0.01685782,0.00104893,0.03216834,
 0.81248318,-0.00009041,0.00016777,-0.00006153,0.00053333,-0.00054064,-
 0.00247600,0.00062195,-0.00092310,0.00415156,-0.00026643,0.00721848,-0
 .05111611,-0.00276609,0.00104696,-0.00340540,-0.00291892,-0.05263521,0
 .14891988,-0.00245498,0.00552251,-0.00043215,-0.07401319,0.01471891,-0
 .00110192,0.01528606,-0.03273961,0.00256109,-0.08041576,0.07784257,-0.
 00607776,-0.00214206,-0.01367559,0.00108585,-0.07179538,0.05733502,-0.
 00451467,0.59834239,0.00281659,0.00139287,0.00021088,-0.01738570,0.025
 20731,-0.00143206,-0.01938850,-0.02797058,0.00147574,0.07010703,-0.004
 96828,0.00177672,0.00071900,0.00455134,0.00011774,0.05599311,-0.383985
 34,0.02470708,-0.02564305,0.74096313,-0.00021732,0.00020761,0.00409557
 ,0.00142718,-0.00145344,0.00699824,0.00150980,0.00148458,-0.00954626,-
 0.00545568,0.00176627,0.01800025,-0.00005017,0.00013085,0.00608725,-0.
 00441055,0.02470653,-0.07190825,0.00167355,-0.04843441,0.12976442,-0.0
 0073412,-0.00051014,0.00003925,0.02555352,-0.02262124,0.00176716,-0.00
 903853,0.01712307,-0.00134380,0.05620365,-0.02991049,0.00233452,-0.000
 65512,0.01080870,-0.00085314,-0.07502847,0.05491989,-0.00427753,-0.169
 20216,0.00024418,0.00005797,0.69740061,-0.00114343,0.00094710,-0.00010
 510,-0.00657729,-0.00233441,0.00033794,-0.00041070,-0.00386879,0.00022
 186,-0.00692045,-0.00314465,0.00082214,0.00159069,-0.00183868,0.000350
 78,0.04425185,-0.00562042,0.00022236,0.02347666,-0.10694916,0.00279238
 ,0.13082159,0.81856502,0.00009015,-0.00010527,-0.00038643,0.00049923,0
 .00035090,0.00187115,0.00003874,0.00020775,-0.00108269,0.00050931,0.00
 084109,0.00719309,-0.00012335,0.00034277,0.00258856,-0.00343379,0.0002
 1707,-0.00239016,-0.00177184,0.00280931,-0.07146978,-0.01063392,-0.048
 61567,0.20491737,0.00001092,0.00005609,-0.00000415,-0.00250948,0.00360
 718,-0.00028195,0.00216157,-0.00085106,0.00006591,-0.01056040,0.005709
 13,-0.00044525,-0.00041156,-0.00196420,0.00015486,0.00285815,-0.008896
 59,0.00070231,-0.02651219,0.04856372,-0.00378898,-0.16901200,0.0747702
 2,-0.00579427,0.86929801,-0.00028266,-0.00019506,0.00001613,0.00856497
 ,-0.00718913,0.00058941,-0.00233962,0.00620574,-0.00045710,0.01632075,
 -0.00902931,0.00066148,-0.00028076,0.00359542,-0.00033161,-0.01860562,
 0.01428606,-0.00091618,0.03527100,-0.02069777,0.00249170,0.06802270,-0
 .30982091,0.02052986,0.04608153,0.81403215,0.00002234,0.00001610,0.000
 00975,-0.00067152,0.00059158,0.00032016,0.00018240,-0.00045736,0.00042
 174,-0.00127595,0.00066385,-0.00059145,0.00002195,-0.00032856,-0.00057
 450,0.00146284,-0.00091974,0.00256699,-0.00274519,0.00248015,0.0111156
 7,-0.00526320,0.02052494,-0.04945099,-0.00413146,-0.06224918,0.0264761
 5,-0.00037630,0.00066045,-0.00005126,-0.00886247,0.00457336,-0.0003544
 2,0.00080340,-0.00677010,0.00053384,-0.01821566,0.01112161,-0.00086805
 ,0.00065031,-0.00479699,0.00037870,0.02019828,-0.01793967,0.00139959,-
 0.06786830,-0.02670189,0.00215669,-0.31840159,-0.25048994,0.01985747,0
 .02352165,-0.01963873,0.00153780,0.36597738,0.00023908,0.00030916,-0.0
 0002550,-0.00678737,0.00598338,-0.00044667,0.00150784,-0.00662566,0.00
 052592,-0.01262211,0.01200822,-0.00098175,0.00015951,-0.00290923,0.000
 22122,0.02025532,-0.01694152,0.00132631,-0.03733343,0.01616411,0.00005
 992,-0.23740036,-0.37973662,0.02405311,-0.04409997,-0.09914237,0.00926
 918,0.30545097,0.46761265,-0.00001861,-0.00002589,-0.00001276,0.000541
 84,-0.00045503,0.00029038,-0.00012002,0.00053129,0.00001764,0.00100739
 ,-0.00099379,-0.00044082,-0.00001301,0.00022335,-0.00013389,-0.0016099
 1,0.00135041,-0.00005031,0.00299850,0.00005250,0.01659564,0.01882428,0
 .02406464,-0.07770655,0.00346224,0.00925212,0.01774769,-0.02423562,-0.
 03415768,0.03836381,-0.02818616,-0.00505891,0.00042433,-0.24833625,-0.
 02734087,0.00228077,-0.04271004,0.10651794,-0.00834017,0.02674360,-0.0
 2761097,0.00215334,-0.00006367,0.00536667,-0.00042551,-0.02720633,-0.0
 0044031,0.00006143,-0.13779055,-0.07997956,0.00637170,-0.05025721,-0.0
 1632188,0.00132525,0.00404034,-0.01014625,0.00079270,0.00400779,0.0078
 7257,-0.00062252,0.57385806,-0.02506844,0.00904133,-0.00032197,0.05920
 205,-0.11437532,0.00435261,0.05971719,-0.01242489,0.00242581,-0.017664
 93,-0.00497184,-0.00077431,-0.00172129,0.00246323,-0.00026415,-0.02092
 625,-0.04294548,0.00442538,-0.09704796,-0.20769893,0.01280085,-0.00351
 271,0.01332564,-0.00095796,0.00061091,-0.00140904,-0.00009457,0.005195
 47,-0.00117161,0.00025937,-0.02801139,0.69752365,0.00200351,-0.0003366
 9,0.00478486,-0.00452306,0.00439964,-0.05899811,-0.00466709,0.00240489
 ,0.01876458,0.00136988,-0.00076932,-0.01491558,0.00013570,-0.00026963,
 -0.00089204,0.00166995,0.00441312,0.01268229,0.00772046,0.01278550,-0.
 04715679,0.00030860,-0.00094720,0.00120330,-0.00005337,-0.00008912,-0.
 00260910,-0.00040901,0.00025844,0.00214916,0.00184514,-0.04841185,0.08
 654806,-0.04827862,0.01432275,-0.02312146,0.00333215,-0.01320142,0.020
 44477,-0.00213855,0.00059784,0.00014802,0.00005218,-0.00057358,-0.0007
 6852,-0.00019675,0.00011149,-0.00011770,-0.00001147,-0.00076465,0.0000
 0841,0.00092306,0.00073880,-0.00022105,0.00006375,0.00000892,0.0000712
 0,-0.00006630,0.00003519,-0.00002932,-0.00008510,0.00002805,0.00000204
 ,-0.00108447,-0.00058149,-0.00059090,0.04859063,0.01474676,-0.11335765
 ,0.12135176,-0.00052716,-0.01342221,0.01865290,-0.00172458,-0.00076879
 ,0.00048548,-0.00150385,-0.00120105,-0.00147642,-0.00034640,0.00010066
 ,-0.00012173,0.00125667,-0.00058271,0.00012947,-0.00095650,-0.00001589
 ,-0.00059251,0.00085142,-0.00015389,0.00001180,-0.00016896,0.00028050,
 -0.00003152,-0.00036162,-0.00021540,0.00003193,0.00338646,0.00045045,-
 0.00082087,-0.01166582,0.12408089,-0.02297062,0.12147458,-0.24304768,0
 .00080060,-0.00169824,0.00197480,-0.00010877,-0.00001648,-0.00025497,0
 .00072594,0.00005243,-0.00004244,0.00009015,-0.00008466,0.00003763,-0.
 00059967,0.00018866,-0.00025522,0.00062878,-0.00000792,0.00037647,-0.0
 0043885,0.00013797,0.00003593,0.00008378,-0.00013939,0.00002087,0.0001
 8364,0.00010201,-0.00002663,-0.00130748,0.00004711,0.00084835,0.024835
 54,-0.13120915,0.25801967,-0.04827036,0.01772527,0.02049398,0.00331976
 ,-0.01625402,-0.01811007,-0.00214154,0.00056109,-0.00023593,0.00005191
 ,-0.00044693,0.00084905,-0.00019687,0.00012833,0.00009917,-0.00000872,
 -0.00075686,0.00011113,0.00092134,0.00076352,0.00010018,0.00006462,-0.
 00000223,-0.00007175,-0.00006636,0.00003965,0.00002346,-0.00008522,0.0
 0002710,-0.00000626,-0.00107783,-0.00048180,0.00067497,-0.00039772,-0.
 00242577,-0.00281614,0.04857736,0.01811364,-0.15441966,-0.13552026,-0.
 00064854,-0.01568268,-0.01583148,-0.00169142,-0.00082820,-0.00039441,-
 0.00159469,-0.00095367,0.00162144,-0.00035613,0.00013102,0.00010767,0.
 00133390,-0.00062303,-0.00007318,-0.00104128,0.00008696,0.00064031,0.0
 0090893,-0.00017236,0.00001983,-0.00017985,0.00030037,-0.00001237,-0.0
 0038566,-0.00023125,0.00000107,0.00354988,0.00058307,0.00086005,-0.001
 94434,0.01070047,0.01268083,-0.01536195,0.16830055,0.02027111,-0.13564
 867,-0.20202126,-0.00070707,0.00453338,0.00424115,0.00038204,0.0001030
 2,-0.00019559,-0.00048225,0.00009431,-0.00029190,-0.00003450,0.0000697
 8,0.00000727,0.00039587,-0.00013066,-0.00021408,-0.00047276,0.00005362
 ,0.00027390,0.00030082,-0.00010500,0.00005404,-0.00005638,0.00009521,0
 .00000083,-0.00012487,-0.00006969,-0.00001033,0.00076319,-0.00000451,0
 .00071576,0.00315377,-0.01730103,-0.01822915,-0.02259628,0.14555335,0.
 21383864,-0.27851751,0.10137768,-0.00798736,-0.01839850,0.01072581,-0.
 00084517,0.00076827,0.00189281,-0.00014983,0.00032030,-0.00017062,0.00
 001438,-0.00008851,0.00017898,-0.00001400,-0.00016429,-0.00000591,0.00
 000042,-0.00077453,0.00093138,-0.00007158,0.00036156,-0.00041507,0.000
 03244,-0.00011460,0.00014910,-0.00001159,-0.00041734,-0.00009526,0.000
 00772,-0.00210163,-0.00432338,0.00034137,-0.00076431,-0.00036094,0.000
 57105,-0.00075077,-0.00045187,-0.00050527,0.29985401,0.10690297,-0.093
 41341,0.00382951,-0.02288161,0.01005057,-0.00094183,-0.00159727,0.0005
 6076,-0.00006621,0.00013698,0.00032071,-0.00003011,0.00009120,0.000028
 67,0.00000274,-0.00038053,0.00018216,-0.00002840,-0.00080512,0.0005134
 4,0.00001000,0.00000444,-0.00029744,0.00002445,-0.00005211,0.00000884,
 -0.00000092,-0.00022221,0.00000353,-0.00000237,-0.00225618,-0.00343846
 ,0.00038455,0.01276585,-0.00619301,-0.00151921,0.01640328,-0.00726329,
 0.00282357,-0.10839818,0.09885530,-0.00842607,0.00383036,-0.04502223,0
 .00182515,-0.00094924,-0.00181763,0.00012450,-0.00006812,-0.00028688,-
 0.00001055,-0.00002977,-0.00005475,-0.00000731,0.00000294,0.00006439,0
 .00002953,-0.00002892,-0.00017658,0.00006556,0.00000848,0.00062049,-0.
 00000069,0.00002487,0.00001143,0.00000423,-0.00000105,-0.00000276,0.00
 001778,-0.00000236,-0.00002762,0.00017844,0.00038596,0.00137606,-0.024
 06701,0.00952696,0.00094751,0.02175225,-0.00821458,0.00200694,0.008537
 97,-0.00445098,0.04272216,0.00111799,-0.00110761,0.00008423,-0.0038071
 8,0.00033810,-0.00002417,-0.32113616,0.08862299,-0.00680256,-0.0216098
 0,0.00683991,-0.00052750,0.00044355,0.00176961,-0.00013925,0.00244158,
 -0.00469611,0.00036906,-0.00133082,0.00070216,-0.00005482,0.00135909,-
 0.00031807,0.00002387,-0.00029026,0.00046498,-0.00003642,-0.00058683,-
 0.00020882,0.00001692,0.00289467,-0.00025087,0.00002093,0.00011328,-0.
 00011135,0.00004392,0.00011310,-0.00011780,-0.00002576,0.00031422,0.00
 041788,-0.00003327,0.33998016,0.00182135,0.00112561,-0.00045654,0.0241
 2359,-0.00226862,0.00029392,0.09838935,-0.08735687,0.00551895,-0.02913
 561,0.00652158,-0.00070287,-0.00188775,0.00097688,-0.00005162,-0.00029
 752,-0.00495741,0.00059621,-0.00155680,0.00002839,-0.00007703,0.000881
 97,-0.00014784,-0.00000548,-0.00008867,0.00034102,-0.00002832,-0.00031
 142,-0.00011685,0.00001048,0.00056456,-0.00476495,0.00075984,-0.000058
 52,0.00003590,0.00000285,-0.00007663,-0.00007975,0.00001892,-0.0007649
 7,-0.00002600,0.00000925,-0.09203418,0.09025415,-0.00014651,-0.0004545
 4,-0.00461819,-0.00189130,0.00029890,0.00160868,-0.00758158,0.00553174
 ,-0.01703015,0.00231379,-0.00072638,-0.00257421,0.00014906,-0.00005339
 ,0.00031838,0.00002178,0.00060026,0.00255586,0.00012334,-0.00007963,-0
 .00095559,-0.00007053,-0.00000458,-0.00020893,0.00000722,-0.00002876,-
 0.00001726,0.00002474,0.00001023,0.00001234,-0.00004593,0.00076242,0.0
 0482088,0.00011874,0.00075195,0.00005707,-0.00010776,-0.00072915,0.000
 17410,0.00005939,0.00000926,0.00008682,0.00705947,-0.00593476,0.014751
 23,-0.00003147,0.00009256,-0.00000744,0.00033197,0.00074315,-0.0000585
 6,-0.00051308,0.00157290,-0.00012245,0.00927106,0.01017589,-0.00081146
 ,-0.23809721,-0.14129725,0.01130542,0.00107022,0.00248196,-0.00019597,
 0.00013998,0.00004244,-0.00000395,-0.00006195,-0.00003592,0.00000307,0
 .00006399,-0.00002967,0.00000229,0.00003388,-0.00003376,0.00000260,0.0
 0023694,-0.00006132,0.00000463,0.00000831,0.00001055,0.00000245,0.0000
 0830,0.00001004,-0.00000412,0.00001565,0.00001748,-0.00000131,0.000299
 71,0.00016308,-0.00001297,0.24732766,0.00025829,-0.00028863,0.00001153
 ,-0.00127250,-0.00084504,0.00009645,0.00440867,-0.00329785,0.00033962,
 -0.02694302,-0.02618507,0.00195006,-0.12599066,-0.14517256,0.00787997,
 -0.00464606,0.00133933,-0.00004338,0.00099689,-0.00030515,0.00000317,-
 0.00078783,0.00006415,-0.00000759,0.00011500,-0.00020960,0.00001658,0.
 00029916,0.00029715,-0.00002295,-0.00037522,0.00001813,0.00000474,-0.0
 0006061,-0.00009022,0.00001181,-0.00006423,-0.00009431,0.00000207,-0.0
 0000841,0.00005245,-0.00000498,0.00001287,0.00015104,-0.00001783,0.141
 98372,0.16672208,-0.00002026,0.00001158,-0.00014120,0.00009999,0.00009
 497,0.00036442,-0.00034546,0.00034044,0.00102593,0.00210862,0.00191407
 ,-0.00188510,0.01010117,0.00789467,-0.04724346,0.00036589,-0.00004871,
 0.00074862,-0.00007889,0.00000456,-0.00025178,0.00006222,-0.00000803,-
 0.00003749,-0.00000913,0.00001671,0.00000064,-0.00002362,-0.00002277,0
 .00000999,0.00002926,0.00000416,0.00007245,0.00002750,0.00002725,-0.00
 000761,-0.00001773,-0.00001353,-0.00000359,0.00000062,-0.00000503,-0.0
 0001065,-0.00000111,-0.00001789,-0.00007439,-0.01137274,-0.00993805,0.
 04300042,-0.00003962,-0.00002590,-0.00004882,0.00022507,0.00013689,0.0
 0016645,-0.00019748,-0.00118784,0.00071101,-0.00792297,0.00718913,-0.0
 0732765,-0.12786151,0.01203527,-0.12232836,0.00130738,0.00084783,-0.00
 144224,-0.00165294,0.00002935,0.00053282,0.00124337,-0.00018645,0.0001
 0892,-0.00023468,0.00041179,-0.00006030,-0.00061180,-0.00034026,0.0000
 2818,0.00051064,0.00060076,-0.00002743,0.00002814,0.00004873,-0.000016
 06,0.00001946,0.00003903,0.00001510,0.00003038,0.00000303,-0.00000533,
 0.00015166,-0.00006045,0.00000437,-0.01014614,0.00382101,-0.01948920,0
 .13485128,-0.00007777,-0.00003097,-0.00005073,0.00203392,-0.00164050,-
 0.00032410,0.00086005,0.00352697,0.00008097,0.02861715,-0.01600096,0.0
 2769823,0.00823107,-0.04810144,0.01632741,-0.00641403,0.00026237,0.002
 80722,0.00396278,-0.00237684,-0.00088267,-0.00305658,0.00013853,-0.000
 60826,0.00065743,-0.00096460,0.00019257,0.00119053,0.00083195,-0.00003
 576,-0.00176882,0.00041122,0.00026438,-0.00001795,0.00003654,-0.000018
 39,-0.00003430,-0.00000189,0.00001081,-0.00003250,-0.00001298,-0.00000
 081,-0.00026952,-0.00004860,0.00006553,-0.00818623,0.00314921,-0.01563
 359,-0.02167273,0.05942931,-0.00000240,-0.00001910,-0.00003971,-0.0002
 1650,0.00038021,-0.00008552,-0.00016432,-0.00070021,0.00011141,-0.0018
 3815,0.00470351,0.00585291,-0.12406951,0.02080537,-0.23555870,0.002752
 19,-0.00124414,-0.00084734,-0.00159577,0.00025241,-0.00052176,0.001452
 72,-0.00024678,0.00004242,-0.00022144,0.00045886,-0.00001993,-0.000614
 84,-0.00041395,0.00004135,0.00079084,0.00031740,0.00018704,0.00001773,
 0.00001909,0.00000070,0.00000611,0.00001111,0.00000956,0.00002144,0.00
 000510,-0.00000784,0.00025486,0.00019396,-0.00013845,0.00305681,-0.000
 58092,0.00338909,0.13470655,-0.02552328,0.24599802,-0.00003953,-0.0000
 1796,0.00005207,0.00022457,0.00010886,-0.00018583,-0.00019850,-0.00128
 308,-0.00051552,-0.00790903,0.00824746,0.00614260,-0.12739327,0.030939
 73,0.11874251,0.00130664,0.00106311,0.00128789,-0.00165229,-0.00005468
 ,-0.00052967,0.00124193,-0.00020118,-0.00008030,-0.00023437,0.00041582
 ,-0.00000443,-0.00061124,-0.00034014,0.00002624,0.00051010,0.00059759,
 -0.00006759,0.00001945,0.00003617,-0.00002103,0.00002808,0.00005058,0.
 00000821,0.00003036,0.00000380,0.00000479,0.00015088,-0.00006099,0.000
 00404,-0.01011458,0.00682513,0.01867530,0.01008155,-0.00408273,-0.0143
 6669,0.13434093,-0.00007647,-0.00002029,0.00004785,0.00204518,-0.00161
 279,0.00056332,0.00087348,0.00354098,-0.00062507,0.02850840,-0.0204842
 4,-0.02357861,0.02746584,-0.05843281,-0.04445520,-0.00677485,-0.000000
 07,-0.00293233,0.00416729,-0.00223633,0.00114897,-0.00324825,0.0002695
 5,0.00057722,0.00068408,-0.00104312,-0.00003172,0.00127317,0.00088278,
 -0.00009937,-0.00187302,0.00031589,-0.00028286,-0.00003494,-0.00000491
 ,-0.00000841,-0.00002040,0.00003552,0.00001291,-0.00003546,-0.00001352
 ,0.00000166,-0.00030582,-0.00009093,-0.00007283,-0.00853221,0.00566024
 ,0.01528728,-0.00178311,0.00132815,0.00157450,-0.04238724,0.07189467,0
 .00001452,0.00001606,-0.00005032,-0.00010425,-0.00013942,-0.00011462,0
 .00002810,0.00016015,0.00009996,-0.00262662,-0.00055061,0.01032088,0.1
 2105439,-0.04893527,-0.22568607,-0.00171875,0.00110866,-0.00057832,0.0
 0096052,0.00001878,-0.00066551,-0.00096050,0.00021167,-0.00008595,0.00
 011654,-0.00029818,0.00005752,0.00042276,0.00028180,-0.00000949,-0.000
 50635,-0.00033910,0.00028364,-0.00000070,-0.00000886,0.00001272,-0.000
 01475,-0.00002470,0.00000169,-0.00001618,-0.00000420,-0.00000730,-0.00
 020985,-0.00020103,-0.00009600,-0.00171705,0.00020802,0.00084486,0.014
 77332,-0.00472964,-0.01862663,-0.12945571,0.05320085,0.23403284,0.0001
 2156,0.00002012,-0.00000233,-0.00058415,0.00039168,-0.00003122,-0.0021
 6425,0.00395687,-0.00030679,-0.02332909,-0.02304360,0.00183479,0.00077
 324,-0.00263218,0.00020453,-0.17543111,-0.14059690,0.01117463,0.011681
 84,0.00555687,-0.00044176,-0.00029037,0.00166818,-0.00013424,0.0000941
 7,-0.00132123,0.00010381,-0.00102367,-0.00015892,0.00001258,-0.0009538
 8,0.00218888,-0.00016714,0.00003496,-0.00002839,0.00002056,0.00003484,
 -0.00003157,-0.00001584,0.00004216,0.00003069,-0.00000239,-0.00059304,
 -0.00095513,0.00007588,0.00016237,0.00136796,-0.00010771,0.00017548,0.
 00013484,-0.00001788,0.00017564,0.00013582,-0.00000343,0.19034555,0.00
 002988,0.00010089,-0.00005904,-0.00062527,0.00065134,-0.00015225,0.003
 07923,-0.00068127,0.00050861,0.00761887,0.00911544,-0.00046857,0.00266
 837,0.00124105,-0.00035412,-0.14809868,-0.23026629,0.01511660,-0.02006
 719,-0.01399529,0.00163143,-0.00168990,-0.00307772,-0.00012977,-0.0000
 1907,0.00127789,-0.00008341,-0.00081497,0.00278434,-0.00023239,0.00479
 184,-0.00275101,0.00072556,0.00001114,0.00000012,0.00000929,0.00001057
 ,-0.00002466,-0.00000970,-0.00005224,-0.00001723,0.00000279,0.00025612
 ,0.00052709,-0.00003353,0.00089304,-0.00099079,0.00009554,0.00008484,0
 .00006542,0.00000346,0.00012866,0.00003642,0.00002323,0.15279730,0.236
 73686,-0.00000269,-0.00005865,-0.00064220,0.00004789,-0.00015275,-0.00
 127527,-0.00023641,0.00050763,0.00575723,-0.00058644,-0.00044686,0.003
 27682,-0.00021300,-0.00035011,-0.00320067,0.01176938,0.01510963,-0.040
 95329,0.00157646,0.00161459,0.00640390,0.00013132,-0.00013153,-0.00472
 502,0.00000174,-0.00008287,0.00022196,0.00006316,-0.00023379,-0.000157
 20,-0.00037116,0.00072783,0.00644262,0.00000275,0.00014665,-0.00002741
 ,-0.00000434,-0.00014715,-0.00000255,0.00000396,0.00000282,0.00001717,
 -0.00001966,-0.00003271,0.00010703,-0.00007010,0.00009538,0.00021952,-
 0.00028769,0.00020487,0.00020595,0.00027098,-0.00017822,0.00023435,-0.
 01215501,-0.01669955,0.02750383,-0.00001486,-0.00000677,0.00000064,-0.
 00173355,0.00010146,-0.00000811,0.00110363,-0.00069109,0.00005374,-0.0
 0178503,0.00040617,-0.00003087,-0.00002951,-0.00011578,0.00000932,0.00
 156493,-0.00130936,0.00010152,-0.00211962,0.00085739,-0.00006633,0.016
 21245,0.00138679,-0.00012460,-0.23579344,-0.19481728,0.01543926,0.0013
 5019,0.00665376,-0.00051892,0.00012477,0.00315837,-0.00024638,0.000024
 77,-0.00000871,0.00001662,0.00002482,-0.00001129,-0.00001512,0.0000897
 0,0.00000654,-0.00000054,-0.00002046,-0.00014587,0.00001172,-0.0000024
 3,-0.00000163,0.00000012,-0.00000160,0.00005033,-0.00001642,-0.0000015
 9,0.00005237,0.00000838,0.00009774,-0.00015721,0.00001229,0.23189350,-
 0.00001646,0.00001146,0.00000016,0.00020747,0.00031186,-0.00006297,-0.
 00013639,0.00019453,-0.00001123,-0.00101721,0.00054088,-0.00002762,0.0
 0000653,-0.00025819,0.00002878,0.00071143,-0.00056295,-0.00001632,-0.0
 0034503,0.00021589,-0.00006050,-0.02187107,-0.01403704,0.00036792,-0.1
 9636317,-0.30767289,0.02434658,0.00285310,-0.00391838,0.00094011,-0.00
 031587,-0.00018471,0.00006384,-0.00003122,-0.00002253,0.00000690,-0.00
 002754,-0.00002532,-0.00000436,-0.00004022,-0.00001776,0.00000334,-0.0
 0003690,0.00004942,0.00000276,0.00000714,0.00001818,-0.00000166,-0.000
 03408,0.00007271,-0.00003138,-0.00003423,0.00008099,0.00001897,-0.0001
 4213,0.00009074,-0.00001265,0.20923114,0.31278110,0.00000136,0.0000001
 0,0.00001326,-0.00001506,-0.00006332,-0.00048803,0.00000950,-0.0000107
 2,0.00005117,0.00008219,-0.00002828,0.00018843,-0.00000045,0.00002891,
 0.00010519,-0.00005856,-0.00001486,-0.00076943,0.00002911,-0.00006243,
 -0.00055622,0.00169971,0.00035576,-0.00955815,0.01556220,0.02434380,-0
 .00096944,-0.00021904,0.00093917,0.00800552,0.00002479,0.00006160,0.00
 063188,-0.00002114,0.00001334,-0.00000938,0.00002579,-0.00001074,-0.00
 000653,0.00000293,0.00000345,0.00002444,0.00000301,0.00000300,0.000084
 26,-0.00000055,-0.00000167,-0.00000274,0.00000383,-0.00003327,0.000002
 08,0.00000154,0.00002065,-0.00000625,0.00001103,-0.00001255,-0.0000701
 5,-0.01656295,-0.02427189,0.00715728,-0.00001705,-0.00000794,0.0000006
 7,0.00058227,-0.00046971,0.00003677,-0.00025099,0.00034120,-0.00002674
 ,0.00149423,-0.00050201,0.00003863,-0.00002625,0.00024426,-0.00001958,
 -0.00157876,0.00071740,-0.00005467,0.00226495,-0.00006409,0.00000614,-
 0.00762443,0.00436703,-0.00033775,-0.45462457,0.07214173,-0.00539634,0
 .00022095,-0.00302771,0.00023479,0.00016511,-0.00006983,0.00000570,0.0
 0000177,0.00001982,-0.00001015,0.00000178,0.00002116,0.00000695,0.0000
 1072,-0.00000137,0.00000009,0.00003722,0.00002412,-0.00000196,-0.00001
 016,-0.00001771,0.00000141,0.00002760,-0.00007086,0.00003577,0.0000276
 0,-0.00007576,-0.00002430,-0.00002351,0.00011515,-0.00000894,-0.007492
 60,0.00796311,-0.00062296,0.46691712,0.00003689,0.00000372,0.00000054,
 0.00013699,0.00027793,-0.00002364,-0.00025774,0.00004150,-0.00000332,0
 .00021608,-0.00054185,-0.00000102,0.00009638,0.00005940,-0.00002959,0.
 00121857,0.00035829,0.00007046,-0.00012231,-0.00539213,0.00079602,0.03
 745169,-0.00055925,-0.00001019,0.07072279,-0.08390759,0.00614541,-0.00
 353052,0.00364618,-0.00064907,-0.00124729,-0.00043121,0.00009575,-0.00
 000094,-0.00000520,-0.00000297,-0.00000134,-0.00000374,0.00000397,-0.0
 0000122,-0.00000347,0.00000062,0.00001340,0.00004258,-0.00000304,-0.00
 000907,0.00000519,0.00000020,0.00001233,-0.00002443,0.00000265,0.00001
 472,-0.00003586,0.00000313,0.00002541,-0.00006313,0.00002394,-0.023155
 77,0.01171089,-0.00125000,-0.08176196,0.07432390,-0.00000281,0.0000007
 2,0.00001227,-0.00001181,-0.00002291,-0.00002125,0.00002105,-0.0000038
 8,-0.00000222,-0.00001999,-0.00000073,-0.00055496,-0.00000772,-0.00003
 004,-0.00031507,-0.00009152,0.00007029,0.00126565,0.00000992,0.0007967
 9,0.00467715,-0.00293383,0.00000860,-0.00038599,-0.00528771,0.00614710
 ,-0.00557926,0.00027385,-0.00064934,-0.00459457,0.00010010,0.00009451,
 0.00076804,0.00000271,-0.00000553,0.00000239,-0.00000255,0.00000641,0.
 00000087,0.00000010,0.00000060,0.00000405,-0.00000110,-0.00000305,0.00
 000453,0.00000071,0.00000023,0.00000740,-0.00001649,0.00007580,0.00000
 082,0.00001436,-0.00006978,0.00001237,-0.00000184,0.00002393,0.0002400
 8,0.00181999,-0.00126945,-0.00429156,0.00614630,-0.00509841,0.00915516
 ,0.00146202,0.00109208,-0.00008742,-0.00256830,0.02777046,-0.00218451,
 -0.00633606,0.00037959,-0.00002254,0.00128467,-0.00036638,0.00002822,0
 .00021286,0.00008348,-0.00000712,-0.00535262,-0.00190379,0.00015526,0.
 01016514,-0.01884805,0.00147583,0.00060138,0.00068069,-0.00005384,-0.0
 0161857,-0.00045742,0.00003686,0.00038169,0.00025391,-0.00002042,-0.07
 332400,0.06845043,-0.00534886,-0.00016913,-0.00016652,0.00028573,-0.00
 016995,-0.00021078,-0.00025685,0.00025466,-0.00018956,0.00001419,-0.00
 004258,0.00146648,-0.00011498,0.00000698,0.00007918,-0.00000624,0.0000
 1672,-0.00005407,0.00002889,0.00001665,-0.00005810,-0.00002008,0.00065
 355,-0.00096047,0.00007552,-0.00349180,-0.00056841,0.00004370,-0.00010
 299,0.00014292,-0.00001170,0.07811971,-0.00100372,0.00021914,-0.000171
 34,-0.00075317,-0.00406815,0.00039299,0.00045099,0.00131687,0.00025649
 ,0.00066319,0.00025738,-0.00006045,-0.00000133,0.00024276,-0.00005126,
 -0.00434753,-0.00110855,0.00027445,0.00804024,-0.01253173,0.00082998,0
 .00257000,-0.00155079,0.00008712,0.00110557,0.00095343,-0.00000926,-0.
 00065412,0.00048546,-0.00004297,0.07069661,-0.32756517,0.02450723,0.00
 031544,0.00034796,-0.00000960,0.00029519,0.00026586,-0.00010128,-0.000
 09952,0.00012014,-0.00004641,0.00001905,-0.00019583,0.00010537,-0.0000
 0852,0.00000208,-0.00000217,0.00003085,-0.00004918,0.00003212,0.000030
 60,-0.00007032,-0.00002033,0.00063543,-0.00076022,0.00009349,-0.001483
 54,0.00062111,-0.00001005,0.00011399,0.00049828,-0.00007185,-0.0766156
 7,0.34256946,0.00007699,-0.00017068,-0.00194872,0.00005799,0.00037626,
 0.00090466,-0.00002717,0.00025571,0.00454941,-0.00005419,-0.00005954,-
 0.00049231,-0.00000054,-0.00005118,-0.00040466,0.00034863,0.00027246,0
 .00231115,-0.00064218,0.00085162,-0.00197701,-0.00020257,0.00008796,-0
 .00042916,-0.00008694,-0.00000896,0.00085471,0.00005072,-0.00004382,-0
 .00006334,-0.00552214,0.02450342,-0.01770735,0.00010462,0.00041903,-0.
 00043363,-0.00015251,-0.00053053,-0.00034979,0.00000719,-0.00004679,-0
 .00046722,-0.00000081,0.00010393,0.00113201,0.00000069,-0.00000224,-0.
 00002533,-0.00000100,0.00011270,0.00000455,-0.00000376,-0.00010079,0.0
 0002563,-0.00005023,0.00009445,0.00042331,0.00011664,-0.00000934,0.000
 46436,-0.00000985,-0.00007144,-0.00040591,0.00599041,-0.02598225,0.014
 03465\\0.00000492,-0.00000816,0.00000198,-0.00000613,-0.00000253,-0.00
 000450,0.00000340,0.00000031,0.00000729,-0.00000677,-0.00000662,-0.000
 00623,-0.00000537,-0.00000727,0.00000352,-0.00000562,0.00001148,-0.000
 00113,-0.00001036,-0.00001097,0.00000360,0.00001498,0.00001021,0.00000
 054,-0.00000381,0.00001042,-0.00000383,-0.00000729,0.00000577,-0.00000
 229,0.00001781,0.00001050,0.00000424,0.00000685,-0.00000436,0.00000035
 ,0.00000796,-0.00000547,0.00000093,0.00000470,-0.00000881,0.00000006,-
 0.00000269,-0.00000776,-0.00000219,-0.00001035,0.00000034,-0.00000017,
 -0.00000860,-0.00000315,0.00000016,-0.00000891,-0.00000319,0.00000022,
 -0.00000403,0.00000226,-0.00000007,0.00000527,0.00000449,-0.00000184,0
 .00000690,0.00001278,0.00000188,0.00000713,-0.00000026,-0.00000253\\\@
 The archive entry for this job was punched.


 EVERYTHING'S GOT A MORAL, IF ONLY YOU CAN FIND IT.

                                    -- LEWIS CARROL, ALICE IN WONDERLAND
 Job cpu time:       0 days  1 hours 23 minutes 43.3 seconds.
 Elapsed time:       0 days  0 hours  5 minutes 20.2 seconds.
 File lengths (MBytes):  RWF=    436 Int=      0 D2E=      0 Chk=     18 Scr=      1
 Normal termination of Gaussian 16 at Wed Feb 11 12:45:02 2026.
