  46
        -69.36826339
 C          3.7760313481       -2.6045620235        0.1412356820
 C          3.1586497775       -1.2582090086        0.5279348346
 C          2.1505072331       -1.4673643884        1.6584234768
 C          4.2706598372       -0.3167468092        0.9976195960
 C          2.4739028156       -0.5872203564       -0.6891786178
 N          1.1361414121       -1.0523091346       -0.9468730844
 C          0.8480090231       -2.2626986163       -1.5106548914
 C         -0.4999988669       -2.3707115596       -1.5368480554
 N         -1.0004358308       -1.2225065741       -0.9907210496
 C         -2.4076600394       -0.9876271885       -0.8073283794
 C         -2.9856736563       -1.6037404476        0.4887253897
 C         -2.1007581218       -1.2554332692        1.6852130948
 C         -4.3818730341       -1.0098053312        0.6886728705
 C         -3.0950715651       -3.1249229121        0.3621264224
 C          0.0004212265       -0.3855276842       -0.6338503893
 Ni        -0.1060531083        1.6678340214       -0.0862086675
 C         -1.7808262641        2.1950138704        0.2794251068
 O         -2.7782200290        2.6737450186        0.5668694683
 C          0.8753759702        1.9693385611        1.3754023885
 O          1.4320797109        2.2795943025        2.3236199805
 C          0.5047196346        2.4015231631       -1.5942818366
 O          0.8594456136        2.8166439873       -2.5967899187
 H          4.3188453551       -3.0186090024        0.9878841964
 H          4.4749475955       -2.4881903770       -0.6847758495
 H          3.0113554153       -3.3228045986       -0.1439955761
 H          1.5934804747       -0.5535417029        1.8519914986
 H          2.6660748194       -1.7580063031        2.5702664151
 H          1.4405174618       -2.2531267777        1.4069506843
 H          4.9594079256       -0.0998961787        0.1838258170
 H          4.8331479137       -0.7700706779        1.8100587692
 H          3.8530021730        0.6213260880        1.3548654504
 H          3.0835714494       -0.7426632057       -1.5842964183
 H          2.4002733309        0.4895087774       -0.5005162251
 H          1.6044936647       -2.9292873142       -1.8688572023
 H         -1.1277866255       -3.1499284672       -1.9168808125
 H         -2.9439424954       -1.3900472765       -1.6717339394
 H         -2.5553493011        0.0955140282       -0.7806637765
 H         -1.1523406678       -1.7856892723        1.6370767231
 H         -2.5969880030       -1.5321270207        2.6120688759
 H         -1.8878160894       -0.1880340641        1.7112414359
 H         -5.0097723945       -1.1978816224       -0.1798066437
 H         -4.3225635656        0.0645479620        0.8443547591
 H         -4.8598256559       -1.4536195638        1.5583778937
 H         -3.7115534859       -3.4010375431       -0.4913591611
 H         -3.5519697615       -3.5391301163        1.2577985882
 H         -2.1133058744       -3.5792578525        0.2481757182
  46
        -69.36815034
 C          2.5919655857       -1.2338177780        1.0417449070
 C          3.2375660943       -1.1160082119       -0.3391580612
 C          4.4546245953       -0.1908138507       -0.2641765500
 C          3.6898892202       -2.5015033273       -0.8071709161
 C          2.2445948765       -0.4871391628       -1.3471612616
 N          0.8993472162       -0.9869108683       -1.2386529229
 C          0.4969272525       -2.1874240913       -1.7514634318
 C         -0.8060863763       -2.3372508308       -1.4208517030
 N         -1.1659244112       -1.2241309244       -0.7151996434
 C         -2.4773145278       -1.0326410413       -0.1548820988
 C         -2.7032818728       -1.7647740618        1.1899768765
 C         -1.4987511997       -1.5711890466        2.1111772301
 C         -3.9507744687       -1.1553561220        1.8341376238
 C         -2.9336614911       -3.2609081803        0.9634082286
 C         -0.1239290917       -0.3680628119       -0.6050845983
 Ni        -0.1836518902        1.6706477339        0.0024978782
 C         -0.5099331099        2.3723536374       -1.6014677859
 O         -0.7304159392        2.7286158375       -2.6634568085
 C         -1.4719701694        1.9845711703        1.2070453300
 O         -2.2261326992        2.3231877316        1.9961529250
 C          1.3585494950        2.1935904806        0.7447899152
 O          2.2688491656        2.6537330473        1.2600506951
 H          1.8294508279       -2.0100233436        1.0498794444
 H          2.1224097088       -0.2963607236        1.3316456828
 H          3.3422912471       -1.4898735971        1.7854259484
 H          4.8852618993       -0.0407941657       -1.2520311586
 H          5.2176728193       -0.6211426096        0.3796323156
 H          4.1756566110        0.7785961005        0.1408466186
 H          4.4405625748       -2.8949976103       -0.1256487829
 H          4.1285164654       -2.4518161119       -1.8019484385
 H          2.8582024107       -3.2018112369       -0.8239506522
 H          2.6029735138       -0.6575262856       -2.3667352704
 H          2.1973474486        0.5926960300       -1.1718134233
 H          1.1446478594       -2.8174747534       -2.3248051704
 H         -1.4959964310       -3.1217202555       -1.6533770819
 H         -3.2222263150       -1.3688191587       -0.8822069158
 H         -2.6053981771        0.0430297047        0.0004639906
 H         -1.2170354697       -0.5216593723        2.1663499348
 H         -0.6386696670       -2.1313946876        1.7508473404
 H         -1.7335771695       -1.9200179294        3.1136046930
 H         -3.7864659788       -0.1078916894        2.0738922818
 H         -4.1955571011       -1.6801500114        2.7542160922
 H         -4.8042597579       -1.2254983084        1.1629576568
 H         -2.0486659366       -3.7352800795        0.5455954404
 H         -3.7732401506       -3.4278127450        0.2911955691
 H         -3.1560169811       -3.7482096756        1.9098752655
  46
        -69.36780052
 C          3.4522963835       -2.6597839189        0.2847422397
 C          3.2161248208       -1.1565524233        0.1240784387
 C          4.5552934791       -0.4200581022        0.2028219924
 C          2.5582170441       -0.8830653710       -1.2275136835
 C          2.3299802558       -0.6156302970        1.2699287112
 N          0.9580807192       -1.0438574823        1.2062623095
 C          0.5318732608       -2.2370246022        1.7183331437
 C         -0.7904591896       -2.3285958340        1.4520798344
 N         -1.1377182364       -1.1920087887        0.7765893718
 C         -2.4703273106       -0.9375953359        0.2920170108
 C         -2.8731577288       -1.7422942190       -0.9654016505
 C         -2.9458971272       -3.2437589835       -0.6791317251
 C         -4.2593480805       -1.2460863427       -1.3853965051
 C         -1.8760175197       -1.4884894941       -2.0939168143
 C         -0.0695321147       -0.3706190524        0.6382140126
 Ni        -0.1284813697        1.6595936111        0.0061654994
 C          1.4013876571        2.5297898372        0.3472932524
 O          2.2894727096        3.2368209720        0.4822122693
 C         -0.3638464892        1.6944675212       -1.7602772464
 O         -0.4176184692        1.8258133573       -2.8935230417
 C         -1.4311019633        2.3360970365        1.0289612877
 O         -2.2109545491        2.8014035490        1.7215634816
 H          4.1184406163       -3.0158687647       -0.4975506316
 H          2.5187640102       -3.2127338030        0.2057508528
 H          3.9111156963       -2.8805153141        1.2467729632
 H          5.2377298117       -0.7958651736       -0.5553289407
 H          5.0170062433       -0.5599255356        1.1780676880
 H          4.4160207427        0.6455748696        0.0375633903
 H          1.6693327653       -1.4961118700       -1.3596375290
 H          3.2489804503       -1.1094690900       -2.0358999523
 H          2.2621532848        0.1619089132       -1.3059114919
 H          2.3345310786        0.4767167139        1.2301690895
 H          2.7466780600       -0.9308002027        2.2310934911
 H          1.1836113068       -2.9051393435        2.2422945338
 H         -1.4984408720       -3.0861441581        1.7145778299
 H         -2.5232135622        0.1285065771        0.0465901804
 H         -3.1808839210       -1.1489276651        1.0975265004
 H         -3.5777706618       -3.4472094107        0.1834261441
 H         -1.9564919501       -3.6584281550       -0.5013721987
 H         -3.3719824694       -3.7597627046       -1.5366100001
 H         -4.9891244427       -1.4271085732       -0.5990584821
 H         -4.5883979484       -1.7636626401       -2.2829262205
 H         -4.2384008295       -0.1795182125       -1.5958849733
 H         -1.8580016270       -0.4340544269       -2.3537888422
 H         -2.1548741770       -2.0556655816       -2.9786800731
 H         -0.8710546914       -1.7845829036       -1.8011810079
  46
        -69.36777380
 C          3.3473543619       -2.6635921318        0.0517937927
 C          3.2278252174       -1.1384104744        0.0527177029
 C          2.6041099714       -0.6732842948        1.3667162158
 C          4.6196517935       -0.5204748221       -0.1002669635
 C          2.3780467223       -0.6477453499       -1.1418101087
 N          1.0080826822       -1.0881237076       -1.1176486918
 C          0.6242681713       -2.3135098448       -1.5866180682
 C         -0.7073929077       -2.4139569537       -1.3785182304
 N         -1.1041348900       -1.2489916203       -0.7831704719
 C         -2.4630086032       -1.0065282364       -0.3728520807
 C         -2.8769110475       -1.7046623179        0.9431357060
 C         -1.9398882211       -1.2854904942        2.0736262751
 C         -4.3017323844       -1.2452288423        1.2631525896
 C         -2.8602494582       -3.2280023776        0.8022439288
 C         -0.0566651238       -0.4019954483       -0.6387827861
 Ni        -0.1482221773        1.6512851279       -0.0889412319
 C         -1.6306733299        2.3185251733       -0.8409600058
 O         -2.5118105419        2.8434177600       -1.3441383814
 C         -0.0812263688        1.6831671607        1.6910565344
 O          0.0244864339        1.7454187345        2.8262799201
 C          1.2305263639        2.5609033613       -0.7825808614
 O          2.0176071079        3.2914419980       -1.1742949667
 H          4.0068350644       -2.9826352237        0.8554486099
 H          3.7633613054       -3.0209487228       -0.8883842274
 H          2.3783976977       -3.1325847112        0.2087414143
 H          2.4818823767        0.4079672240        1.3677890797
 H          3.2378491076       -0.9500654708        2.2057252368
 H          1.6257316459       -1.1249197593        1.5154117255
 H          5.2630063796       -0.8356784407        0.7173021923
 H          4.5603561281        0.5651924611       -0.0878875741
 H          5.0803725621       -0.8292987776       -1.0363182987
 H          2.8331265703       -0.9933865246       -2.0748811682
 H          2.3745678792        0.4452966505       -1.1381903981
 H          1.3098151765       -2.9968457305       -2.0430793389
 H         -1.3912852856       -3.1973719168       -1.6294867301
 H         -3.1314575970       -1.3274389644       -1.1778873263
 H         -2.5719903296        0.0732494846       -0.2338286374
 H         -1.9548456797       -0.2053848493        2.1951258490
 H         -0.9167722401       -1.5916667087        1.8660134757
 H         -2.2485649187       -1.7424428643        3.0106516660
 H         -4.6439192119       -1.6984260636        2.1900953654
 H         -4.9881357400       -1.5311171935        0.4689252059
 H         -4.3398361596       -0.1646606832        1.3781847295
 H         -3.4675069814       -3.5483443908       -0.0423518491
 H         -3.2675579185       -3.6842510441        1.7015910703
 H         -1.8465185252       -3.5995191102        0.6712929344
  46
        -69.36764464
 C          4.2606583885       -2.1337905017       -0.3821867433
 C          3.5478140196       -0.7793417409       -0.3427755374
 C          4.5517947941        0.2948887680        0.0843285089
 C          3.0033121868       -0.4516640778       -1.7334979825
 C          2.4033698257       -0.7774308041        0.7022028803
 N          1.1560242392       -1.3144324104        0.2239523087
 C          0.9402087561       -2.6452204013        0.0046733403
 C         -0.3106757671       -2.7614440024       -0.4952246013
 N         -0.8337988600       -1.4999423166       -0.5538979821
 C         -2.1643516962       -1.2282065150       -1.0309483258
 C         -3.2925767768       -1.5048848096       -0.0098608118
 C         -3.4615331641       -3.0062919952        0.2334778581
 C         -2.9949984342       -0.8068045421        1.3153758285
 C         -4.5846922580       -0.9428623873       -0.6082356813
 C          0.0654700039       -0.5880959308       -0.1161545589
 Ni        -0.1644630762        1.5065561498        0.1832898380
 C          1.2329161897        2.4282934907       -0.4640083478
 O          2.0071570102        3.1730188658       -0.8531657932
 C         -1.6090056912        2.1402521020       -0.6663268677
 O         -2.4729872876        2.6897396966       -1.1745686879
 C         -0.3031338865        1.5368544203        1.9581539749
 O         -0.3998492549        1.4783441740        3.0943090563
 H          5.1157940351       -2.0806395042       -1.0521142477
 H          3.6031314913       -2.9174945642       -0.7495987098
 H          4.6220274482       -2.4116403638        0.6060821883
 H          5.4141549836        0.2922890370       -0.5777113368
 H          4.8991682950        0.1136386023        1.0993546322
 H          4.0977539081        1.2818942195        0.0469061188
 H          2.4050921567       -1.2728049910       -2.1237486535
 H          3.8242670336       -0.2728389926       -2.4233169134
 H          2.3777365757        0.4376218710       -1.7023624537
 H          2.2024526949        0.2570009043        1.0021588561
 H          2.7156968139       -1.3407360923        1.5870051099
 H          1.6677663730       -3.3955237825        0.2333850443
 H         -0.8487008183       -3.6258740474       -0.8241484347
 H         -2.3384038386       -1.8295804578       -1.9289561268
 H         -2.1958793004       -0.1715607593       -1.3094695692
 H         -3.6155797221       -3.5388526628       -0.7033141400
 H         -4.3279480282       -3.1811939205        0.8670853961
 H         -2.5923819551       -3.4213219222        0.7383866026
 H         -2.8260098193        0.2570114104        1.1577994743
 H         -2.1085773179       -1.2261992086        1.7871091308
 H         -3.8320494903       -0.9246388851        1.9992224934
 H         -5.4219380334       -1.1306524164        0.0591862551
 H         -4.8009832753       -1.4083070774       -1.5676276894
 H         -4.5034246277        0.1310977137       -0.7575570540
  46
        -69.36679663
 C          3.0854277960       -0.5924860209        1.1832184247
 C          3.5143314425       -0.7841866390       -0.2712611108
 C          4.5696013674        0.2607899733       -0.6430154801
 C          4.1171088081       -2.1812878347       -0.4408813682
 C          2.3103250259       -0.5764622637       -1.2230181104
 N          1.0876239296       -1.1934265413       -0.7812552697
 C          0.8508111425       -2.5348466154       -0.8877029253
 C         -0.3618604776       -2.7639995159       -0.3363851072
 N         -0.8467674343       -1.5533459865        0.0736104807
 C         -2.1311779257       -1.3969361594        0.7086621634
 C         -3.3578451293       -1.5323364935       -0.2228223392
 C         -3.2933266905       -0.4839867261       -1.3310196061
 C         -3.4542542350       -2.9262978725       -0.8462068170
 C         -4.5982099552       -1.2866144097        0.6411272841
 C          0.0458314910       -0.5675713184       -0.1855596137
 Ni        -0.1372983477        1.4901205557        0.3360730953
 C          1.3704615774        2.4313440385        0.0966664292
 O          2.2201777908        3.1901994132        0.0004169027
 C         -1.3217146021        2.2161323366       -0.7882584524
 O         -1.9489817291        2.8083412644       -1.5361788781
 C         -0.5360519482        1.4366091493        2.0731428770
 O         -0.7240252960        1.4065307276        3.1994784348
 H          2.4419861100       -1.4065192780        1.5112691876
 H          2.5372776585        0.3405830216        1.3050103510
 H          3.9581020899       -0.5674264051        1.8310272258
 H          4.1968265621        1.2659955478       -0.4644637404
 H          4.8417777949        0.1757931065       -1.6930807844
 H          5.4667539513        0.1208866237       -0.0451462227
 H          3.4242463789       -2.9518600543       -0.1120111973
 H          5.0182236249       -2.2689070474        0.1617173506
 H          4.3855696688       -2.3666611731       -1.4792949908
 H          2.5608285734       -0.9665714383       -2.2144673003
 H          2.1104334032        0.4953468221       -1.3130565882
 H          1.5385884888       -3.2080231250       -1.3551999415
 H         -0.8908575463       -3.6815639853       -0.1887743038
 H         -2.1494016477       -0.3951355753        1.1499612374
 H         -2.2100242329       -2.1365696186        1.5123940122
 H         -2.3694593563       -0.5725354615       -1.8990363790
 H         -3.3413983622        0.5148066345       -0.9058958067
 H         -4.1294003716       -0.6049809657       -2.0156425442
 H         -3.4037338682       -3.7010934885       -0.0833202324
 H         -2.6617711398       -3.0871067921       -1.5731192591
 H         -4.4049412789       -3.0287470242       -1.3647480422
 H         -4.6820316913       -2.0400453797        1.4215768351
 H         -5.4958086102       -1.3270580598        0.0292953847
 H         -4.5514690476       -0.3077551862        1.1123522901
