  58
        -82.02557461
 C         -4.6737327895       -0.5151165341       -1.2446290171
 C         -3.2479317122       -1.0539986930       -1.3383648446
 C         -2.5489276878       -0.4299057915       -2.5461579226
 C         -2.4556114605       -0.7336499881       -0.0559643362
 C         -3.0780096999       -1.2646127759        1.2590907101
 C         -3.4349835802       -2.7501897015        1.2542377913
 C         -2.1496991552       -0.9724301505        2.4381049884
 N         -1.0735259593       -1.1434191969       -0.1879655986
 C         -0.6758956109       -2.4134995562       -0.4949727730
 C          0.6764356045       -2.4133340954       -0.4950261294
 N          1.0737787465       -1.1431651903       -0.1879964637
 C          2.4557699198       -0.7330709503       -0.0560259666
 C          3.0783738865       -1.2639565164        1.2589787175
 C          2.1496781756       -0.9726407871        2.4379035712
 C          3.4364061186       -2.7492856783        1.2538618876
 C          3.2481048416       -1.0532788225       -1.3384583981
 C          2.5488964008       -0.4298066053       -2.5464417737
 C          4.6736495075       -0.5136960582       -1.2449396070
 C          0.0000327295       -0.3394127435       -0.0064863920
 Ni        -0.0001491704        1.7901992219        0.1634575255
 C          0.0003168814        2.1666254042       -1.5755656766
 O          0.0003453094        2.3209538629       -2.7075670586
 C         -1.4325476214        2.3959296269        1.0536123254
 O         -2.2703654139        2.9189329730        1.6287651029
 C          1.4313170718        2.3956359808        1.0552761807
 O          2.2687862478        2.9181970027        1.6313352117
 H         -5.1864527638       -0.6612150374       -2.1925576703
 H         -4.6602994829        0.5503425482       -1.0260603902
 H         -5.2456378092       -1.0208387378       -0.4718224909
 H         -3.2902958168       -2.1376021069       -1.4865427804
 H         -1.5461698358       -0.8300401714       -2.6778295532
 H         -2.4723606332        0.6478992669       -2.4199045067
 H         -3.1141328865       -0.6299596881       -3.4532739931
 H         -2.4218802868        0.3611578048        0.0340345845
 H         -3.9997568645       -0.6942024099        1.4079403943
 H         -2.5417899409       -3.3679742793        1.2023860087
 H         -4.0921487079       -3.0066764699        0.4277300106
 H         -3.9515674298       -2.9956722296        2.1798126675
 H         -1.2803651417       -1.6264473640        2.4173262834
 H         -2.6728569081       -1.1363549854        3.3769403684
 H         -1.7973518197        0.0563426183        2.4137543418
 H         -1.3605223277       -3.2063597268       -0.7094691320
 H          1.3612428672       -3.2060234214       -0.7095797746
 H          2.4217744798        0.3617353899        0.0339474027
 H          3.9997097851       -0.6929429118        1.4080650297
 H          2.6729391958       -1.1361425818        3.3767487886
 H          1.2809699909       -1.6274931654        2.4170316338
 H          1.7963799502        0.0558100558        2.4136089608
 H          2.5436708991       -3.3676770466        1.2014391831
 H          3.9527315839       -2.9946522733        2.1796120505
 H          4.0941224457       -3.0051247463        0.4275926411
 H          3.2909707083       -2.1368864388       -1.4864498776
 H          1.5463324889       -0.8304545525       -2.6780038549
 H          3.1141996387       -0.6297422580       -3.4535367217
 H          2.4717911580        0.6479725628       -2.4203651140
 H          4.6597290326        0.5518403028       -1.0267618399
 H          5.1864610157       -0.6599342660       -2.1928017712
 H          5.2457582648       -1.0188793308       -0.4719336346
  58
        -82.02537362
 C         -4.7821870559       -0.6005911634       -0.7271514817
 C         -3.3741552997       -1.1555568247       -0.9314255764
 C         -2.8066160632       -0.6283672390       -2.2498582251
 C         -2.4488119923       -0.7590994568        0.2373508442
 C         -2.9185483325       -1.2282650535        1.6353472515
 C         -3.0968558539       -2.7373554812        1.7884034763
 C         -1.9599609646       -0.7127623920        2.7069385856
 N         -1.0852078502       -1.1631189126       -0.0342311089
 C         -0.7200121207       -2.4461010141       -0.3302384100
 C          0.6194523043       -2.4425298390       -0.5112512695
 N          1.0433991370       -1.1574326792       -0.3219094843
 C          2.4280354630       -0.7460820812       -0.4219225989
 C          3.2543779807       -1.2110344675        0.8012283472
 C          2.6136650326       -0.6963376854        2.0886615588
 C          3.4720598625       -2.7192905700        0.9028572909
 C          3.0121157595       -1.1394539056       -1.7943786606
 C          2.1120863683       -0.6172489208       -2.9148949793
 C          4.4207878683       -0.5767656427       -1.9713068928
 C         -0.0053286158       -0.3457863789       -0.0467132212
 Ni         0.0184922993        1.7809226231        0.1718776532
 C          1.3226831693        2.4759915636       -0.8392326934
 O          2.0756390087        3.0513665722       -1.4789939963
 C         -1.5112383793        2.4688147482       -0.4551765883
 O         -2.4100786185        3.0403836623       -0.8707352076
 C          0.2541180422        2.0431031053        1.9168065778
 O          0.4047029954        2.2339950134        3.0328397677
 H         -5.3853713917       -0.7915697951       -1.6116945579
 H         -4.7460816066        0.4745123227       -0.5661836759
 H         -5.2774087098       -1.0642020803        0.1215204187
 H         -3.4368835628       -2.2464317829       -0.9979167990
 H         -1.8287623781       -1.0536828940       -2.4629008481
 H         -2.7049851628        0.4536335108       -2.2137675036
 H         -3.4712560214       -0.8829133020       -3.0720250974
 H         -2.4235082659        0.3382923820        0.2787982722
 H         -3.8891177174       -0.7524798398        1.8027982291
 H         -2.1385296077       -3.2502133943        1.7563829406
 H         -3.7468994789       -3.1463331694        1.0190779532
 H         -3.5514111859       -2.9477338279        2.7542320788
 H         -0.9841863403       -1.1856986084        2.6169775598
 H         -2.3513933853       -0.9277847256        3.6982465635
 H         -1.8269424802        0.3626343532        2.6145477398
 H         -1.4189337764       -3.2508170726       -0.4123971980
 H          1.2756823473       -3.2436547767       -0.7765206429
 H          2.4089049752        0.3512209394       -0.3752222673
 H          4.2328866432       -0.7320163850        0.7039786759
 H          3.2547397754       -0.9096068166        2.9405359173
 H          1.6500114491       -1.1711801645        2.2612400523
 H          2.4586523240        0.3787124910        2.0344315532
 H          2.5414556915       -3.2350063515        1.1274922981
 H          4.1679373084       -2.9265608617        1.7131017841
 H          3.8953113872       -3.1277458316       -0.0113182277
 H          3.0609935098       -2.2300800227       -1.8750707663
 H          1.1151440415       -1.0481249540       -2.8607875336
 H          2.5360858282       -0.8694107278       -3.8839867338
 H          2.0176640819        0.4642430297       -2.8530860332
 H          4.4229053782        0.4983291760       -1.8062962200
 H          4.7683834958       -0.7656444404       -2.9843331672
 H          5.1261644133       -1.0367262546       -1.2847905300
  58
        -82.02512696
 C         -4.5423235534       -0.4120458173       -1.7671569956
 C         -3.1151197802       -0.9535846455       -1.7267834662
 C         -2.2820696855       -0.2743392842       -2.8145534373
 C         -2.4673747025       -0.7112215580       -0.3478098748
 C         -3.2354856598       -1.3042988931        0.8571317196
 C         -3.4653573999       -2.8135411121        0.8083448091
 C         -2.5274937191       -0.9332579290        2.1585871071
 N         -1.0795134683       -1.1235239135       -0.3669244796
 C         -0.6675702798       -2.3884133764       -0.6793258868
 C          0.6823522509       -2.3928270811       -0.6057791240
 N          1.0655047456       -1.1270698108       -0.2657954584
 C          2.4432360710       -0.7099169163       -0.1163198874
 C          3.1550851677       -1.5516077408        0.9607231333
 C          4.5549425482       -1.0055471025        1.2329172750
 C          2.3433204248       -1.5325779716        2.2560376376
 C          3.1666321271       -0.6343010431       -1.4851460620
 C          3.6357479513       -1.9721017764       -2.0561590690
 C          2.2798913783        0.0665134123       -2.5150723169
 C         -0.0148193276       -0.3258171449       -0.1148596132
 Ni        -0.0121473416        1.7197659302        0.5075837617
 C          0.0200352591        1.5259829722        2.2766033531
 O          0.0885660356        1.3600681094        3.4047715112
 C          1.4248599590        2.6212210049       -0.0768332542
 O          2.2582639903        3.3451439775       -0.3727375699
 C         -1.4308322965        2.5556733136       -0.1935428661
 O         -2.2540633639        3.2005052360       -0.6559942576
 H         -4.5587300281        0.6344426423       -1.4711334591
 H         -5.2029265508       -0.9713156456       -1.1104970748
 H         -4.9354648173       -0.4851625904       -2.7785206713
 H         -3.1431535396       -2.0277608060       -1.9365780216
 H         -1.2773490260       -0.6870977477       -2.8637260280
 H         -2.2002470023        0.7923789325       -2.6187114780
 H         -2.7505900598       -0.4103267720       -3.7863428522
 H         -2.4436061427        0.3744167432       -0.1851921200
 H         -4.2126981168       -0.8126996796        0.8605044459
 H         -4.1442525326       -3.0976328137        1.6097088721
 H         -2.5353459123       -3.3566832010        0.9576318398
 H         -3.9137438811       -3.1227512150       -0.1324458970
 H         -1.5557190173       -1.4184307469        2.2262374466
 H         -3.1227743905       -1.2439629397        3.0137265095
 H         -2.3767167133        0.1426321330        2.2166122465
 H         -1.3403263600       -3.1755722986       -0.9445663015
 H          1.3741675993       -3.1952506718       -0.7495905882
 H          2.3882264253        0.3194982944        0.2658990849
 H          3.2386533579       -2.5893924176        0.6229731436
 H          5.1971746809       -1.0898772700        0.3609492558
 H          5.0167090083       -1.5598315227        2.0467613323
 H          4.4999244355        0.0414493598        1.5226565503
 H          2.2049927440       -0.5095805118        2.5986637411
 H          2.8632677889       -2.0876316256        3.0331599491
 H          1.3626361300       -1.9824218787        2.1188844166
 H          4.0506630698       -0.0100803802       -1.3220631214
 H          4.2126329096       -1.7881938887       -2.9602343992
 H          2.7928818370       -2.6022994184       -2.3283046833
 H          4.2717277489       -2.5116518329       -1.3599283535
 H          1.4686897897       -0.5850113623       -2.8346211987
 H          2.8636961426        0.3332961455       -3.3925444200
 H          1.8416705201        0.9729923260       -2.1029887234
  58
        -82.02494195
 C         -4.4475861861       -0.6092528705       -1.8805677470
 C         -3.0376532737       -1.1712410708       -1.7195396016
 C         -2.1746182679       -0.6941230872       -2.8882571794
 C         -2.4035360697       -0.7600512665       -0.3722079767
 C         -3.1865675842       -1.2830740432        0.8650078111
 C         -2.2685077418       -1.7609382632        1.9915368390
 C         -4.0858719475       -0.1796525073        1.4235036483
 N         -1.0178938652       -1.1795434332       -0.3450648540
 C         -0.6153917985       -2.4677033509       -0.5580762144
 C          0.7317504676       -2.4814243423       -0.4466672058
 N          1.1201375492       -1.2029357913       -0.1603314834
 C          2.4935977584       -0.8034229924        0.0581475117
 C          3.0106545594       -1.2767808108        1.4376197483
 C          2.0414080094       -0.8360694162        2.5340496932
 C          3.2678235124       -2.7777254231        1.5529897485
 C          3.3698208916       -1.1837637125       -1.1511855124
 C          2.7552520338       -0.6082733547       -2.4278714821
 C          4.7909464929       -0.6508433973       -0.9833440181
 C          0.0466633609       -0.3809855846       -0.1054571568
 Ni        -0.0283748230        1.7188608722        0.2410305850
 C         -0.9731636930        2.4237899705       -1.1033371547
 O         -1.5061632805        2.9504678660       -1.9660287356
 C         -0.7386647653        1.8284136530        1.8703049560
 O         -1.1387964962        1.8886855972        2.9390190232
 C          1.5908518366        2.4878796417        0.1829122516
 O          2.5348464364        3.1311549601        0.1334172769
 H         -5.1296482601       -1.0207082615       -1.1422448347
 H         -4.8309764820       -0.8623945651       -2.8666402044
 H         -4.4370750084        0.4745274601       -1.7899815581
 H         -3.1020628727       -2.2651057580       -1.7567725547
 H         -1.1784929770       -1.1289759845       -2.8589842818
 H         -2.0749740500        0.3880555845       -2.8667245580
 H         -2.6364737243       -0.9756019402       -3.8316649330
 H         -2.3786322619        0.3366624987       -0.3191485022
 H         -3.8102206663       -2.1285558872        0.5527487242
 H         -1.5659484710       -0.9767420528        2.2666153255
 H         -1.7078177865       -2.6507442284        1.7142533763
 H         -2.8672095212       -2.0025546192        2.8666981030
 H         -4.7413410865        0.2343127516        0.6643576542
 H         -3.4752318230        0.6267607293        1.8228707454
 H         -4.7023685908       -0.5706438913        2.2299431262
 H         -1.2975639078       -3.2644999599       -0.7700967965
 H          1.4214278619       -3.2893476917       -0.5680525075
 H          2.4688486407        0.2932181847        0.1033837252
 H          3.9585589787       -0.7550991816        1.5995452051
 H          1.1202595124       -1.4139881889        2.4924938878
 H          1.7878208357        0.2171822048        2.4236807217
 H          2.4891376681       -0.9824227328        3.5139017851
 H          3.9347981529       -3.1333409622        0.7718580393
 H          2.3373788344       -3.3386746851        1.5100562196
 H          3.7354025014       -2.9879500936        2.5125797279
 H          3.4143246249       -2.2729839316       -1.2500477961
 H          3.3945865630       -0.8188334466       -3.2817705804
 H          2.6417688726        0.4702086637       -2.3397419923
 H          1.7754176272       -1.0363779823       -2.6261173708
 H          5.3638324026       -0.8355559133       -1.8891117273
 H          5.3052706361       -1.1335967652       -0.1570576777
 H          4.7740859898        0.4219217896       -0.8045589793
  58
        -82.02486226
 C         -4.7205095753       -0.6476237571       -0.9580048489
 C         -3.2930212933       -1.1749969163       -1.0729938649
 C         -2.6708071945       -0.6481075681       -2.3666399024
 C         -2.4253952771       -0.7820686047        0.1442277393
 C         -2.9587330372       -1.3424316171        1.4921376446
 C         -1.8371210817       -1.7954196588        2.4294260561
 C         -3.7832213126       -0.2802860315        2.2205903849
 N         -1.0578807551       -1.1919193139       -0.1004264606
 C         -0.6975192989       -2.4797251082       -0.3805937542
 C          0.6426768654       -2.4825096063       -0.5573901044
 N          1.0687463417       -1.1955393990       -0.3859099733
 C          2.4469116904       -0.7736975205       -0.5112327060
 C          3.3524822431       -1.5863419996        0.4341771306
 C          4.7845453951       -1.0572616969        0.4031112981
 C          2.8057061544       -1.5013543818        1.8599983944
 C          2.8918990514       -0.7222487777       -1.9923697120
 C          3.1061816996       -2.0836338260       -2.6506756263
 C          1.8873795063        0.0903474366       -2.8092738088
 C          0.0264313653       -0.3843459716       -0.0926818766
 Ni         0.0237188608        1.6945712159        0.3678291869
 C          1.6590802358        2.4313387969        0.3539939359
 O          2.6175522556        3.0525357454        0.4061896575
 C         -0.9702225946        2.4241980496       -0.9186756153
 O         -1.5520256411        2.9104637339       -1.7733328007
 C         -0.5694780562        1.7967246992        2.0490439517
 O         -0.8343050566        1.9208992752        3.1536448264
 H         -5.2486414120       -1.0998081223       -0.1236498714
 H         -5.2699963480       -0.8828882031       -1.8669882303
 H         -4.7178427404        0.4329672224       -0.8350421905
 H         -3.3390119532       -2.2690317429       -1.1288149011
 H         -1.6773615672       -1.0577628848       -2.5321645175
 H         -2.5925271382        0.4354844595       -2.3337009648
 H         -3.2918336401       -0.9199863329       -3.2169153275
 H         -2.3964612962        0.3139595928        0.2146317927
 H         -3.5981959440       -2.2076985347        1.2826044096
 H         -2.2568685347       -2.0427296091        3.4016843892
 H         -1.1095683823       -0.9976350744        2.5658476038
 H         -1.3198075585       -2.6758805583        2.0553776265
 H         -3.1395868211        0.5388067625        2.5312983946
 H         -4.2411221939       -0.7079162990        3.1098842474
 H         -4.5707278108        0.1257370027        1.5947344866
 H         -1.4012388418       -3.2843315037       -0.4321471744
 H          1.3049105165       -3.2950273728       -0.7682768663
 H          2.4616016084        0.2637343433       -0.1519824262
 H          3.3611699786       -2.6375427455        0.1293768250
 H          4.7997614703        0.0063830660        0.6301407999
 H          5.2483636279       -1.2125934678       -0.5669715966
 H          5.3851025585       -1.5727989118        1.1489596506
 H          3.4704588624       -2.0158786359        2.5496131818
 H          1.8210462150       -1.9566167954        1.9367861428
 H          2.7239244931       -0.4617926662        2.1710262171
 H          3.8448414630       -0.1848768717       -2.0030220061
 H          3.5192573445       -1.9385133241       -3.6466417214
 H          2.1658290040       -2.6187508245       -2.7588039614
 H          3.8027660945       -2.6986357585       -2.0868163197
 H          1.6538483430        1.0308473465       -2.3127281520
 H          0.9582596849       -0.4604834159       -2.9415972803
 H          2.2929653325        0.3106371774       -3.7935902568
  58
        -82.02319978
 C         -4.3769420441        0.0362368975       -1.1135729755
 C         -3.3355827500       -1.0819667480       -1.0461748213
 C         -2.5238381127       -1.0365750460       -2.3433180902
 C         -2.4382743988       -0.9202491823        0.2101435675
 C         -2.9023276313       -1.7271370046        1.4434973656
 C         -1.9321910475       -1.4949867255        2.6033323350
 C         -4.3139725819       -1.3581602173        1.8896041517
 N         -1.0635061833       -1.2721044093       -0.0781108100
 C         -0.6586973988       -2.5489494529       -0.3503479892
 C          0.6778893587       -2.5037603899       -0.5453249623
 N          1.0572473379       -1.2004754212       -0.3877961967
 C          2.4257672048       -0.7448077326       -0.5036404748
 C          3.3022570840       -1.2253960653        0.6871856860
 C          4.1622742330       -0.0681627492        1.1966471027
 C          2.4795926194       -1.7572090965        1.8619058959
 C          2.9855556619       -1.1437964887       -1.8863274484
 C          2.0291961831       -0.7023126956       -2.9951479675
 C          4.3600827171       -0.5295353852       -2.1373718666
 C         -0.0127534658       -0.4233889030       -0.1049952063
 Ni         0.0079369765        1.6649385386        0.2728884026
 C          1.0969256118        2.4446361982       -0.9128628205
 O          1.7205906532        3.0256105202       -1.6744345545
 C         -1.5995053591        2.4202134827        0.0309780499
 O         -2.5340572721        3.0588114851       -0.1279376674
 C          0.5319182573        1.6730434676        1.9724051395
 O          0.8359966841        1.6034614848        3.0718577359
 H         -5.0742094539       -0.1540756975       -1.9266185217
 H         -3.8849751732        0.9863667746       -1.3067770888
 H         -4.9448668367        0.1274607778       -0.1944414193
 H         -3.8495016527       -2.0485050301       -0.9904063098
 H         -1.8916365058       -1.9130368654       -2.4649309501
 H         -1.8947074509       -0.1479497707       -2.3620063855
 H         -3.2007320039       -0.9933736679       -3.1932954369
 H         -2.4196896078        0.1417130729        0.4857718980
 H         -2.8960603273       -2.7931677931        1.1882876123
 H         -1.8577318851       -0.4316055538        2.8221774295
 H         -0.9361664195       -1.8663956095        2.3745920905
 H         -2.2841577498       -2.0057859782        3.4962693170
 H         -4.3811179455       -0.2934752288        2.1008714619
 H         -4.5596481089       -1.8991266970        2.8010098392
 H         -5.0523702682       -1.6214897707        1.1378507023
 H         -1.3343056547       -3.3780163142       -0.3877285771
 H          1.3685994501       -3.2864734380       -0.7810383503
 H          2.3715653625        0.3504160523       -0.4579110550
 H          3.9568423322       -2.0320580838        0.3382433591
 H          3.5238594153        0.7052811047        1.6187643563
 H          4.7558813300        0.3752673661        0.4035581442
 H          4.8378624290       -0.4151116651        1.9753260803
 H          1.9534074332       -2.6758228645        1.6128998030
 H          1.7525912877       -1.0145021303        2.1838813804
 H          3.1415592386       -1.9679626739        2.6986313759
 H          3.0869201521       -2.2348242398       -1.9241091010
 H          2.4497256658       -0.9431614950       -3.9685402672
 H          1.8684346956        0.3722253031       -2.9485143949
 H          1.0630580787       -1.1945875805       -2.9149741686
 H          4.3102238814        0.5543854351       -2.0629094071
 H          4.6974629528       -0.7846184416       -3.1395592443
 H          5.0989875501       -0.8991733973       -1.4323037172
  58
        -82.02305731
 C         -4.3918142234       -0.5577655177       -2.1140653847
 C         -2.9974984947       -1.1445135650       -1.9111696064
 C         -2.0729466014       -0.6362955868       -3.0184557633
 C         -2.4199730694       -0.7802847765       -0.5266627339
 C         -3.2610628447       -1.3143408583        0.6665796192
 C         -2.4015445970       -1.8547528314        1.8103026862
 C         -4.1362423510       -0.1912021864        1.2244823789
 N         -1.0399004004       -1.2079748364       -0.4508249899
 C         -0.6326589241       -2.4956205036       -0.6600484391
 C          0.7072506870       -2.5168546095       -0.4829342483
 N          1.0861392099       -1.2416595925       -0.1699036476
 C          2.4512140233       -0.8579744184        0.1171849227
 C          2.9359545995       -1.4149641877        1.4849027210
 C          3.6788362513       -0.3215167517        2.2538152015
 C          1.7898864237       -1.9138401507        2.3662058830
 C          3.3553586805       -1.2428209438       -1.0733177463
 C          2.7655366897       -0.7024389033       -2.3769350660
 C          4.7737835677       -0.7053149686       -0.9042074943
 C          0.0153980432       -0.4169448004       -0.1544870221
 Ni        -0.0153799971        1.6596115732        0.2933960356
 C         -1.2960678222        2.4704022183       -0.6619430911
 O         -2.0369618267        3.0916078491       -1.2714816922
 C         -0.2907261507        1.5894272821        2.0478959336
 O         -0.4636116352        1.4548883683        3.1699898593
 C          1.5242592687        2.4304379132       -0.2047392001
 O          2.4337176124        3.0370260539       -0.5384394134
 H         -4.3679809017        0.5238842980       -2.0030233003
 H         -5.1065321990       -0.9706712992       -1.4080670974
 H         -4.7429502688       -0.7871621175       -3.1177476310
 H         -3.0717835362       -2.2356647819       -1.9877225332
 H         -1.9232946087        0.4367758925       -2.9218517136
 H         -2.5117354999       -0.8351326878       -3.9932272573
 H         -1.0993652298       -1.1192284885       -2.9832771481
 H         -2.3876872401        0.3133572929       -0.4472488720
 H         -3.9030774036       -2.1271469050        0.3087852400
 H         -1.6928843405       -1.0984337900        2.1408884121
 H         -1.8502878600       -2.7476815724        1.5259003876
 H         -3.0411783390       -2.1104631919        2.6517683234
 H         -3.5054772964        0.5856876931        1.6523287881
 H         -4.7856068918       -0.5736665910        2.0087934280
 H         -4.7579713374        0.2584655483        0.4569107843
 H         -1.3086025914       -3.2853726815       -0.9144487320
 H          1.4011473288       -3.3283507274       -0.5558190419
 H          2.4333860335        0.2361708458        0.1917937733
 H          3.6171827473       -2.2537106807        1.3024270203
 H          2.9878881231        0.4799991951        2.5081595690
 H          4.4933159540        0.1011776397        1.6743956487
 H          4.0898038639       -0.7232811660        3.1772872662
 H          2.1796912382       -2.1865577012        3.3440830379
 H          1.2970012874       -2.7876563619        1.9471585067
 H          1.0496280366       -1.1283702008        2.5033291377
 H          3.4100059971       -2.3359007446       -1.1377434899
 H          2.6280549978        0.3746362968       -2.3105303158
 H          1.8020435050       -1.1541769200       -2.6003888800
 H          3.4358278881       -0.9124780529       -3.2068814875
 H          5.2675970029       -1.1435079508       -0.0417198083
 H          4.7588643901        0.3764763839       -0.7930358801
 H          5.3640593123       -0.9466748276       -1.7854803139
  58
        -82.02304506
 C         -3.8928437921        0.3705701103       -1.8267243202
 C         -3.0954881951       -0.9045881302       -1.5497398772
 C         -2.0686056875       -1.0737571139       -2.6704312580
 C         -2.4504300934       -0.8252686746       -0.1372971540
 C         -3.2248315397       -1.6125820307        0.9419421051
 C         -2.4860202444       -1.5496384669        2.2794930117
 C         -4.6405503932       -1.0729110406        1.1268322950
 N         -1.0676804733       -1.2518071814       -0.1475379038
 C         -0.6761427606       -2.5488057677       -0.3261827268
 C          0.6750800773       -2.5585245814       -0.2925215384
 N          1.0762934830       -1.2674805855       -0.0920976633
 C          2.4629084391       -0.8618813979       -0.0165730297
 C          3.1735949726       -1.6674437626        1.0917510495
 C          4.5971510717       -1.1721160825        1.3312827400
 C          2.3810259323       -1.5698540006        2.3963309858
 C          3.1617090554       -0.9307362181       -1.4027992794
 C          2.1688371708       -1.0249453737       -2.5623786595
 C          4.0143246035        0.3206606086       -1.6167539017
 C          0.0073465858       -0.4464287390        0.0061360992
 Ni        -0.0126170283        1.6609142420        0.2767650346
 C         -0.2365438006        2.2048233785       -1.4011264649
 O         -0.3471012814        2.4913622874       -2.5023154388
 C         -1.3153440354        2.0686557119        1.4337444146
 O         -2.0813859729        2.4028934748        2.2131698018
 C          1.5125312239        2.2503667020        1.0146079291
 O          2.4027824738        2.7552133552        1.5238293050
 H         -4.6273507081        0.5657872647       -1.0518900190
 H         -4.4137157799        0.2901625920       -2.7782331472
 H         -3.2169669561        1.2217406327       -1.8787796914
 H         -3.7738372830       -1.7648048777       -1.5779190142
 H         -1.5592257247       -2.0330261517       -2.6214050497
 H         -1.3239373588       -0.2821655869       -2.6259809910
 H         -2.5721310768       -1.0114402166       -3.6323040391
 H         -2.4252490668        0.2310020822        0.1597734926
 H         -3.2969597991       -2.6611196887        0.6297061936
 H         -1.5084012811       -2.0222081358        2.2225798575
 H         -3.0614181276       -2.0597098457        3.0483023060
 H         -2.3464665884       -0.5155294419        2.5856841551
 H         -5.1359909404       -1.6125634667        1.9309456510
 H         -5.2362325448       -1.1945744052        0.2267996450
 H         -4.6126504022       -0.0189173813        1.3936981283
 H         -1.3696517801       -3.3528864548       -0.4597579420
 H          1.3628796288       -3.3719007876       -0.3955247219
 H          2.4387475756        0.1900604344        0.2916680460
 H          3.2258116625       -2.7195190600        0.7881696835
 H          5.2240049844       -1.3183843102        0.4563996405
 H          5.0419687300       -1.7236314708        2.1567200964
 H          4.5930646395       -0.1165495169        1.5931904317
 H          2.9154838856       -2.0724488846        3.1987818064
 H          1.3999532164       -2.0299168375        2.3060826908
 H          2.2423668528       -0.5274259355        2.6752864705
 H          3.8066356596       -1.8162910532       -1.4295824062
 H          1.4582509455       -0.2018892664       -2.5162422253
 H          1.6176790515       -1.9621821533       -2.5590195743
 H          2.7067987142       -0.9564316210       -3.5049409697
 H          4.5702966069        0.2423979599       -2.5483730984
 H          4.7230540789        0.4741249480       -0.8095058473
 H          3.3693992579        1.1952929796       -1.6771526739
  58
        -82.02301498
 C         -4.8676634216       -0.4780117179       -0.8246848416
 C         -3.4632220755       -1.0284958725       -1.0616788129
 C         -2.8730959351       -0.3988544407       -2.3242589658
 C         -2.5459618355       -0.7256490123        0.1383984971
 C         -3.0311163628       -1.2553511835        1.5090946316
 C         -3.3435263428       -2.7498610732        1.5491413943
 C         -2.0054599643       -0.9172386803        2.5912043980
 N         -1.1878361676       -1.1424002736       -0.1363262898
 C         -0.8292418591       -2.4089751359       -0.5012079734
 C          0.5164659812       -2.4138025678       -0.6342163981
 N          0.9484036897       -1.1493342573       -0.3513094170
 C          2.3410577951       -0.7394325681       -0.3848447727
 C          3.1739052601       -1.6198777915        0.5692226852
 C          4.5577328333       -1.0200914821        0.8077313903
 C          2.4581464507       -1.7535157602        1.9159828997
 C          2.8042213045       -0.6406869079       -1.8640125892
 C          3.7095703718        0.5707648071       -2.0873722425
 C          3.4638016628       -1.9001889958       -2.4219973767
 C         -0.0972336788       -0.3480518236       -0.0460052483
 Ni         0.0096413987        1.7459727234        0.2903364039
 C          1.1883839600        1.9825725038        1.6108686659
 O          1.8806261605        2.1515723568        2.5044296055
 C          0.4129563049        2.2621690985       -1.3684223061
 O          0.5696657785        2.5022174314       -2.4743136531
 C         -1.5392523838        2.4923840248        0.8072139318
 O         -2.4307039754        3.1209401318        1.1495011760
 H         -5.3657266849       -0.9888557585       -0.0053871910
 H         -5.4717320820       -0.6094418434       -1.7194240925
 H         -4.8236038199        0.5846975279       -0.5970581946
 H         -3.5321060069       -2.1101687448       -1.2142570886
 H         -3.5407126058       -0.5510540299       -3.1688520204
 H         -1.9085317995       -0.8355069186       -2.5729511936
 H         -2.7349032033        0.6712189333       -2.1824476189
 H         -2.4951681830        0.3675890108        0.2320869570
 H         -3.9510155273       -0.7083932778        1.7362336881
 H         -2.4399484273       -3.3420354240        1.4258690004
 H         -4.0610036914       -3.0324089380        0.7831682687
 H         -3.7722312943       -3.0001437889        2.5172208661
 H         -1.1167400691       -1.5372285901        2.4917013102
 H         -2.4291185717       -1.0889883525        3.5775769008
 H         -1.6977721421        0.1249090156        2.5232968523
 H         -1.5361870104       -3.1959421201       -0.6568861831
 H          1.1774105295       -3.2134943564       -0.8933763091
 H          2.3475417177        0.2810787170        0.0221218621
 H          3.2929283457       -2.6198769890        0.1412738903
 H          5.0876325238       -1.6035181722        1.5576024212
 H          4.4697103121        0.0012511718        1.1708005730
 H          5.1589014875       -1.0170507541       -0.0959812877
 H          1.5274563732       -2.3087226178        1.8258056857
 H          2.2319316478       -0.7712159128        2.3247527981
 H          3.0936978646       -2.2806872067        2.6235196843
 H          1.8904384038       -0.4618755279       -2.4458236960
 H          3.2343272007        1.4762795768       -1.7178715775
 H          3.8982349796        0.6982709515       -3.1510055435
 H          4.6651049219        0.4560333623       -1.5851107590
 H          4.4048902435       -2.1118938628       -1.9221645836
 H          3.6725510416       -1.7547907498       -3.4797835978
 H          2.8155669313       -2.7677633986       -2.3306628559
  58
        -82.02290348
 C         -3.1557328213       -1.7759486578       -2.7642336007
 C         -2.5972288550       -0.5296689311       -2.0812053875
 C         -3.4874964310        0.6787007463       -2.3705270270
 C         -2.3159966527       -0.6890115466       -0.5620410755
 C         -3.2751136841       -1.5754269899        0.2573355595
 C         -2.7454000704       -1.7373531582        1.6844995159
 C         -4.6756402900       -0.9703483868        0.3227123842
 N         -0.9456323819       -1.1394365038       -0.3895531872
 C         -0.5284653385       -2.4222783569       -0.6040559507
 C          0.8040698594       -2.4460828790       -0.3759951194
 N          1.1723379926       -1.1751793755       -0.0361823438
 C          2.5289167326       -0.7785908426        0.2749049431
 C          3.0937547108       -1.6354379103        1.4247212240
 C          4.4788087026       -1.1455827326        1.8411120621
 C          2.1461941162       -1.5684830770        2.6232297862
 C          3.4056658374       -0.6999078320       -0.9973452549
 C          3.7662796978       -2.0471709151       -1.6197068252
 C          2.7258112693        0.1841636983       -2.0421470544
 C          0.0960525863       -0.3557558811       -0.0286455451
 Ni        -0.0189867743        1.7148777968        0.4323839968
 C         -1.3042575655        1.8881581241        1.6643696446
 O         -2.0598509154        2.0391097088        2.5084162806
 C          1.4819297613        2.3606054229        1.1741839112
 O          2.3388042308        2.9101237566        1.6948732341
 C         -0.3026350239        2.3870070993       -1.1932767862
 O         -0.4158056435        2.7480444840       -2.2711051964
 H         -4.1447103842       -2.0256421477       -2.3900552355
 H         -2.5014933330       -2.6331837777       -2.6276870748
 H         -3.2395185759       -1.5912335090       -3.8330811558
 H         -1.6210062859       -0.3134659723       -2.5351519424
 H         -3.5275780216        0.8556350469       -3.4430496983
 H         -3.0861324546        1.5710574647       -1.8964753857
 H         -4.5016577868        0.5276806929       -2.0148389464
 H         -2.3443616486        0.3187494403       -0.1250681207
 H         -3.3443213206       -2.5670162768       -0.2001591834
 H         -2.6082399622       -0.7640982581        2.1498743136
 H         -1.7939779576       -2.2632176152        1.7074697989
 H         -3.4553197533       -2.3045675115        2.2818597965
 H         -4.6299120416        0.0534624483        0.6863935784
 H         -5.2930628187       -1.5474688251        1.0077348669
 H         -5.1640753118       -0.9744374978       -0.6465845873
 H         -1.1901983304       -3.2153524715       -0.8810841459
 H          1.4905413228       -3.2649045933       -0.4127730611
 H          2.4468370599        0.2494675457        0.6518113295
 H          3.1734970523       -2.6794262490        1.1054049190
 H          4.4475382198       -0.0864021059        2.0864924909
 H          5.2119839252       -1.2995226398        1.0542857879
 H          4.8129099830       -1.6888946593        2.7219781458
 H          2.5588299437       -2.1249808461        3.4612473535
 H          1.1721781770       -1.9893800125        2.3850138460
 H          2.0015576327       -0.5355602754        2.9328997447
 H          4.3331980907       -0.2052571451       -0.6943360809
 H          4.4795636515       -1.8897021652       -2.4259880742
 H          2.8893119743       -2.5290386886       -2.0451138585
 H          4.2241480627       -2.7156726647       -0.8951326658
 H          3.4096713547        0.3936211187       -2.8609758375
 H          2.4136103394        1.1298834665       -1.6022051691
 H          1.8452364773       -0.3063961811       -2.4524676054
  58
        -82.02122692
 C         -4.6865187322       -0.7571249677       -1.4136009077
 C         -3.2298021299       -1.2108115886       -1.3987719062
 C         -2.4908745650       -0.5656452719       -2.5725364428
 C         -2.5140543116       -0.8555644602       -0.0769419847
 C         -3.1619337738       -1.4664939214        1.1948475677
 C         -2.1190944740       -1.8608989932        2.2434825823
 C         -4.1153855249       -0.4624202511        1.8444069303
 N         -1.1195479451       -1.2281259858       -0.1891290175
 C         -0.6997832185       -2.4995116109       -0.4621531220
 C          0.6511139534       -2.4675733403       -0.4992110188
 N          1.0245974754       -1.1783339827       -0.2454516266
 C          2.4020899800       -0.7210062236       -0.2270988179
 C          3.2156857384       -1.5224419311        0.8090458407
 C          4.5606537244       -0.8553875543        1.0884561020
 C          2.4353408753       -1.6218646974        2.1223704451
 C          2.9348078048       -0.6748290736       -1.6856708728
 C          3.7816174467        0.5744775437       -1.9283918273
 C          3.6889619801       -1.9226914303       -2.1402457486
 C         -0.0626973587       -0.3991268416       -0.0465351301
 Ni        -0.0547641827        1.6931143913        0.2818319471
 C          0.2716244770        2.1944667297       -1.3942743817
 O          0.4354253661        2.3848347676       -2.5088917490
 C         -1.6124863477        2.3203588979        0.9133821593
 O         -2.5109659963        2.8719192102        1.3549983356
 C          1.1684391398        2.0614858100        1.5335911388
 O          1.8799740049        2.3535426980        2.3791195712
 H         -5.2756943410       -1.2799098281       -0.6657430580
 H         -5.1227652056       -0.9671287970       -2.3878637891
 H         -4.7536325985        0.3139776954       -1.2376309789
 H         -3.2126097610       -2.2993102120       -1.5272276072
 H         -1.4817978739       -0.9575470097       -2.6762210998
 H         -2.4245649916        0.5108179871       -2.4273900424
 H         -3.0223259136       -0.7553458739       -3.5019016513
 H         -2.5179217506        0.2365730959        0.0278565053
 H         -3.7236891899       -2.3630926077        0.9087916866
 H         -1.5142543729       -2.7067682072        1.9251912814
 H         -2.6213597118       -2.1388830101        3.1670412875
 H         -1.4598062834       -1.0200110027        2.4527748316
 H         -4.8441558617       -0.0728698705        1.1421043722
 H         -3.5488276692        0.3734232288        2.2481838035
 H         -4.6518101467       -0.9347802215        2.6644675527
 H         -1.3749657783       -3.3174457030       -0.6046193249
 H          1.3530607452       -3.2553956338       -0.6727129665
 H          2.3529237809        0.3170850295        0.1283636155
 H          3.3955119713       -2.5353698823        0.4364838059
 H          4.4128799772        0.1738280833        1.4073711521
 H          5.2042861170       -0.8588132093        0.2144324101
 H          5.0771857841       -1.3873775544        1.8844520670
 H          3.0495029272       -2.0965521043        2.8838599731
 H          1.5267848689       -2.2087457945        2.0113417705
 H          2.1593557417       -0.6303425326        2.4745989722
 H          2.0448798360       -0.5788442716       -2.3215207863
 H          4.7028264501        0.5524452294       -1.3543618649
 H          3.2268377797        1.4687395790       -1.6539998417
 H          4.0392216352        0.6469579061       -2.9826707912
 H          3.9398734146       -1.8237769089       -3.1942383285
 H          3.0853513638       -2.8196178194       -2.0281037981
 H          4.6150178744       -2.0527064726       -1.5874397104
  58
        -82.02114531
 C         -3.3481011072       -1.9323737148       -2.6221164393
 C         -2.6556949713       -0.6884016854       -2.0693050506
 C         -3.4409437037        0.5674496926       -2.4473666407
 C         -2.3502903644       -0.7254422210       -0.5464230545
 C         -3.3173089986       -1.5142419531        0.3594016778
 C         -2.7408573046       -1.6200241809        1.7736406110
 C         -4.6801216824       -0.8295086551        0.4355807541
 N         -0.9886770467       -1.1895416095       -0.3536101870
 C         -0.5879351346       -2.4818818614       -0.5415561494
 C          0.7425558293       -2.5187606293       -0.3048627279
 N          1.1228319116       -1.2477398021        0.0220252869
 C          2.4850243154       -0.8715726844        0.3313223102
 C          3.0091797754       -1.7463735655        1.4897057046
 C          4.3849724925       -1.2905675667        1.9679488232
 C          2.0277989886       -1.6989820829        2.6619828614
 C          3.3877298216       -0.8795871070       -0.9334682272
 C          2.5840518597       -0.9036010530       -2.2346644556
 C          4.2695518712        0.3696633807       -0.9497723044
 C          0.0603344185       -0.4133186151        0.0003644091
 Ni         0.0167656840        1.6825330574        0.3206971646
 C         -1.3788972586        2.0557420201        1.3761268067
 O         -2.2104705161        2.3502437076        2.1026676193
 C          1.4724657455        2.2819717207        1.1828249394
 O          2.3096025662        2.8009918426        1.7629020309
 C         -0.0564685316        2.2094909429       -1.3769191888
 O         -0.0558560570        2.4369489994       -2.4969725210
 H         -2.7803557232       -2.8348848562       -2.4110909488
 H         -3.4341241926       -1.8421304666       -3.7028824395
 H         -4.3492459809       -2.0455058381       -2.2158797252
 H         -1.6788442050       -0.6091454843       -2.5641639687
 H         -2.9226781798        1.4584946278       -2.1006874894
 H         -4.4379619486        0.5615136631       -2.0176850522
 H         -3.5369144051        0.6316247939       -3.5289196785
 H         -2.3487116920        0.3151121636       -0.1947145696
 H         -3.4530479374       -2.5259662124       -0.0344222177
 H         -1.8406236144       -2.2294517532        1.7992843534
 H         -3.4710010462       -2.0743893552        2.4390723637
 H         -2.4948322888       -0.6326060446        2.1580471607
 H         -5.3176780112       -1.3551399967        1.1431394504
 H         -5.1845692278       -0.8233872616       -0.5255069123
 H         -4.5683982779        0.1973502177        0.7760124836
 H         -1.2603234457       -3.2678627218       -0.8130524725
 H          1.4285854221       -3.3391065225       -0.3452501224
 H          2.4227709159        0.1623694696        0.6909847678
 H          3.0953599483       -2.7824388522        1.1421082011
 H          4.3516750783       -0.2504151673        2.2838761071
 H          5.1356226824       -1.4013499316        1.1907637348
 H          4.6941543267       -1.8929538348        2.8193512270
 H          1.0664317956       -2.1338364294        2.3994412320
 H          1.8609316396       -0.6691712967        2.9708116263
 H          2.4272193103       -2.2518489534        3.5087154913
 H          4.0245422839       -1.7710237541       -0.9067717098
 H          3.2605846442       -0.7913614333       -3.0786675084
 H          1.8754792966       -0.0774463399       -2.2547511535
 H          2.0382372523       -1.8351369821       -2.3647140394
 H          4.8432127220        0.4753598254       -0.0346944447
 H          3.6465541238        1.2542352414       -1.0679949368
 H          4.9647621214        0.3286755721       -1.7853244029
  58
        -82.02097531
 C         -4.5130426690       -0.5510814153       -1.9530014847
 C         -3.0773693717       -1.0618279769       -1.8669590284
 C         -2.2449100387       -0.3929563288       -2.9614068312
 C         -2.4516715986       -0.8053480269       -0.4776663731
 C         -3.2109008652       -1.5079629902        0.6826181361
 C         -2.2724021468       -2.0850692031        1.7441951115
 C         -4.1529993651       -0.5192644830        1.3706376066
 N         -1.0535810022       -1.1820028801       -0.5088981689
 C         -0.6155315393       -2.4272024543       -0.8621134028
 C          0.7331442536       -2.4068454817       -0.7764714728
 N          1.0867416422       -1.1496650230       -0.3755061735
 C          2.4583700906       -0.7341769095       -0.1609976972
 C          3.0495145387       -1.4584269593        1.0675509108
 C          4.3021590305       -0.7397219493        1.5640029331
 C          2.0190207813       -1.4919571482        2.1985810435
 C          3.2415158043       -0.8328470301       -1.4986914308
 C          4.0494151211        0.4416768607       -1.7456051196
 C          4.1407459371       -2.0596815953       -1.6461960885
 C         -0.0099196790       -0.3781178686       -0.2034273407
 Ni        -0.1389477614        1.6364653893        0.4656629537
 C         -0.9080896657        1.5027029681        2.0665756706
 O         -1.3237257037        1.4399112204        3.1292340801
 C          1.4619202296        2.4248452687        0.6531568636
 O          2.3855577256        3.0781431916        0.8181365566
 C         -1.0375430378        2.5059384602       -0.8092774292
 O         -1.5533068773        3.1078903000       -1.6319998511
 H         -5.1712923216       -1.0884664621       -1.2766026832
 H         -4.8889792320       -0.6894497072       -2.9644284020
 H         -4.5530874974        0.5105043784       -1.7200049416
 H         -3.0897480539       -2.1428430197       -2.0493342994
 H         -1.2262437367       -0.7724974969       -2.9831226704
 H         -2.2056601790        0.6814794838       -2.8011716051
 H         -2.6932697989       -0.5764601815       -3.9349974639
 H         -2.4598645643        0.2760772801       -0.2850260472
 H         -3.8010486177       -2.3323256272        0.2661471018
 H         -2.8584617051       -2.4427030445        2.5875706126
 H         -1.5890876793       -1.3192354089        2.1054802600
 H         -1.6885790056       -2.9206407206        1.3651526036
 H         -4.8232196720       -0.0377841189        0.6662883865
 H         -3.5750257610        0.2527982423        1.8728764224
 H         -4.7547814469       -1.0328669398        2.1171957816
 H         -1.2771549413       -3.2201420898       -1.1426347681
 H          1.4484624630       -3.1792482609       -0.9637655972
 H          2.3903729934        0.3281920586        0.1028812791
 H          3.3083158623       -2.4882243530        0.8045975794
 H          4.6954499879       -1.2450470171        2.4433231399
 H          4.0617562750        0.2847970425        1.8393141230
 H          5.0845749676       -0.7197804962        0.8117826600
 H          2.4858189125       -1.8362242778        3.1181537520
 H          1.1928080717       -2.1615926419        1.9709889851
 H          1.6148553099       -0.4946992237        2.3694196047
 H          2.4835830963       -0.8866943475       -2.2906270636
 H          4.8098824386        0.5821717620       -0.9828014203
 H          3.3959725088        1.3109941822       -1.7449279376
 H          4.5426519326        0.3898786545       -2.7136938781
 H          4.9673589414       -2.0357273805       -0.9422146681
 H          4.5578398117       -2.0756966845       -2.6510093430
 H          3.5909466742       -2.9863279495       -1.5027828420
  58
        -82.02021865
 C         -2.3891307155       -0.0116928286       -2.4140014352
 C         -3.2498008093       -0.6449937663       -1.3207109594
 C         -3.8000302159       -1.9783056441       -1.8257653574
 C         -2.4625664961       -0.7111455149        0.0124141200
 C         -3.1723728536       -1.4570059022        1.1597243262
 C         -2.3015936281       -1.4273628045        2.4158148311
 C         -4.5240407731       -0.8154346508        1.4656458478
 N         -1.1238676401       -1.2260643150       -0.1836752186
 C         -0.8586781892       -2.5360446037       -0.4623767048
 C          0.4806777165       -2.6399884667       -0.5958437982
 N          1.0065325574       -1.3956456179       -0.3888995299
 C          2.4446422480       -1.1946045422       -0.4652068202
 C          2.8689825370       -0.3868041135       -1.7233661840
 C          4.0623610032       -1.0618101539       -2.4015711858
 C          1.7453336660       -0.2423217987       -2.7494816887
 C          2.9693785795       -0.6207544470        0.8672275899
 C          2.5411262018       -1.5188552984        2.0282221899
 C          4.4869913261       -0.4724556395        0.8791835884
 C          0.0202261709       -0.5012731347       -0.1272497419
 Ni         0.1102486037        1.5715057541        0.4400477658
 C          0.2579102937        1.3778507955        2.2057513718
 O          0.3319430845        1.1744538278        3.3273341804
 C          1.4546639638        2.4154548730       -0.3930633717
 O          2.1916351660        3.1257881807       -0.8996851800
 C         -1.3421105199        2.5187290106       -0.0358361628
 O         -2.1520716892        3.2911782406       -0.2688539045
 H         -1.9151267440        0.9005569971       -2.0578358566
 H         -3.0021114564        0.2338296215       -3.2777497320
 H         -1.6073177255       -0.6961034725       -2.7371520063
 H         -4.0984869705        0.0202729010       -1.1338952559
 H         -2.9974647618       -2.6447353822       -2.1314426248
 H         -4.4250732834       -1.7963760927       -2.6976373456
 H         -4.4102343790       -2.4764296672       -1.0773994218
 H         -2.3251211502        0.3270589300        0.3457599215
 H         -3.3336543132       -2.5024320187        0.8787535230
 H         -1.3562208877       -1.9416003279        2.2579305485
 H         -2.8158427247       -1.9138160170        3.2411905565
 H         -2.0888401207       -0.3996152113        2.7017761259
 H         -4.3969159200        0.2410762312        1.6911352711
 H         -4.9739294732       -1.2960311849        2.3313433432
 H         -5.2133931444       -0.9113391487        0.6316418649
 H         -1.6167298944       -3.2869538994       -0.5234492027
 H          1.0887998328       -3.4942328406       -0.8137308259
 H          2.8650404161       -2.2029300788       -0.5701701690
 H          3.1634349414        0.6169387127       -1.4082331329
 H          3.7674027682       -2.0282412538       -2.8074003557
 H          4.8855937721       -1.2157447829       -1.7108608678
 H          4.4200935233       -0.4459329030       -3.2234165577
 H          2.1240226126        0.2743701430       -3.6282582846
 H          0.9190986236        0.3402963728       -2.3475002175
 H          1.3728807102       -1.2169376350       -3.0614435657
 H          2.5188082675        0.3683249944        1.0079389921
 H          2.9131899884       -1.1156524947        2.9666400046
 H          2.9420207558       -2.5241782522        1.9054253735
 H          1.4579526772       -1.5825233377        2.0999803717
 H          4.9693728465       -1.4345660399        0.7145969654
 H          4.8057266616       -0.0973059683        1.8490549497
 H          4.8285550288        0.2283877239        0.1232888945
  58
        -82.01987133
 C         -2.4077497408       -0.1593134366       -2.6374466371
 C         -3.2856828250       -0.6626656884       -1.4908277671
 C         -3.9321811089       -1.9901027940       -1.8821945028
 C         -2.4880677570       -0.6317567748       -0.1613864199
 C         -3.2096705770       -1.2552157891        1.0597989399
 C         -2.9952816919       -2.7537342064        1.2670142725
 C         -2.7717912645       -0.5246204999        2.3298092124
 N         -1.1215483957       -1.0830183581       -0.3085188500
 C         -0.7424783981       -2.3304584554       -0.7162789291
 C          0.6087642581       -2.3469819958       -0.7377595220
 N          1.0282783939       -1.1088828003       -0.3411102249
 C          2.4210955998       -0.7360410538       -0.2138384834
 C          3.0726046235       -1.3776218624        1.0348242586
 C          2.2574844038       -1.0332658474        2.2802062829
 C          3.2794236285       -2.8888216541        0.9570843473
 C          3.1680858603       -0.9708516349       -1.5422151186
 C          2.4359272229       -0.2611659613       -2.6818303985
 C          4.6034768376       -0.4559525872       -1.4615534820
 C         -0.0315763012       -0.3052807776       -0.0923222756
 Ni         0.0008083086        1.7765452449        0.4181295813
 C         -0.1009131999        1.7778972184        2.1957420212
 O         -0.1657802922        1.7909289058        3.3357706307
 C          1.4853559062        2.5412500009       -0.2297056982
 O          2.3505785990        3.1668887297       -0.6388853191
 C         -1.3681688205        2.6335606386       -0.3591509128
 O         -2.1599738190        3.3189700035       -0.8167805209
 H         -3.0184640581        0.0598290746       -3.5097027813
 H         -1.6715929673       -0.9096549488       -2.9197565608
 H         -1.8771866881        0.7468165575       -2.3521451996
 H         -4.1011136411        0.0561972932       -1.3477955682
 H         -4.6081966639       -2.3467792634       -1.1103611958
 H         -3.1916698141       -2.7565488741       -2.0937683057
 H         -4.5146621448       -1.8410164730       -2.7894711882
 H         -2.3858990348        0.4370244174        0.0771243303
 H         -4.2796786816       -1.0737917634        0.9118498657
 H         -1.9532517624       -2.9660510317        1.4960260777
 H         -3.2940894221       -3.3393981745        0.4035799675
 H         -3.5944442481       -3.0828434926        2.1137461371
 H         -3.0088305993        0.5351990595        2.2722675482
 H         -1.6975720320       -0.6277412181        2.4709110997
 H         -3.2733029824       -0.9390619943        3.2011458366
 H         -1.4334269731       -3.1065373569       -0.9621894154
 H          1.2782354192       -3.1305226649       -1.0220450541
 H          2.4158409231        0.3463883109       -0.0286184717
 H          4.0536230115       -0.9050637103        1.1392329622
 H          1.2896734517       -1.5306078719        2.2616356915
 H          2.0885352642        0.0397968054        2.3411956790
 H          2.7850615424       -1.3509585343        3.1762370265
 H          3.8265725856       -3.1748266486        0.0624201064
 H          2.3286791413       -3.4160720431        0.9780240954
 H          3.8567863652       -3.2157710367        1.8193534748
 H          3.1945017018       -2.0420740198       -1.7661740112
 H          2.9703373507       -0.4049601565       -3.6178900236
 H          2.3717476250        0.8063271024       -2.4842507281
 H          1.4256315422       -0.6432199390       -2.8072133673
 H          5.0757613779       -0.5267135725       -2.4386361201
 H          5.1984930570       -1.0335616397       -0.7595681520
 H          4.6149053397        0.5871552811       -1.1535196020
  58
        -82.01974863
 C         -3.9099519317        0.2864166311       -1.7585558257
 C         -3.1249401934       -0.9871962437       -1.4415619110
 C         -2.1463190407       -1.2370680948       -2.5903565477
 C         -2.4214627214       -0.8470801612       -0.0620635227
 C         -3.1802447377       -1.5424883166        1.0899098500
 C         -2.3849684992       -1.4450005185        2.3925791759
 C         -4.5645908321       -0.9359035991        1.3032780384
 N         -1.0573707381       -1.3305651454       -0.1002833981
 C         -0.7450598454       -2.6554259891       -0.2158693939
 C          0.6024676481       -2.7347344167       -0.2340003580
 N          1.0835307390       -1.4595364823       -0.1314538087
 C          2.5148963804       -1.2092936538       -0.1545500673
 C          2.8484233315       -0.2676841095       -1.3315239762
 C          4.3401339689        0.0251180865       -1.4475770755
 C          2.3504125686       -0.8779268271       -2.6422649506
 C          3.0617937866       -0.7486693850        1.2247072079
 C          2.0705845446       -0.9797774704        2.3653973824
 C          4.3596720579       -1.4903069411        1.5479258916
 C          0.0625752667       -0.5722372626       -0.0399590091
 Ni         0.0246473770        1.5602027512        0.1667388294
 C         -0.3510415640        2.0562161497       -1.5018511066
 O         -0.5457786465        2.3248825362       -2.5954947479
 C         -1.1592849568        2.0006920741        1.4386660568
 O         -1.8221051195        2.4056304865        2.2774166904
 C          1.5694477937        2.2714377379        0.7453873332
 O          2.4185287944        2.9302379421        1.1322380926
 H         -3.2224486320        1.1191132591       -1.8905549433
 H         -4.6060430839        0.5426142557       -0.9664525886
 H         -4.4735173538        0.1609491003       -2.6804461872
 H         -3.8197103138       -1.8336401733       -1.3966109269
 H         -1.3839140970       -0.4611285909       -2.6143245326
 H         -2.6851983562       -1.2114326236       -3.5346511502
 H         -1.6566572064       -2.2048624248       -2.5111540328
 H         -2.3482818623        0.2233704046        0.1694780883
 H         -3.3087871865       -2.6017331060        0.8378903489
 H         -1.4244747200       -1.9489715241        2.3183454151
 H         -2.9434999918       -1.9037866669        3.2049962916
 H         -2.2046167210       -0.4036737779        2.6480709663
 H         -4.4856333712        0.1304298539        1.5024509342
 H         -5.0414303569       -1.4056047966        2.1608107139
 H         -5.2059740847       -1.0888592906        0.4401868896
 H         -1.4853296944       -3.4254672281       -0.2751856906
 H          1.2447346714       -3.5877844804       -0.3157727093
 H          2.9712549709       -2.1824661766       -0.3760860539
 H          2.3148261113        0.6754540230       -1.1662497354
 H          4.5160396537        0.6694771084       -2.3060051881
 H          4.9024971409       -0.8951664632       -1.5960934912
 H          4.7203913694        0.5337746316       -0.5667587837
 H          2.8383184474       -1.8331454901       -2.8315777134
 H          2.5746127732       -0.2109732127       -3.4708607544
 H          1.2747821388       -1.0354457922       -2.6225491317
 H          3.2690722459        0.3226707601        1.1776173254
 H          1.1814939859       -0.3635147445        2.2425307860
 H          2.5378482172       -0.7091716803        3.3093151048
 H          1.7720433340       -2.0255460537        2.4200157590
 H          4.1608365514       -2.5510199062        1.6928997892
 H          4.7923377806       -1.0996896105        2.4660134366
 H          5.0938328607       -1.3830045357        0.7555101480
  58
        -82.01959550
 C         -2.5308229179       -0.1759420082       -2.2202213517
 C         -3.2536810720       -0.8441289311       -1.0501900470
 C         -3.6960318618       -2.2463103699       -1.4667877538
 C         -2.3805173967       -0.7743038267        0.2277491256
 C         -2.9267291453       -1.5408797960        1.4479956190
 C         -1.9814580042       -1.3596653635        2.6359941732
 C         -4.3176431961       -1.0360136188        1.8250090168
 N         -1.0107706438       -1.1537235306       -0.0435276556
 C         -0.6105670732       -2.4316937666       -0.3092426502
 C          0.7216049823       -2.3878696685       -0.5348361881
 N          1.1107033096       -1.0864039575       -0.3878698583
 C          2.4536994452       -0.5848225139       -0.5823594875
 C          3.4616118977       -1.0528715178        0.4970895863
 C          3.2771522911       -0.2079767947        1.7583708322
 C          3.3917305621       -2.5265543440        0.8944610988
 C          2.9400754874       -0.7245977289       -2.0477842313
 C          3.4937477752       -2.0853075997       -2.4644914074
 C          1.8232192956       -0.3071286305       -3.0054373287
 C          0.0420769815       -0.3063313833       -0.0887950072
 Ni         0.0226858557        1.7882144289        0.3682058477
 C          1.2458746980        2.6489583188       -0.6168862130
 O          1.9455358433        3.3139005015       -1.2289788321
 C         -1.5504489738        2.5631955861       -0.0097470308
 O         -2.4692666705        3.2137200307       -0.2072661876
 C          0.3271919286        1.7371734014        2.1209600813
 O          0.4767292147        1.6610794830        3.2508414331
 H         -1.7109345575       -0.7970805544       -2.5753335033
 H         -2.1198738045        0.7878577908       -1.9271687862
 H         -3.2197050584       -0.0204528043       -3.0468018800
 H         -4.1520434322       -0.2587075460       -0.8313118104
 H         -2.8505352121       -2.8438944590       -1.7980448927
 H         -4.3883685192       -2.1663249847       -2.3023693433
 H         -4.2054411783       -2.7680186252       -0.6612545094
 H         -2.3311109510        0.2858029649        0.5138170908
 H         -2.9884994944       -2.6090608998        1.2171361312
 H         -1.8606112166       -0.3023930867        2.8625162167
 H         -0.9990444118       -1.7791374648        2.4312915411
 H         -2.3837276416       -1.8558875755        3.5159178073
 H         -4.2924136895        0.0363729456        2.0053943300
 H         -4.6549898867       -1.5261601503        2.7353789303
 H         -5.0450226696       -1.2388838716        1.0441473442
 H         -1.2762621123       -3.2683726412       -0.3007195563
 H          1.3918572278       -3.1807725442       -0.7839031434
 H          2.3511999367        0.4990055689       -0.4288142050
 H          4.4589343643       -0.8504089194        0.0914618241
 H          3.9949907987       -0.4994994619        2.5214291826
 H          2.2753909872       -0.3484101302        2.1593786489
 H          3.4159878162        0.8496210967        1.5461231580
 H          4.1879622793       -2.7374407234        1.6057705229
 H          3.5216406415       -3.1929358865        0.0476339765
 H          2.4451980871       -2.7498448968        1.3817745826
 H          3.7588613136       -0.0021275412       -2.1456261655
 H          2.7309911593       -2.8585848684       -2.4332091935
 H          4.3328737200       -2.3810306741       -1.8412961618
 H          3.8504082494       -2.0196341917       -3.4906967103
 H          1.3609255940        0.6234051540       -2.6822886506
 H          1.0503894690       -1.0719123635       -3.0538737029
 H          2.2204335003       -0.1647052979       -4.0072821648
  58
        -82.01959494
 C         -4.1374435230       -2.0324547470       -1.0815481250
 C         -3.3917801757       -0.7110477929       -0.9074701150
 C         -4.4130148150        0.4234288862       -0.8055191765
 C         -2.4110917652       -0.6254788464        0.2891576563
 C         -2.9253126941       -1.1947272336        1.6347235051
 C         -2.6807881504       -2.6839689288        1.8726979911
 C         -2.2979659648       -0.4081346952        2.7863834682
 N         -1.0879649316       -1.1041738124       -0.0628486875
 C         -0.7797195240       -2.3796581866       -0.4439612367
 C          0.5545224920       -2.4188896421       -0.6578329074
 N          1.0344979722       -1.1648459735       -0.4085438967
 C          2.4347785396       -0.8059596299       -0.4689942908
 C          3.1975718921       -1.3248981188        0.7734120479
 C          2.4763248196       -0.8811754215        2.0462657081
 C          3.4196020373       -2.8353226074        0.8067694844
 C          3.0414060375       -1.1813873831       -1.8340436305
 C          2.2007515293       -0.5644048061       -2.9526186325
 C          4.4813582654       -0.6850109365       -1.9439183541
 C          0.0276255865       -0.3326495140       -0.0597165540
 Ni         0.0891309560        1.7913291009        0.1227996394
 C          1.7012407149        2.5000082458       -0.2217355365
 O          2.6370039347        3.1246396839       -0.4262838739
 C         -1.0183868630        2.2584961207       -1.1970331832
 O         -1.6511107059        2.5111653520       -2.1142389766
 C         -0.3096959982        2.2111985784        1.8111180528
 O         -0.4409895045        2.5579879860        2.8911646910
 H         -4.7849631179       -1.9613882583       -1.9533210627
 H         -4.7633278174       -2.2454975217       -0.2190064171
 H         -3.4625395806       -2.8670450750       -1.2469967961
 H         -2.7898303888       -0.5392416029       -1.8085915324
 H         -3.9187725562        1.3908235014       -0.7690995721
 H         -5.0226507572        0.3161153733        0.0888283655
 H         -5.0730876331        0.4129531014       -1.6693907138
 H         -2.2619284610        0.4512978430        0.4626020829
 H         -4.0053502454       -1.0192190318        1.6544237362
 H         -3.1213847957       -3.3041397322        1.0987521462
 H         -3.1337058222       -2.9682648918        2.8206477743
 H         -1.6161255367       -2.8973498191        1.9375931105
 H         -2.5902302351        0.6381380047        2.7446113581
 H         -1.2119681716       -0.4643388738        2.7365550454
 H         -2.6187010520       -0.8116707212        3.7439801506
 H         -1.5029234868       -3.1582742720       -0.5460789974
 H          1.1718675961       -3.2295828311       -0.9820040664
 H          2.4541513725        0.2896460611       -0.4005859770
 H          4.1758011793       -0.8355868437        0.7553021829
 H          1.5558549271       -1.4446499774        2.1863946111
 H          2.2220587084        0.1765731574        1.9978217194
 H          3.1089580740       -1.0457741655        2.9149657622
 H          4.0390727410       -3.0881718891        1.6646257876
 H          3.9280446043       -3.1864503757       -0.0874969403
 H          2.4768208786       -3.3670879725        0.9114261797
 H          3.0371916543       -2.2689234158       -1.9576446187
 H          1.1881481532       -0.9610961444       -2.9545045356
 H          2.6486107993       -0.7753622510       -3.9207130676
 H          2.1414133966        0.5150628394       -2.8283857325
 H          5.1361799012       -1.1961283302       -1.2436427187
 H          4.5290973446        0.3840307781       -1.7489677167
 H          4.8581648598       -0.8645657255       -2.9481598108
  58
        -82.01945385
 C         -2.4139506057       -0.3373840658       -2.2608207197
 C         -3.1888549545       -0.9179878542       -1.0774582944
 C         -3.5862946794       -2.3583949820       -1.3971891287
 C         -2.3860149726       -0.7322482685        0.2353088867
 C         -3.0072149425       -1.3892275967        1.4829913779
 C         -2.1439192143       -1.0942431694        2.7093006460
 C         -4.4217358963       -0.8665676025        1.7243740149
 N         -1.0079697619       -1.1412062773        0.0644208342
 C         -0.6056983256       -2.4423571983       -0.0322008309
 C          0.7265908760       -2.4260202160       -0.2594655216
 N          1.1121966421       -1.1156217394       -0.2960588334
 C          2.4568425279       -0.6452686173       -0.5491849846
 C          3.4930761706       -1.1236738617        0.4973765610
 C          2.9348139234       -0.9122997133        1.9042764101
 C          4.0243790848       -2.5484480958        0.3552382195
 C          2.8852225358       -0.8234743689       -2.0293741999
 C          2.4715707945       -2.1409314503       -2.6835927365
 C          2.3202198503        0.3318641704       -2.8580434295
 C          0.0462836443       -0.3051168909       -0.0806301219
 Ni         0.0373801609        1.7950809438        0.3367973728
 C          1.3949286447        2.6766737806       -0.4298073592
 O          2.1643810796        3.4007288456       -0.8652899498
 C         -1.4478369508        2.5881504941       -0.2755824718
 O         -2.3169694819        3.2353004386       -0.6387921331
 C          0.1621548386        1.7213712145        2.1101569487
 O          0.2616163650        1.6281967845        3.2444929918
 H         -1.5661246572       -0.9700529298       -2.5169465239
 H         -2.0370336326        0.6568467901       -2.0317273197
 H         -3.0592660123       -0.2689557015       -3.1331857314
 H         -4.1048364587       -0.3319470079       -0.9561013877
 H         -2.7124135168       -2.9671094903       -1.6160622368
 H         -4.2212578327       -2.3645861156       -2.2807352447
 H         -4.1428300872       -2.8164683587       -0.5841898836
 H         -2.3441451682        0.3491276328        0.4283798995
 H         -3.0515399286       -2.4741681786        1.3461260785
 H         -2.0869262072       -0.0212903268        2.8779505980
 H         -1.1325363655       -1.4750355853        2.5870093729
 H         -2.5755172918       -1.5574589141        3.5934003824
 H         -5.1015320483       -1.1598780261        0.9294757498
 H         -4.4155043932        0.2190100262        1.7929027241
 H         -4.8070333269       -1.2639504260        2.6605728026
 H         -1.2692916749       -3.2724487560        0.0857640640
 H          1.3996986487       -3.2439397511       -0.3918371069
 H          2.3903331007        0.4400971349       -0.3860013117
 H          4.3496638767       -0.4510440085        0.3694662657
 H          2.5421266143        0.0968421740        2.0111460293
 H          3.7151800074       -1.0584198856        2.6468714414
 H          2.1313069635       -1.6160638686        2.1129914446
 H          4.8251697503       -2.6967877600        1.0773117347
 H          4.4357839410       -2.7231323830       -0.6348088727
 H          3.2586353477       -3.2903566948        0.5640165638
 H          3.9784189123       -0.7585770476       -2.0488754957
 H          1.3887655017       -2.2134475293       -2.7571452665
 H          2.8479859333       -3.0062487894       -2.1469333329
 H          2.8761697499       -2.1769428299       -3.6931591766
 H          2.7679991045        1.2766453153       -2.5614834444
 H          1.2425381610        0.4053928886       -2.7206711832
 H          2.5236242791        0.1796777080       -3.9153480919
  58
        -82.01928658
 C         -4.0893541923        0.2897099083       -1.7189767455
 C         -3.1450826506       -0.9000987842       -1.5389017053
 C         -2.1549412034       -0.8891674248       -2.7061326150
 C         -2.4335422939       -0.8397959283       -0.1596001176
 C         -3.1494670528       -1.6510015161        0.9460750277
 C         -2.3664209170       -1.5693239251        2.2567695434
 C         -4.5783060455       -1.1762938894        1.1950141893
 N         -1.0630164379       -1.3037830321       -0.2554183891
 C         -0.7486579175       -2.6081047731       -0.5139239025
 C          0.5981669178       -2.6936043601       -0.4904192368
 N          1.0776981291       -1.4428674499       -0.2186674786
 C          2.5077474089       -1.2192254867       -0.0857082714
 C          3.1001086327       -0.4092808195       -1.2720827140
 C          4.3967690928       -1.0605764474       -1.7553178659
 C          2.1391874748       -0.2966846903       -2.4553597933
 C          2.8094041543       -0.6335672412        1.3103844284
 C          2.2557065813       -1.5582114242        2.3949960230
 C          4.3005847233       -0.4185260067        1.5446144639
 C          0.0557847374       -0.5625052171       -0.0781380207
 Ni         0.0261863056        1.5461011102        0.2801448638
 C         -0.4217938863        1.6098911353        2.0030165326
 O         -0.6462284977        1.6072263383        3.1232825707
 C          1.5944909218        2.3702977158       -0.0077322715
 O          2.4623222476        3.0984427980       -0.1546252059
 C         -1.0542798199        2.3244606526       -0.9177042731
 O         -1.5893243408        2.9766346096       -1.6893955455
 H         -3.5161455355        1.2083774024       -1.8087505639
 H         -4.7780495502        0.3999842536       -0.8890275746
 H         -4.6715715010        0.1656014687       -2.6295747996
 H         -3.7278596705       -1.8272339799       -1.5904401862
 H         -1.5678601955       -1.8027351891       -2.7585953784
 H         -1.4735219205       -0.0453535408       -2.6156819503
 H         -2.6997133029       -0.7876830252       -3.6418130845
 H         -2.3753703609        0.2098317738        0.1594268529
 H         -3.1933381009       -2.7005179139        0.6326148480
 H         -2.2999221682       -0.5370388127        2.5908437056
 H         -1.3578307429       -1.9611452518        2.1490450301
 H         -2.8690687034       -2.1466245769        3.0291804413
 H         -4.9990052618       -1.7211550945        2.0375815385
 H         -5.2155432577       -1.3542168549        0.3337979784
 H         -4.5914633122       -0.1165251820        1.4387426355
 H         -1.4862811264       -3.3616321489       -0.6940662940
 H          1.2408468406       -3.5371117091       -0.6398843005
 H          2.9561472697       -2.2203129042       -0.1211924616
 H          3.3209763969        0.6033778774       -0.9271651317
 H          5.1090345114       -1.1897520088       -0.9462193811
 H          4.8609984631       -0.4422717648       -2.5200836325
 H          4.1881266853       -2.0365060814       -2.1908007029
 H          2.6360344711        0.2147157547       -3.2764362441
 H          1.2559282192        0.2799271946       -2.1862893682
 H          1.8266647209       -1.2795906619       -2.8038607771
 H          2.2957375047        0.3313523611        1.3882994534
 H          2.7056021171       -2.5476978952        2.3253017505
 H          1.1762053963       -1.6592911191        2.3133935208
 H          2.4773435816       -1.1511706772        3.3782177191
 H          4.8428702810       -1.3586091938        1.4583012479
 H          4.4567513900       -0.0303887763        2.5485786074
 H          4.7193494664        0.2966818196        0.8429721540
  58
        -82.01921908
 C         -3.9705434301       -2.1665700358       -1.7628731062
 C         -3.1067027045       -0.9216808990       -1.5676966779
 C         -3.8963976555        0.3334073898       -1.9399481482
 C         -2.4655672025       -0.7679899425       -0.1608754775
 C         -3.1773957198       -1.4471270610        1.0277075858
 C         -2.2669473066       -1.4382059148        2.2582166341
 C         -4.4742949279       -0.7158471588        1.3676612851
 N         -1.0785993570       -1.1847109621       -0.2231397601
 C         -0.6802481250       -2.4658881437       -0.4784782389
 C          0.6717860347       -2.4628106368       -0.4839468347
 N          1.0662746665       -1.1800289161       -0.2302356165
 C          2.4514560844       -0.7522625527       -0.1877249477
 C          3.2096779153       -1.4981715501        0.9292726849
 C          4.5272419847       -0.7967252164        1.2520060725
 C          2.3550032037       -1.5508861112        2.1981774119
 C          3.0422406479       -0.8110941522       -1.6236135769
 C          3.8524204555        0.4481723542       -1.9316097332
 C          3.8626435422       -2.0597877105       -1.9413413746
 C         -0.0075806372       -0.3773972682       -0.0585996306
 Ni         0.0059269901        1.7176213505        0.2729208284
 C          0.1423998293        2.2040857108       -1.4325692080
 O          0.2163306018        2.3657584518       -2.5612913658
 C         -1.4799663446        2.2682636750        1.1136453837
 O         -2.3457858811        2.7308172430        1.6995150082
 C          1.3649611248        2.1606347992        1.3521235587
 O          2.1587005834        2.5309932681        2.0865079273
 H         -4.2877480383       -2.2198976860       -2.8022519212
 H         -4.8619101073       -2.1353954359       -1.1430418769
 H         -3.4224855602       -3.0781227711       -1.5383630185
 H         -2.2700728559       -0.9908901821       -2.2747600534
 H         -3.2567738234        1.2117547956       -1.8874977903
 H         -4.7409562094        0.4826861362       -1.2733465359
 H         -4.2744072693        0.2493672001       -2.9563756118
 H         -2.4252554052        0.3061450821        0.0605164159
 H         -3.4098641490       -2.4866494792        0.7784953320
 H         -1.4190514673       -2.1083498043        2.1365430083
 H         -2.8240265775       -1.7591329766        3.1350116050
 H         -1.8844376926       -0.4355408960        2.4410719784
 H         -4.9530573387       -1.1884636591        2.2224574895
 H         -5.1768482606       -0.7308666979        0.5401983171
 H         -4.2654938443        0.3201518910        1.6245330582
 H         -1.3696636678       -3.2693215785       -0.6296855199
 H          1.3627163529       -3.2641544765       -0.6393086435
 H          2.4107621349        0.3064710081        0.1000011679
 H          3.4224834760       -2.5239762141        0.6141077286
 H          5.0260482142       -1.3064908760        2.0733791245
 H          4.3424764795        0.2321849370        1.5521998262
 H          5.2027713452       -0.7927662155        0.4022889371
 H          2.9418553945       -1.9435222053        3.0250122855
 H          1.4846056593       -2.1905222136        2.0722746760
 H          2.0089337616       -0.5543935202        2.4652061426
 H          2.1795451746       -0.8050383349       -2.3023415046
 H          3.2430555818        1.3364705657       -1.7804932463
 H          4.1807246924        0.4351186386       -2.9684870312
 H          4.7307349178        0.5220363761       -1.2971407999
 H          4.1470025540       -2.0414378471       -2.9913419035
 H          3.2934552601       -2.9698740360       -1.7699740269
 H          4.7727097322       -2.1008605555       -1.3497535661
  58
        -82.01910307
 C         -2.6766896276        0.0069937873       -2.4678687814
 C         -3.4415063832       -0.6373536639       -1.3109994777
 C         -4.0448817972       -1.9664698881       -1.7592125836
 C         -2.5443655830       -0.6603282783       -0.0492131201
 C         -3.1686430061       -1.3219191231        1.2052083322
 C         -2.9053368044       -2.8179853680        1.3668956228
 C         -2.6588874978       -0.5980003690        2.4527245026
 N         -1.1943926855       -1.1050232111       -0.3156643242
 C         -0.8425176735       -2.3388220221       -0.7868183476
 C          0.5035631297       -2.3487326680       -0.9066321164
 N          0.9460479185       -1.1183741406       -0.5114422815
 C          2.3444469635       -0.7444312659       -0.4843938553
 C          3.1117084532       -1.4719090552        0.6556624958
 C          4.0428013849       -0.4916168114        1.3700355589
 C          2.1808579086       -2.0897093859        1.7008175462
 C          2.9622933838       -0.9695251366       -1.8821651816
 C          2.1150369947       -0.2920797780       -2.9599483690
 C          4.3907149178       -0.4382004437       -1.9654164134
 C         -0.0925497753       -0.3328244054       -0.1507482228
 Ni         0.0654020835        1.6874003449        0.5148470438
 C          0.7485934795        1.5066297817        2.1491159974
 O          1.1134171497        1.3766482419        3.2242992309
 C          1.0467754589        2.5499705075       -0.7046917499
 O          1.6049593803        3.1797665159       -1.4778382391
 C         -1.5134658804        2.5348924830        0.6040689351
 O         -2.4192524496        3.2257394043        0.6989988764
 H         -3.3554333938        0.2464385572       -3.2825099043
 H         -1.9135353475       -0.6680815956       -2.8504478628
 H         -2.1880226289        0.9242273068       -2.1440720788
 H         -4.2785690031        0.0208107668       -1.0494261098
 H         -4.6143666888       -2.4332494690       -0.9605122668
 H         -3.2849027050       -2.6582803615       -2.1117430802
 H         -4.7259039084       -1.7811379454       -2.5877185793
 H         -2.4215391252        0.3996764538        0.2130309834
 H         -4.2506226016       -1.1664933146        1.1344519151
 H         -1.8452207519       -3.0090769508        1.5180561391
 H         -3.2514262778       -3.3931133082        0.5135972383
 H         -3.4365410792       -3.1781012459        2.2456978307
 H         -2.9734054098        0.4430346883        2.4552355678
 H         -1.5708617586       -0.6245437184        2.4847494775
 H         -3.0413675886       -1.0708853133        3.3540182931
 H         -1.5473021624       -3.1118178615       -1.0003410230
 H          1.1595160237       -3.1266200043       -1.2381064794
 H          2.3564653866        0.3321813687       -0.2677078119
 H          3.7106091473       -2.2776949282        0.2160554041
 H          3.4559454529        0.2640092880        1.8872898834
 H          4.7110500681        0.0114792823        0.6788270311
 H          4.6465932317       -1.0167202268        2.1069063989
 H          1.5970912407       -2.9128928461        1.2953890021
 H          1.4982872688       -1.3385578432        2.0931713336
 H          2.7727048147       -2.4750919141        2.5277840238
 H          2.9884467178       -2.0468684991       -2.0840460670
 H          2.5622205185       -0.4492754992       -3.9386663282
 H          2.0590358423        0.7781809587       -2.7786131774
 H          1.1022431396       -0.6865770965       -2.9855239417
 H          4.7645834342       -0.5539809389       -2.9804110235
 H          5.0586495529       -0.9781874636       -1.3006198356
 H          4.4176776502        0.6195966067       -1.7139074080
  58
        -82.01899762
 C         -3.7580005049       -2.1828528741       -2.2948690381
 C         -2.8668173496       -0.9563307467       -2.1030391340
 C         -3.5243012653        0.2733533160       -2.7303051667
 C         -2.4390857042       -0.6635717917       -0.6388520625
 C         -3.3599698641       -1.1737560846        0.4898057977
 C         -2.6531947885       -1.0361389325        1.8402061255
 C         -4.6581964702       -0.3706706667        0.5308316466
 N         -1.0843315623       -1.1358769061       -0.4326535721
 C         -0.7198463237       -2.4493466551       -0.5167489386
 C          0.6075836301       -2.5059808604       -0.2671569545
 N          1.0229999762       -1.2253107135       -0.0359613975
 C          2.3887150293       -0.8592619093        0.2979725758
 C          2.6591982644       -1.2426577063        1.7785194962
 C          3.2312619430       -2.6431606755        1.9864687324
 C          3.5327471209       -0.2039046912        2.4818495212
 C          3.3590498274       -1.3969441478       -0.7727592066
 C          2.8401607461       -1.0447513982       -2.1692649140
 C          4.7564854375       -0.8037393349       -0.6081485318
 C         -0.0156060451       -0.3642946440       -0.1347181597
 Ni         0.0634623396        1.7219755882        0.2389468279
 C         -1.4556617207        2.5888812449       -0.1648768649
 O         -2.3298871419        3.2922334087       -0.3840795038
 C          0.3275454888        1.7125835216        2.0008002561
 O          0.4128722655        1.6364284665        3.1374832399
 C          1.3453974725        2.3647878456       -0.8282167563
 O          2.1091008772        2.8076432994       -1.5537904224
 H         -3.3054842671       -3.0818174055       -1.8843299091
 H         -3.9114423716       -2.3475687617       -3.3593706394
 H         -4.7320645502       -2.0447084302       -1.8348761459
 H         -1.9379168354       -1.1375284842       -2.6588113027
 H         -3.7612439194        0.0784594169       -3.7738684201
 H         -2.8501142239        1.1256527735       -2.6901081647
 H         -4.4437082702        0.5371329899       -2.2156589286
 H         -2.3752668599        0.4257643574       -0.5257608845
 H         -3.5973242890       -2.2294784427        0.3289794084
 H         -2.2647339468       -0.0255739051        1.9603217925
 H         -1.8247819092       -1.7346935027        1.9344656823
 H         -3.3523740673       -1.2343781642        2.6488634293
 H         -4.4418062857        0.6831469207        0.6917058473
 H         -5.2831867229       -0.7187702250        1.3502612951
 H         -5.2268122594       -0.4695823732       -0.3885353778
 H         -1.4137064882       -3.2321590916       -0.7383478099
 H          1.2674044618       -3.3473443984       -0.2535540114
 H          2.4129514743        0.2378804177        0.2428981005
 H          1.6778878667       -1.2105786540        2.2701923109
 H          2.5886108278       -3.4059749736        1.5546995677
 H          3.3093165808       -2.8425876441        3.0531072107
 H          4.2244240339       -2.7359768957        1.5559272256
 H          3.5652948318       -0.4140929456        3.5486015969
 H          3.1229724446        0.7942014989        2.3472414932
 H          4.5504235510       -0.2106281602        2.1046998625
 H          3.4294361595       -2.4860857160       -0.6943335057
 H          3.5571331281       -1.3622306951       -2.9227419991
 H          2.7016437875        0.0301210245       -2.2608210948
 H          1.8914093152       -1.5304114469       -2.3842660037
 H          5.2369969318       -1.1453838043        0.3031511009
 H          4.7074753814        0.2824820469       -0.5907667379
 H          5.3830032260       -1.1027047123       -1.4457828583
  58
        -82.01899497
 C         -2.7800620379        0.3345836010       -2.4530622599
 C         -3.1112814742       -0.8883777595       -1.5966077259
 C         -2.8378283289       -2.1446082901       -2.4222218220
 C         -2.3712384449       -0.7769525651       -0.2408328880
 C         -3.0848481794       -1.4121077234        0.9797242166
 C         -4.1923940727       -0.4756120860        1.4652190361
 C         -3.6675796630       -2.8077320457        0.7702089198
 N         -0.9766023073       -1.1718468755       -0.3018990212
 C         -0.5176760452       -2.4394479128       -0.5251134623
 C          0.8324458993       -2.3851739473       -0.4889699794
 N          1.1719979682       -1.0891867610       -0.2250663650
 C          2.5354148948       -0.6192517954       -0.1092839907
 C          3.2005260419       -1.0997657531        1.2030493049
 C          2.2883125036       -0.7973373897        2.3914869376
 C          3.6029324737       -2.5732774942        1.2308897319
 C          3.3189776486       -0.9142837789       -1.4034100719
 C          2.5583412612       -0.3438694404       -2.6014027905
 C          4.7153692483       -0.2993638452       -1.3447938276
 C          0.0639200322       -0.3237568219       -0.1055193593
 Ni        -0.0677040708        1.7331984317        0.4481087916
 C         -0.8853252495        1.5629657407        2.0220744293
 O         -1.3449418302        1.3667998378        3.0496092199
 C          1.5242054415        2.5441507222        0.6225887882
 O          2.4348478201        3.2241542505        0.7478636286
 C         -0.8732096783        2.6424147776       -0.8658138535
 O         -1.2421939851        3.3562069884       -1.6772443085
 H         -3.1247190814        1.2473060639       -1.9736247083
 H         -3.2608141350        0.2610558647       -3.4257986231
 H         -1.7048973145        0.4090840054       -2.6066580375
 H         -4.1810751597       -0.8599014600       -1.3672424411
 H         -3.0703251330       -3.0555193738       -1.8798755188
 H         -1.8009618941       -2.1762340207       -2.7493535141
 H         -3.4645481165       -2.1228646216       -3.3119037086
 H         -2.3276821371        0.3000690747       -0.0167974711
 H         -2.3303420640       -1.4747891533        1.7739994081
 H         -4.6587586730       -0.8793025802        2.3605494716
 H         -4.9619678461       -0.3575450456        0.7057936467
 H         -3.7933534899        0.5067527669        1.7048438901
 H         -4.4367036158       -2.7994991759        0.0024126627
 H         -4.1267119143       -3.1437205724        1.6979029766
 H         -2.9045062049       -3.5334503702        0.5042783114
 H         -1.1541329994       -3.2812410732       -0.6852854152
 H          1.5526207717       -3.1591279212       -0.6481398729
 H          2.4542677217        0.4729519110       -0.0289825928
 H          4.1080711489       -0.4989427229        1.3162622079
 H          2.8245146434       -0.9477230255        3.3252481450
 H          1.4190661386       -1.4522443449        2.3898940788
 H          1.9364384191        0.2326681752        2.3574091970
 H          4.1731462991       -2.7698592944        2.1364426702
 H          4.2259094597       -2.8384777926        0.3807381334
 H          2.7283795483       -3.2188476522        1.2471620582
 H          3.4165481371       -1.9959358235       -1.5402944516
 H          2.3771832365        0.7199668815       -2.4618451409
 H          1.5981598006       -0.8371175704       -2.7339351531
 H          3.1355600839       -0.4789392033       -3.5128963651
 H          5.3260204992       -0.7634242207       -0.5754124638
 H          4.6501586208        0.7671276626       -1.1411427215
 H          5.2186948121       -0.4331475753       -2.2995485353
  58
        -82.01879803
 C         -3.2333344688        0.2545105863       -1.8897809382
 C         -3.4080764793       -0.9260663457       -0.9325436413
 C         -3.2371219291       -2.2202906832       -1.7269028353
 C         -2.4648303477       -0.7424419914        0.2855481819
 C         -3.0240916186       -1.2746129165        1.6289702056
 C         -3.5047470307       -2.7237815580        1.6558767020
 C         -1.9973995974       -1.0481646341        2.7382653692
 N         -1.1042679149       -1.1627947843        0.0277081281
 C         -0.7009665659       -2.4555645122       -0.1546166265
 C          0.6332517994       -2.4295678951       -0.3657636130
 N          1.0232538593       -1.1225901393       -0.2912759094
 C          2.3892418496       -0.6861589518       -0.4929930735
 C          3.3129972883       -1.0851549929        0.6825506081
 C          2.7607886479       -0.5262554818        1.9920135820
 C          3.5763786289       -2.5822448733        0.8338006964
 C          2.8842738093       -1.1188017273       -1.8894151711
 C          1.9008450099       -0.6462453878       -2.9610093430
 C          4.2689538494       -0.5462319295       -2.1839369687
 C         -0.0425688244       -0.3218107623       -0.0536143661
 Ni        -0.0067401753        1.8010276610        0.2374456764
 C          1.2109759463        2.5061645390       -0.8666550434
 O          1.9029071051        3.0630462294       -1.5867236313
 C         -1.5382500231        2.6378300935       -0.1706079083
 O         -2.3834088056        3.3778438261       -0.3801714592
 C          0.3022982960        1.9429413116        1.9844345060
 O          0.4380729404        2.0473738900        3.1139557230
 H         -2.1849227693        0.3718002421       -2.1596669769
 H         -3.5765232292        1.1781742290       -1.4319490995
 H         -3.8074267981        0.0969554432       -2.7997752527
 H         -4.4300457400       -0.8995658698       -0.5389412092
 H         -3.9914089973       -2.2538907661       -2.5107349181
 H         -3.3643674856       -3.1057493677       -1.1119287814
 H         -2.2606521354       -2.2553904950       -2.2047084398
 H         -2.3803097829        0.3439505992        0.4378815121
 H         -3.8955988263       -0.6439247746        1.8407830324
 H         -4.2551055536       -2.9089528404        0.8926142446
 H         -3.9607657617       -2.9239647605        2.6236676088
 H         -2.6832732834       -3.4241818033        1.5325933092
 H         -1.1503601052       -1.7222629701        2.6256003409
 H         -2.4465951813       -1.2286337857        3.7116250214
 H         -1.6270117171       -0.0256258971        2.7137935589
 H         -1.3629069494       -3.2922497149       -0.1238653517
 H          1.3058400562       -3.2324715726       -0.5784011464
 H          2.3483988133        0.4113402966       -0.4845867340
 H          4.2702632960       -0.5917283735        0.4907292468
 H          1.8017162267       -0.9787484221        2.2362033555
 H          2.6222543459        0.5497958927        1.9166040283
 H          3.4502215570       -0.7273213542        2.8084152896
 H          4.3619122782       -2.7333817321        1.5713435465
 H          3.9073560062       -3.0304132757       -0.0996791289
 H          2.6896027144       -3.1025904665        1.1873344641
 H          2.9414407744       -2.2111368461       -1.9363780607
 H          1.7918303121        0.4351847350       -2.9255633987
 H          0.9179812567       -1.0915005089       -2.8257282109
 H          2.2622920419       -0.9221105866       -3.9488222640
 H          4.5458707596       -0.7629425506       -3.2130650573
 H          5.0277112464       -0.9766082328       -1.5363135694
 H          4.2683715351        0.5334943596       -2.0525278023
  58
        -82.01829492
 C         -4.8251856861       -0.7806179909       -0.5402978304
 C         -3.4093452018       -1.2728792098       -0.8282617848
 C         -2.9619443088       -0.7342081460       -2.1875607851
 C         -2.4163347438       -0.8517757396        0.2773147059
 C         -2.7679598261       -1.4314322144        1.6769001500
 C         -1.5345152192       -1.8829897173        2.4612558314
 C         -3.5023675061       -0.3818842779        2.5119248840
 N         -1.0701028935       -1.2057182392       -0.1219742488
 C         -0.7015471194       -2.4699293044       -0.4851359004
 C          0.6204977450       -2.4286754162       -0.7608611175
 N          1.0342086985       -1.1426259112       -0.5533648537
 C          2.3957702935       -0.6762352503       -0.7185903381
 C          3.3046831361       -1.0682207234        0.4731953908
 C          3.0878264219       -0.0819749400        1.6210042985
 C          3.1056438234       -2.4884706845        0.9991042880
 C          2.9460239965       -0.9895850193       -2.1331737985
 C          3.8439849197        0.1655218980       -2.5815761395
 C          3.7146102730       -2.3005495767       -2.2931541987
 C         -0.0098809839       -0.3683026755       -0.1689468430
 Ni        -0.0850742421        1.7229819259        0.2347371912
 C          1.4110872226        2.5778797865       -0.2624188981
 O          2.2692455985        3.2763339232       -0.5499054736
 C         -1.4119830085        2.3928827089       -0.7608230584
 O         -2.1957618419        2.9099549445       -1.4120591087
 C         -0.2884143797        1.7990605226        2.0014054962
 O         -0.3526181722        1.8527428544        3.1412002429
 H         -5.4766344700       -1.0360599607       -1.3732393169
 H         -4.8349752931        0.3006017483       -0.4228683308
 H         -5.2344836580       -1.2387128814        0.3553948467
 H         -3.4346959109       -2.3678119057       -0.8775671837
 H         -2.9215476358        0.3518211671       -2.1677949815
 H         -3.6680890663       -1.0351057206       -2.9579300298
 H         -1.9796475173       -1.1073606194       -2.4668478928
 H         -2.4223969383        0.2439730056        0.3527664521
 H         -3.4210066108       -2.3011241370        1.5413199086
 H         -0.8129609587       -1.0715940856        2.5342452980
 H         -1.0488480462       -2.7415884197        2.0031238940
 H         -1.8310456533       -2.1649059587        3.4688569012
 H         -4.3729372814        0.0110785137        1.9971812416
 H         -2.8342605484        0.4473370468        2.7327021045
 H         -3.8301559436       -0.8147473895        3.4545251247
 H         -1.3873199463       -3.2904938227       -0.5219239292
 H          1.2710324927       -3.2099124510       -1.0872221776
 H          2.3060767518        0.4170074566       -0.6765844667
 H          4.3391666829       -0.9664179913        0.1311554896
 H          2.0375084789       -0.0612871343        1.9079715784
 H          3.3813173349        0.9241513823        1.3304480808
 H          3.6759426760       -0.3700803715        2.4891314541
 H          3.8149195565       -2.6732936603        1.8032627559
 H          3.2730674058       -3.2379890429        0.2324041992
 H          2.1038218508       -2.6133468337        1.4042295644
 H          2.0789713264       -1.0200507228       -2.8044225597
 H          3.2926486611        1.1024959215       -2.5955380380
 H          4.2250748091       -0.0177756701       -3.5832615459
 H          4.6920336411        0.2749938161       -1.9092525876
 H          4.0469305905       -2.3913462328       -3.3254346394
 H          3.1032770878       -3.1705757441       -2.0725018695
 H          4.5953577248       -2.3205090496       -1.6571276321
  58
        -82.01824957
 C         -2.8346120129       -1.8142298656       -2.5368880291
 C         -2.9224870729       -0.5273351420       -1.7182471705
 C         -4.3387941215        0.0428442449       -1.7520449487
 C         -2.3970969747       -0.5996719750       -0.2620160877
 C         -3.2986971618       -1.2349943597        0.8257742961
 C         -3.8704793702       -2.6300662161        0.5789523342
 C         -2.5507904879       -1.2263711943        2.1612815504
 N         -1.0333762078       -1.0901523682       -0.2305302752
 C         -0.6546824708       -2.3943441664       -0.3749935678
 C          0.6920353563       -2.4300528541       -0.2595013923
 N          1.1075487844       -1.1465669632       -0.0444256727
 C          2.4876567335       -0.7688610857        0.1716976514
 C          2.9663994282       -1.1627571356        1.5894409611
 C          2.0132221691       -0.5891099955        2.6371090641
 C          3.1411932456       -2.6624840828        1.8180897983
 C          3.3742391598       -1.2553876181       -0.9911573703
 C          2.8047591801       -0.7455902432       -2.3156988727
 C          4.8096670748       -0.7602582075       -0.8291353839
 C          0.0517691078       -0.3018487991       -0.0371682758
 Ni         0.0402040862        1.8254848253        0.1313478530
 C         -0.9768330900        2.4611694202       -1.1992963849
 O         -1.5361720458        2.9697787623       -2.0554283152
 C         -0.5482292996        2.1077104241        1.7876944706
 O         -0.8775261139        2.2788044700        2.8683629925
 C          1.6698634126        2.5262881292       -0.1273956079
 O          2.6258192909        3.1232885890       -0.3200887204
 H         -3.2220913126       -1.6210507894       -3.5353130250
 H         -3.4154984002       -2.6222499719       -2.1046534516
 H         -1.8023393009       -2.1390865354       -2.6425584244
 H         -2.2642435610        0.1967185497       -2.2161623060
 H         -4.6203000985        0.2694995323       -2.7776830025
 H         -4.3948385666        0.9630471962       -1.1750461437
 H         -5.0609931860       -0.6634408230       -1.3517297156
 H         -2.3058744092        0.4528627898        0.0537497357
 H         -4.1519111967       -0.5549307713        0.9197276859
 H         -4.4848230689       -2.6624521789       -0.3153461438
 H         -4.5057431743       -2.8961926740        1.4223508501
 H         -3.0945200131       -3.3863591416        0.5070679849
 H         -1.7546708742       -1.9685813601        2.1654003644
 H         -3.2331465204       -1.4595018873        2.9750008075
 H         -2.1103236124       -0.2508957215        2.3528428126
 H         -1.3430759067       -3.1921488654       -0.5494053168
 H          1.3629691248       -3.2592688681       -0.3335827394
 H          2.4938469900        0.3286072538        0.1444590854
 H          3.9392307619       -0.6811420229        1.7246804500
 H          1.0525648139       -1.0994926594        2.6111706022
 H          1.8386347084        0.4704671186        2.4583563204
 H          2.4331030223       -0.7065497685        3.6330669860
 H          3.5894602353       -2.8262243925        2.7957646653
 H          3.7939576277       -3.1096511388        1.0726849786
 H          2.1819641892       -3.1744461851        1.8050374812
 H          3.3839915082       -2.3496323237       -1.0179683181
 H          2.7459880226        0.3407680842       -2.3081213795
 H          1.8065793592       -1.1371795590       -2.4971681950
 H          3.4428916740       -1.0498385851       -3.1418830728
 H          5.3897297506       -1.0156891028       -1.7129044022
 H          5.2948716972       -1.2114829687        0.0318915970
 H          4.8264144478        0.3210247311       -0.7123563683
  58
        -82.01817051
 C         -4.1806317370        0.2386936898       -1.6188270052
 C         -3.1549610523       -0.8950642042       -1.5781440078
 C         -2.2098587639       -0.7171591058       -2.7686875422
 C         -2.4054258863       -0.9020979035       -0.2177575247
 C         -3.0014238049       -1.8867688789        0.8148860849
 C         -2.1841031112       -1.8635969123        2.1071709028
 C         -4.4583621794       -1.5757281862        1.1455015116
 N         -0.9986821408       -1.2059683946       -0.3857440781
 C         -0.5407904419       -2.4306841250       -0.7813496057
 C          0.8084901794       -2.3606654841       -0.7891679788
 N          1.1471712635       -1.0970987450       -0.3930939627
 C          2.5045522429       -0.6153050503       -0.2394172812
 C          3.1591875696       -1.1081962647        1.0753848122
 C          2.6823012306       -0.2342605806        2.2359533701
 C          2.8967737895       -2.5730672775        1.4201961779
 C          3.3343770344       -0.8022822667       -1.5348041223
 C          4.2763378574        0.3930165985       -1.6948105133
 C          4.1503453692       -2.0894468886       -1.6452101116
 C          0.0326207160       -0.3639974944       -0.1525652145
 Ni        -0.1639546198        1.6911112479        0.3724425462
 C         -0.8304271694        1.6557739369        2.0229369230
 O         -1.1976509802        1.6443115659        3.1048505823
 C          1.3969656857        2.5735852508        0.3615316440
 O          2.2859758388        3.2922426405        0.3753410233
 C         -1.1580893371        2.4446684789       -0.9084465255
 O         -1.6875202826        3.0369810850       -1.7298284819
 H         -3.6713752286        1.1989301980       -1.6222883537
 H         -4.8526906542        0.2144691574       -0.7679824551
 H         -4.7771523317        0.1686854805       -2.5258486428
 H         -3.6770017472       -1.8518360481       -1.6952635384
 H         -1.5772119465        0.1565280395       -2.6241712563
 H         -2.7933848967       -0.5690520285       -3.6743533688
 H         -1.5712876082       -1.5840348053       -2.9205183393
 H         -2.4420732327        0.1121885605        0.2035938001
 H         -2.9579746295       -2.8981663890        0.3939410341
 H         -2.6029973568       -2.5630992025        2.8267805011
 H         -2.2038767656       -0.8694069479        2.5463830336
 H         -1.1470457321       -2.1408446465        1.9341721434
 H         -4.8038534889       -2.2460109751        1.9297341878
 H         -5.1034877415       -1.7133899870        0.2827266955
 H         -4.5571534226       -0.5546617111        1.5066743891
 H         -1.1896838839       -3.2458512609       -1.0254274608
 H          1.5265079457       -3.1066903400       -1.0499934190
 H          2.3868828460        0.4699579506       -0.1232393224
 H          4.2386998259       -0.9660221929        0.9658015630
 H          1.5943879841       -0.2372752105        2.2910236215
 H          3.0138025634        0.7938124533        2.1099866391
 H          3.0757434113       -0.6040925707        3.1798750718
 H          3.4323725195       -2.8258948523        2.3329364964
 H          3.2366927301       -3.2467629777        0.6404216519
 H          1.8374483166       -2.7446475938        1.5984427707
 H          2.6202436578       -0.7801451639       -2.3671488948
 H          4.9696536811        0.4491784606       -0.8585157987
 H          3.7168063458        1.3241413124       -1.7412263938
 H          4.8545765215        0.2996180196       -2.6108237180
 H          4.6851451158       -2.0884594703       -2.5929842062
 H          3.5278214542       -2.9791091032       -1.6260684710
 H          4.8857222241       -2.1585973826       -0.8482642997
  58
        -82.01798102
 C         -2.2712618413       -0.4360048609       -2.8002788820
 C         -3.1473420905       -0.8832218148       -1.6272718769
 C         -3.7137202502       -2.2711574575       -1.9240413078
 C         -2.3742177502       -0.6640487472       -0.3028901011
 C         -3.0231690043       -1.1250765231        1.0269945200
 C         -4.4571422873       -0.6111484027        1.1339094479
 C         -2.9537629316       -2.6206598699        1.3301326769
 N         -0.9906764942       -1.0925332481       -0.3660689880
 C         -0.5619637940       -2.3503332676       -0.6804862185
 C          0.7885652403       -2.3357647366       -0.6150079593
 N          1.1555551701       -1.0710767638       -0.2522150266
 C          2.5253670025       -0.6503657057       -0.0535091682
 C          3.1033174134       -1.2071702852        1.2695493900
 C          2.1536062313       -0.8910636730        2.4248115601
 C          3.4200924638       -2.7013053855        1.2602807706
 C          3.3650127797       -0.9173281322       -1.3176486406
 C          2.6901104103       -0.2626580421       -2.5238103036
 C          4.7786511399       -0.3622174242       -1.1590904910
 C          0.0656884783       -0.2851324962       -0.1044039921
 Ni        -0.0416796433        1.7834574384        0.4111071778
 C         -0.8754292981        1.7598564747        1.9871739226
 O         -1.3457693605        1.7366150616        3.0277673871
 C          1.5687943345        2.5579444592        0.5725169844
 O          2.5006659275        3.2107732062        0.6851232784
 C         -0.8596674629        2.6071742524       -0.9480670804
 O         -1.2914530076        3.2174352556       -1.8121348766
 H         -1.4719344330       -1.1513559503       -2.9840612366
 H         -1.8212285191        0.5337013002       -2.6022732511
 H         -2.8686095168       -0.3575196862       -3.7053416659
 H         -4.0018543572       -0.2001638255       -1.5725326353
 H         -4.2397528597       -2.2313583057       -2.8766273373
 H         -4.4282017918       -2.5854409958       -1.1697120447
 H         -2.9373202005       -3.0248315576       -2.0145612163
 H         -2.3069517625        0.4324635222       -0.2101940980
 H         -2.4372775324       -0.6254028913        1.8096003153
 H         -4.8337377405       -0.7768118114        2.1405254587
 H         -5.1166030962       -1.1224034362        0.4381431012
 H         -4.4961649945        0.4563297445        0.9295895801
 H         -3.4798937585       -3.2182681799        0.5933305208
 H         -3.4132260786       -2.8036862456        2.2994869390
 H         -1.9220023872       -2.9596148494        1.3859817269
 H         -1.2218646289       -3.1543315175       -0.9235465389
 H          1.4920597879       -3.1152457039       -0.8169358055
 H          2.4743604371        0.4393402967        0.0704777287
 H          4.0359728174       -0.6625101220        1.4442355793
 H          2.6375992772       -1.0950065780        3.3767293928
 H          1.2530513574       -1.4992201885        2.3648708707
 H          1.8560452820        0.1562703357        2.4054679986
 H          3.9249721621       -2.9659193444        2.1869732180
 H          4.0750333746       -2.9692041464        0.4352550012
 H          2.5106158150       -3.2941089938        1.1998999172
 H          3.4303974181       -1.9945596906       -1.5005401687
 H          2.5567853031        0.8029607742       -2.3489369978
 H          1.7127724190       -0.6980392381       -2.7182888143
 H          3.3012445118       -0.3921490587       -3.4137448656
 H          5.3230946703       -0.4655383601       -2.0948543284
 H          5.3329517389       -0.8903790867       -0.3882841726
 H          4.7433470909        0.6938556747       -0.9010867478
  58
        -82.01781757
 C         -3.7611130884       -2.0122272032       -1.9590706161
 C         -2.9332804552       -0.7736818138       -1.6222769486
 C         -3.7139191114        0.4937399783       -1.9708049598
 C         -2.3867152362       -0.7192768573       -0.1688510365
 C         -3.2348333405       -1.3749298632        0.9398657518
 C         -2.4473403677       -1.4096685220        2.2521893365
 C         -4.5329326908       -0.6036400918        1.1685557573
 N         -1.0384172044       -1.2579276593       -0.1543490551
 C         -0.7641784639       -2.5894013721       -0.2837787761
 C          0.5802272171       -2.7121273281       -0.2610514274
 N          1.0983483667       -1.4554888716       -0.1212967308
 C          2.5368831285       -1.2513546269       -0.0903582723
 C          2.9465681529       -0.3124675850       -1.2452191102
 C          4.4534752328       -0.0907260410       -1.3132666802
 C          2.4584688281       -0.8811828384       -2.5780989627
 C          3.0480699912       -0.8177016987        1.3113229773
 C          2.0072347687       -1.0146852146        2.4134883166
 C          4.3035312861       -1.6101161598        1.6788627131
 C          0.1033699360       -0.5380689484       -0.0467538462
 Ni         0.1241675935        1.5899765683        0.1532897792
 C         -0.1821690356        1.9947075212       -1.5545082737
 O         -0.3377726177        2.1152609284       -2.6800763149
 C         -1.0844654654        2.0867918556        1.3819994813
 O         -1.7542541998        2.5123417945        2.2050242463
 C          1.6676825606        2.2659946058        0.7779963151
 O          2.5233884965        2.8968714870        1.1955771015
 H         -4.0217105552       -1.9904884502       -3.0151425555
 H         -4.6847769028       -2.0418209656       -1.3880016469
 H         -3.2060716068       -2.9285434935       -1.7758681918
 H         -2.0469869883       -0.7846640061       -2.2702261516
 H         -3.1113923905        1.3778838227       -1.7762123430
 H         -4.6314183806        0.5706903449       -1.3955734187
 H         -3.9742195373        0.4882472316       -3.0269178481
 H         -2.2760330987        0.3421041328        0.0902034943
 H         -3.4824544109       -2.4030548312        0.6592159151
 H         -1.5767854534       -2.0576644808        2.1862126305
 H         -3.0805568386       -1.7801522366        3.0548290468
 H         -2.1088329211       -0.4105611882        2.5175656600
 H         -5.0703916707       -1.0295629188        2.0130605615
 H         -5.1870241620       -0.6455857955        0.3033242662
 H         -4.3192211691        0.4389542712        1.3925226407
 H         -1.5235769113       -3.3368847375       -0.3687745304
 H          1.1966749733       -3.5845672237       -0.3365119868
 H          2.9689214509       -2.2374567044       -0.3033065337
 H          2.4543707512        0.6531720492       -1.0827211102
 H          4.9755197515       -1.0355482184       -1.4549410771
 H          4.8300612134        0.3903732095       -0.4155454398
 H          4.6863294604        0.5529560483       -2.1585118025
 H          2.8950543160       -1.8620591731       -2.7615109697
 H          2.7491049554       -0.2211697581       -3.3914489450
 H          1.3751462568       -0.9737797697       -2.5954361854
 H          3.2977534723        0.2452252678        1.2774273937
 H          1.6663168134       -2.0481033842        2.4514646838
 H          1.1477456501       -0.3639928771        2.2611927965
 H          2.4495010810       -0.7660857930        3.3753138933
 H          4.7166178688       -1.2393320473        2.6140215763
 H          5.0702601962       -1.5292183113        0.9146176276
 H          4.0584574805       -2.6627050688        1.8117604801
  58
        -82.01756824
 C         -4.3095906839       -0.4320916188       -2.0887619588
 C         -2.9053594270       -1.0255238893       -1.9945344310
 C         -2.0127015973       -0.3808986834       -3.0544728433
 C         -2.3076810049       -0.7921799441       -0.5934568062
 C         -3.1391099223       -1.3679595010        0.5815022916
 C         -3.5373227601       -2.8361470075        0.4369344751
 C         -2.3955880131       -1.1785260471        1.9039733603
 N         -0.9335946451       -1.2444003888       -0.5272215278
 C         -0.5611142003       -2.5161861649       -0.8535705516
 C          0.7592615317       -2.6104706056       -0.5946821048
 N          1.1698252167       -1.3962371119       -0.1145647890
 C          2.5472675492       -1.2587150944        0.3382404094
 C          3.2181339521       -0.0014482990       -0.2391988552
 C          4.6473132936        0.1676876748        0.2666284499
 C          3.2246050230       -0.0933366710       -1.7655386792
 C          2.6524497437       -1.4464131327        1.8722865513
 C          2.0450111005       -0.3085405474        2.6815171142
 C          2.0168941260       -2.7739801061        2.2898052053
 C          0.1280576546       -0.5236300490       -0.0805695049
 Ni         0.0003962897        1.6352984388        0.1196691674
 C         -1.5688997509        2.1787639464        0.8085165734
 O         -2.4617045063        2.7081839346        1.2878527305
 C          1.1748655530        2.4422694183        1.2155005866
 O          1.7617183863        3.1848447559        1.8545977610
 C          0.3035224806        2.0284939439       -1.5907205326
 O          0.5457594295        2.2180028880       -2.6908976906
 H         -4.6773388814       -0.5151761605       -3.1089073921
 H         -4.2930736179        0.6214276620       -1.8183776235
 H         -5.0093633999       -0.9467248062       -1.4364213225
 H         -2.9648028754       -2.0985273690       -2.2010212372
 H         -1.9369235940        0.6899867557       -2.8790799942
 H         -2.4324639970       -0.5367801784       -4.0454397390
 H         -1.0100408627       -0.8022532577       -3.0418070352
 H         -2.2659376371        0.2952178633       -0.4448583313
 H         -4.0549024257       -0.7705785204        0.6236143820
 H         -2.6655933425       -3.4847979109        0.4775324236
 H         -4.0749550048       -3.0218421384       -0.4888697328
 H         -4.1908247097       -3.1106721195        1.2624284234
 H         -1.5520874259       -1.8625219842        1.9757701604
 H         -3.0621809227       -1.3769584158        2.7397157150
 H         -2.0169543333       -0.1630202447        1.9981747336
 H         -1.2356919254       -3.2398725564       -1.2578902746
 H          1.4273441098       -3.4373729978       -0.7208713824
 H          3.0766824615       -2.1172173129       -0.0998016625
 H          2.6276305508        0.8727636932        0.0493889225
 H          5.2293506721       -0.7346112778        0.0853119202
 H          4.6751797658        0.3935519587        1.3286400296
 H          5.1239971049        0.9900107464       -0.2616774443
 H          3.6393680335        0.8154592546       -2.1939567994
 H          2.2160623357       -0.2169734889       -2.1530672927
 H          3.8298285034       -0.9358396005       -2.0978016369
 H          3.7207412062       -1.5094940980        2.1010206608
 H          2.0469428861       -0.5639488644        3.7389932980
 H          1.0169380671       -0.1231669217        2.3742972857
 H          2.6159474809        0.6064396912        2.5555729569
 H          0.9391761487       -2.7533678426        2.1436513977
 H          2.2081286807       -2.9582374341        3.3442188037
 H          2.4302398347       -3.6057523527        1.7224765260
  58
        -82.01745706
 C         -4.7476483113       -0.6984666911       -1.0384819068
 C         -3.3051835152       -1.1770065675       -1.1763064339
 C         -2.6704394664       -0.5184632668       -2.4024298694
 C         -2.4652099874       -0.8576858100        0.0787229712
 C         -2.9905413910       -1.5055399390        1.3889902265
 C         -1.8580559145       -1.9729060315        2.3056446295
 C         -3.8364944627       -0.4986359769        2.1697985407
 N         -1.0839481227       -1.2079386232       -0.1709207122
 C         -0.6817622081       -2.4586122057       -0.5446777575
 C          0.6635922362       -2.4190292801       -0.6665894717
 N          1.0574327065       -1.1485349896       -0.3526654920
 C          2.4243447369       -0.6634055220       -0.3549561000
 C          3.2925331416       -1.2666824111        0.7767454322
 C          3.0046192972       -0.5244654451        2.0824294466
 C          3.1312517701       -2.7654207746        1.0256408542
 C          3.0379257458       -0.6961030398       -1.7777676125
 C          4.0381468860        0.4521080078       -1.9226456149
 C          3.7138120131       -2.0006198985       -2.1938834414
 C         -0.0219624736       -0.3816886733       -0.0572978378
 Ni        -0.0392061653        1.7278833735        0.2206319440
 C          0.5591022606        2.2103702590       -1.3865399811
 O          0.8733624494        2.4264946064       -2.4636133161
 C         -1.6738233720        2.4062811552        0.5221718110
 O         -2.6216088410        3.0080699607        0.7385630078
 C          0.9061110751        2.1469978409        1.6775417734
 O          1.3768970009        2.5229597829        2.6477762607
 H         -5.2839462706       -0.8844298558       -1.9665306098
 H         -4.7766028614        0.3704744261       -0.8399921229
 H         -5.2682956111       -1.2227585498       -0.2422938808
 H         -3.3208095516       -2.2627393852       -1.3267261814
 H         -1.6901885375       -0.9359456420       -2.6199747486
 H         -2.5545666692        0.5509581708       -2.2362823181
 H         -3.3001316383       -0.6647880693       -3.2766230636
 H         -2.4680748632        0.2298627899        0.2177121056
 H         -3.6081759671       -2.3734961468        1.1317425217
 H         -1.3032694800       -2.8068587569        1.8820404450
 H         -2.2732091145       -2.2966608836        3.2572063152
 H         -1.1673962133       -1.1531540861        2.4960754101
 H         -4.6344829062       -0.0793336465        1.5662668164
 H         -3.2058036400        0.3169451368        2.5176905370
 H         -4.2824378220       -0.9776667146        3.0386785311
 H         -1.3637096903       -3.2697296740       -0.6938305549
 H          1.3386916776       -3.1935069317       -0.9563495144
 H          2.3223934523        0.4054647861       -0.1117465412
 H          4.3350526335       -1.0767634882        0.5031363956
 H          3.5743670577       -0.9574000744        2.9013363472
 H          1.9463698161       -0.5896853511        2.3290173288
 H          3.2759021775        0.5248718315        1.9990667885
 H          3.8318233394       -3.0706327768        1.8006519625
 H          3.3429957627       -3.3568010142        0.1406232804
 H          2.1279055092       -2.9940848133        1.3780242475
 H          2.2097060986       -0.5064611253       -2.4720146562
 H          3.5629839027        1.4088405118       -1.7206843174
 H          4.4359215548        0.4783533281       -2.9341397090
 H          4.8705823095        0.3300270291       -1.2333385705
 H          4.0948978749       -1.8947614595       -3.2077043904
 H          3.0228475791       -2.8385656478       -2.1932661038
 H          4.5545331969       -2.2307972124       -1.5448329591
  58
        -82.01722838
 C         -4.2919963143       -0.7009435619       -2.0202692028
 C         -2.9434859195       -1.3556161042       -1.7294263737
 C         -1.9997490675       -1.0719054503       -2.9010825167
 C         -2.3242093353       -0.8280984109       -0.4189160381
 C         -3.0771715251       -1.1171576497        0.9073886682
 C         -4.1286625722       -0.0526081947        1.2231771637
 C         -3.7003860971       -2.5080357138        1.0008422743
 N         -0.9550392557       -1.3028967798       -0.2951868512
 C         -0.5997171989       -2.6175399741       -0.4016948016
 C          0.7420947039       -2.6698502649       -0.2598279516
 N          1.1785469435       -1.3892442430       -0.0702468366
 C          2.5986637460       -1.1029819229        0.0497532894
 C          3.0117010510       -0.1368736073       -1.0821727639
 C          4.4949830306        0.2134645131       -1.0508262704
 C          2.6648025634       -0.7487467533       -2.4400619888
 C          2.9989571361       -0.6483373511        1.4795412458
 C          1.9218670835       -0.9542286486        2.5202318400
 C          4.2963752197       -1.3366454627        1.9059856594
 C          0.1340721136       -0.5259956540       -0.0823981485
 Ni         0.0050542672        1.5770350080        0.2642999219
 C         -1.0770355555        1.7515147661        1.6815135771
 O         -1.6048533117        1.9270222268        2.6794619916
 C          1.5284437905        2.3685666363        0.7936950647
 O          2.3584667865        3.0739929506        1.1379241683
 C         -0.4677026863        2.1920745149       -1.3409602999
 O         -0.7010936864        2.5382365973       -2.4050656602
 H         -4.6218506599       -0.9711153985       -3.0211681732
 H         -4.2084994479        0.3819436295       -1.9702876259
 H         -5.0570634686       -1.0250616709       -1.3221156634
 H         -3.0906493709       -2.4376282101       -1.6591847539
 H         -1.0538984287       -1.5982771315       -2.7969196178
 H         -1.7934898953       -0.0064320051       -2.9706411668
 H         -2.4581447548       -1.3922662032       -3.8337375585
 H         -2.2445746504        0.2647602442       -0.5098750552
 H         -2.3103666574       -1.0437964406        1.6901140893
 H         -4.4429368689       -0.1481176440        2.2602428945
 H         -5.0084130063       -0.1549665762        0.5961539666
 H         -3.7236926257        0.9464152150        1.0847851378
 H         -4.4742531888       -2.6475583290        0.2507727345
 H         -4.1583048041       -2.6292416624        1.9802175794
 H         -2.9538433973       -3.2895127178        0.8873560471
 H         -1.3007528197       -3.4032282542       -0.5852130887
 H          1.4080512568       -3.5081442605       -0.2850111501
 H          3.1002518528       -2.0610421835       -0.1375784006
 H          2.4281018892        0.7832777558       -0.9640266630
 H          4.7678831036        0.7255027310       -0.1329631326
 H          4.7272468946        0.8749891865       -1.8824115605
 H          5.1046566695       -0.6826900599       -1.1526826541
 H          1.5956899394       -0.9238681776       -2.5326099036
 H          3.1875838310       -1.6936497631       -2.5823184046
 H          2.9605318521       -0.0722654976       -3.2378299737
 H          3.1555176639        0.4327832005        1.4722196037
 H          1.6637534532       -2.0119883536        2.5192497855
 H          1.0222504337       -0.3703537916        2.3334884120
 H          2.2908685461       -0.6932771929        3.5093148974
 H          4.1348861132       -2.4079583851        2.0150611690
 H          4.6259424750       -0.9457982856        2.8658252136
 H          5.0931650897       -1.1807017321        1.1856974029
  58
        -82.01720141
 C         -3.2644522247        0.5403836712       -1.7550654947
 C         -3.5060507372       -0.7233705765       -0.9273736587
 C         -3.3932134286       -1.9380564291       -1.8469387629
 C         -2.5558455136       -0.7113916326        0.2961966411
 C         -3.1193811658       -1.3533089013        1.5877123236
 C         -3.6656693342       -2.7745204781        1.4745309104
 C         -2.0637276706       -1.2851554373        2.6919830082
 N         -1.2120148104       -1.1466586173       -0.0146221329
 C         -0.8362907129       -2.4275585417       -0.3066263522
 C          0.5008175244       -2.4137878836       -0.5049237256
 N          0.9165697410       -1.1258870436       -0.3230475041
 C          2.2932852549       -0.6884065215       -0.4739195635
 C          3.2208847616       -1.5335367618        0.4221305543
 C          4.6155778869       -0.9186066759        0.5145561375
 C          2.6361413724       -1.6337880148        1.8333758498
 C          2.6276387416       -0.6091576640       -1.9887354396
 C          3.5120210299        0.5957587184       -2.3092799786
 C          3.2294278949       -1.8807694022       -2.5828312236
 C         -0.1303960372       -0.3300850495       -0.0112582001
 Ni        -0.0101410815        1.7640926959        0.3472375549
 C          1.2584088223        1.9974895222        1.5855499881
 O          2.0009398822        2.1918361546        2.4324590582
 C          0.2769479147        2.3358703718       -1.3152585926
 O          0.3740438479        2.6235203190       -2.4167191047
 C         -1.5142405674        2.4837242892        1.0121407861
 O         -2.3709949303        3.0977505395        1.4543784987
 H         -3.8868286924        0.5396977515       -2.6466633229
 H         -2.2215438063        0.5953581462       -2.0628490202
 H         -3.4961043352        1.4335804673       -1.1795946461
 H         -4.5259823739       -0.6848557646       -0.5295974931
 H         -3.5627881232       -2.8723108100       -1.3205077484
 H         -2.4166097031       -1.9714109685       -2.3247227450
 H         -4.1441060104       -1.8594403921       -2.6306511984
 H         -2.4309967146        0.3492883629        0.5557610481
 H         -3.9580030425       -0.7101480281        1.8796821982
 H         -4.4393955497       -2.8430301026        0.7150611820
 H         -4.1099259400       -3.0570015585        2.4270923077
 H         -2.8807177139       -3.4931773447        1.2556604590
 H         -2.5114009834       -1.5095536470        3.6567950920
 H         -1.6185248803       -0.2929026411        2.7396218538
 H         -1.2683647976       -2.0058326071        2.5118595791
 H         -1.5191774465       -3.2467751486       -0.3555482871
 H          1.1659140861       -3.2168796641       -0.7422661114
 H          2.3118141403        0.3403810715       -0.0885491771
 H          3.3106134438       -2.5443703918        0.0128502273
 H          5.1376460710       -0.9538991949       -0.4364193516
 H          5.2114222237       -1.4670768337        1.2409685366
 H          4.5521967300        0.1173055104        0.8394013905
 H          3.3272526175       -2.1637227835        2.4846038803
 H          1.6897979405       -2.1689649363        1.8437600535
 H          2.4705438886       -0.6414044066        2.2461052429
 H          1.6666093246       -0.4339021527       -2.4902140760
 H          3.0758232328        1.5071368701       -1.9074524790
 H          3.5997506091        0.7104140398       -3.3874264922
 H          4.5104324846        0.4834327565       -1.8986528155
 H          2.5846239671       -2.7410750111       -2.4230452116
 H          4.2082916094       -2.0926589423       -2.1617928167
 H          3.3481754083       -1.7522311729       -3.6566096411
  58
        -82.01698086
 C         -4.3105010142       -0.5605282059       -1.9352341490
 C         -3.0025335105       -1.2666391031       -1.5883658947
 C         -2.0215331530       -1.1010126396       -2.7498719237
 C         -2.3902913203       -0.7280172829       -0.2747188568
 C         -3.2912171175       -0.9731835777        0.9682378553
 C         -2.5005300643       -1.3812182460        2.2128375442
 C         -4.0787561302        0.2946314304        1.3026534380
 N         -1.0655705745       -1.2885049051       -0.1055164022
 C         -0.8518476961       -2.6361699178       -0.0600823878
 C          0.4778216799       -2.8106932676        0.0807326283
 N          1.0516292785       -1.5679481120        0.1119725158
 C          2.5004196666       -1.4707793757        0.2192747878
 C          3.1603751199       -1.2777539537       -1.1687415712
 C          2.6852945880       -2.3624400449       -2.1373329574
 C          2.9282011879        0.0960606779       -1.7829739867
 C          2.9239341235       -0.4745712840        1.3117633905
 C          2.3087168635       -0.8911233252        2.6479754088
 C          4.4415353663       -0.3971015343        1.4460460165
 C          0.1012012553       -0.6043175745       -0.0001487273
 Ni         0.0735131072        1.5548571919        0.1022021741
 C         -0.7620699121        2.1463339101       -1.3661507652
 O         -1.1770276085        2.6305591272       -2.3149587690
 C         -0.6164227579        1.8222119368        1.7273054378
 O         -0.8953248369        2.0228890548        2.8174910611
 C          1.6361793420        2.4488576814        0.0996475169
 O          2.4498266870        3.2502550434        0.1229931301
 H         -4.6739955079       -0.9153710418       -2.8972081411
 H         -4.1551770923        0.5135343609       -2.0077224618
 H         -5.0802609767       -0.7587010526       -1.1951034824
 H         -3.2157613617       -2.3350307297       -1.4643376883
 H         -1.1128167158       -1.6777758099       -2.5952929803
 H         -1.7471618245       -0.0557972012       -2.8680397198
 H         -2.4800303340       -1.4407393771       -3.6755636982
 H         -2.2459339649        0.3552692435       -0.3788795594
 H         -3.9974033191       -1.7786528140        0.7356132816
 H         -2.0491230042       -2.3650477121        2.1111564197
 H         -3.1680279923       -1.4069620338        3.0710849368
 H         -1.7133428888       -0.6589679351        2.4173857015
 H         -3.3969238491        1.0792295063        1.6227629057
 H         -4.7775600156        0.0996000097        2.1131948075
 H         -4.6408324512        0.6612513197        0.4499647055
 H         -1.6416256423       -3.3543456939       -0.1301323748
 H          1.0489655490       -3.7120412637        0.1657077048
 H          2.8252401352       -2.4628076194        0.5650435753
 H          4.2354362436       -1.4191367672       -1.0197818103
 H          2.8334388422       -3.3569320372       -1.7208206549
 H          3.2482366596       -2.2995860602       -3.0654400955
 H          1.6314038279       -2.2364111837       -2.3755781833
 H          1.8637259789        0.3269556312       -1.8156509975
 H          3.3150493643        0.1173719151       -2.7995111017
 H          3.4352231430        0.8701045650       -1.2141759298
 H          2.5330903401        0.5127584310        1.0537629177
 H          2.5939343182       -0.1867045070        3.4251232756
 H          2.6526812646       -1.8822354709        2.9405174746
 H          1.2229164780       -0.9021525810        2.5889671954
 H          4.8646140151       -1.3876733544        1.6055093600
 H          4.7005410432        0.2237268826        2.3004068012
 H          4.9014375746        0.0405404927        0.5647267410
  58
        -82.01679554
 C         -3.8498960550        0.1545023104       -1.9285380234
 C         -3.0342584722       -1.0513289252       -1.4598982920
 C         -1.9886709702       -1.3591477906       -2.5342779262
 C         -2.3986303188       -0.7772339834       -0.0676842463
 C         -3.2334809187       -1.3433899077        1.1045987601
 C         -2.5152958862       -1.1301852599        2.4374496647
 C         -4.6201607185       -0.7103390588        1.1846838463
 N         -1.0520742370       -1.3096230425        0.0083523565
 C         -0.8096992824       -2.6528684163        0.0457959967
 C          0.5282772386       -2.8013188241        0.1191421056
 N          1.0791300106       -1.5479435092        0.1168269022
 C          2.5296570777       -1.4270505108        0.1615241597
 C          3.1295731168       -1.2301162577       -1.2532122587
 C          2.6039996755       -2.3041183498       -2.2074839052
 C          2.8819668940        0.1494499424       -1.8480100381
 C          2.9888117206       -0.4207979878        1.2300916448
 C          2.3981787675       -0.8052109449        2.5867455541
 C          4.5104466903       -0.3653174280        1.3261347469
 C          0.1054621311       -0.6031843945        0.0510732589
 Ni         0.0462668431        1.5542127243        0.0773706282
 C         -0.6826445991        2.0469786851       -1.4786347631
 O         -0.9686454485        2.4716656663       -2.5009320457
 C         -0.7232837246        1.9345636122        1.6459493677
 O         -1.0528614207        2.2513783671        2.6933575667
 C          1.5958675949        2.4674553315        0.1261741776
 O          2.3978750908        3.2797111121        0.1713783251
 H         -4.3830129000       -0.0903797394       -2.8447188793
 H         -3.1890558482        0.9919332658       -2.1356578335
 H         -4.5759493818        0.4715200119       -1.1879777777
 H         -3.7003211034       -1.9178601386       -1.3742586605
 H         -1.2348130877       -0.5745958308       -2.5653047143
 H         -2.4723907168       -1.4046056044       -3.5072334570
 H         -1.4925729537       -2.3118388368       -2.3631679064
 H         -2.3035310391        0.3095558995        0.0623092041
 H         -3.3650126249       -2.4207905181        0.9509018235
 H         -3.1019881967       -1.5566528533        3.2478471478
 H         -2.3895740016       -0.0685053493        2.6314975439
 H         -1.5351698514       -1.6008458123        2.4496269258
 H         -5.2288030221       -0.9689509114        0.3232127244
 H         -4.5418742598        0.3721560708        1.2550159451
 H         -5.1330360927       -1.0702170022        2.0741263806
 H         -1.5858551089       -3.3882170444        0.0180174267
 H          1.1196391643       -3.6916934758        0.1772129104
 H          2.8828558892       -2.4129572453        0.4968428895
 H          4.2091703582       -1.3798876310       -1.1519544230
 H          2.7632317269       -3.3025635895       -1.8048458498
 H          3.1264623473       -2.2385250253       -3.1588039252
 H          1.5416445485       -2.1684328569       -2.3979379062
 H          3.4146301879        0.9179486144       -1.2950787455
 H          1.8180980519        0.3846391366       -1.8362247898
 H          3.2276323672        0.1757920743       -2.8791310147
 H          2.6073421115        0.5680722951        0.9663450221
 H          2.7409139443       -0.1125968163        3.3511497688
 H          2.7041443363       -1.8105851009        2.8728407018
 H          1.3117813454       -0.7624529408        2.5617261229
 H          4.9211463356       -1.3588582213        1.4988504219
 H          4.8008187740        0.2711789215        2.1585652802
 H          4.9554710279        0.0431655560        0.4234142422
  58
        -82.01677603
 C         -4.8925285105       -0.5636126702       -0.9144101493
 C         -3.4738149270       -1.0844277810       -1.1329502487
 C         -2.8907843886       -0.4638245861       -2.4032019148
 C         -2.5715934916       -0.7376466924        0.0663534444
 C         -3.0527868704       -1.2515342528        1.4443400290
 C         -3.3189013990       -2.7537945940        1.5133637432
 C         -2.0464292950       -0.8579924998        2.5259076068
 N         -1.2023059880       -1.1293720595       -0.1886530503
 C         -0.8139697529       -2.3919237315       -0.5364388582
 C          0.5340598156       -2.3729694899       -0.6473146605
 N          0.9379520491       -1.0983084659       -0.3695010286
 C          2.3217962235       -0.6553684596       -0.3183785197
 C          2.8666352961       -0.9089792186        1.1116400162
 C          2.9159388336       -2.3623616632        1.5787847751
 C          4.2135440310       -0.2268587347        1.3341797850
 C          3.0903346858       -1.1206207382       -1.5806791042
 C          3.9758608025        0.0114626261       -2.1071940636
 C          3.9269452667       -2.3935300963       -1.4661514972
 C         -0.1294509312       -0.3128317608       -0.0930406747
 Ni        -0.0653277994        1.7961351079        0.1687091933
 C          0.4801155285        2.2552450263       -1.4650890362
 O          0.7776579728        2.4508892007       -2.5509105980
 C         -1.6583419762        2.5326473725        0.5461208366
 O         -2.5844192236        3.1554771443        0.7941785445
 C          1.0176583258        2.1297269009        1.5512104552
 O          1.6363442311        2.4075511109        2.4700916201
 H         -5.3843790196       -1.0732098690       -0.0905602711
 H         -5.4867796660       -0.7235070794       -1.8110870148
 H         -4.8752975562        0.5033198635       -0.7035687521
 H         -3.5163646884       -2.1700293773       -1.2658595258
 H         -2.7826263805        0.6121368954       -2.2814061318
 H         -3.5471178440       -0.6505806295       -3.2497084532
 H         -1.9125482285       -0.8783409605       -2.6355698441
 H         -2.5462305488        0.3578412776        0.1393315730
 H         -3.9907448304       -0.7283243799        1.6524838794
 H         -4.0235139791       -3.0733087887        0.7499337004
 H         -3.7443776655       -2.9982600507        2.4843431807
 H         -2.3966782592       -3.3196499998        1.4052021276
 H         -1.7710290596        0.1916408850        2.4361641034
 H         -1.1385184304       -1.4527482214        2.4462780571
 H         -2.4723178887       -1.0206217292        3.5128930780
 H         -1.5029980140       -3.1934552922       -0.6979608435
 H          1.2087392430       -3.1565154799       -0.9187832142
 H          2.2597382976        0.4411118367       -0.3949992788
 H          2.1364623540       -0.4005226091        1.7568339188
 H          1.9794012248       -2.8756332224        1.3737141096
 H          3.0717340194       -2.3782445190        2.6558844823
 H          3.7301549425       -2.9128861178        1.1199630509
 H          5.0060093674       -0.7146203636        0.7736115081
 H          4.4738301599       -0.2699986502        2.3894240615
 H          4.1677973780        0.8188029228        1.0394435223
 H          2.3201983582       -1.3014222553       -2.3422267013
 H          4.7588420978        0.2590793983       -1.3965508913
 H          3.3875160254        0.9057420084       -2.2981766308
 H          4.4457880202       -0.2884162114       -3.0412690771
 H          4.3108178546       -2.6510371047       -2.4519440270
 H          3.3484465035       -3.2388116561       -1.1059043794
 H          4.7788099038       -2.2459104877       -0.8090493887
  58
        -82.01659721
 C         -4.0226049738       -0.0304643465       -2.1176229248
 C         -2.9943239736       -1.0968498802       -1.7368756686
 C         -1.8951942150       -1.0813182797       -2.8026497390
 C         -2.4289874386       -0.8381294970       -0.3147839755
 C         -3.1709914909       -1.5839510829        0.8182020302
 C         -2.5398853312       -1.2343595567        2.1667011226
 C         -4.6611340973       -1.2606610881        0.8700471057
 N         -1.0242318729       -1.1867868289       -0.2416247206
 C         -0.5688716741       -2.4713251403       -0.3384473426
 C          0.7738627475       -2.4248834010       -0.1903031197
 N          1.1097437554       -1.1140082093       -0.0023686309
 C          2.4495591933       -0.6126885326        0.2285476806
 C          3.1251240435       -1.2236397184        1.4807559821
 C          2.1425605784       -1.1586527440        2.6526485758
 C          3.7079930023       -2.6324292216        1.3867006959
 C          3.2470852594       -0.5470915896       -1.0987290218
 C          4.6483179839        0.0115422380       -0.8613374256
 C          3.3088941114       -1.8383683246       -1.9126331419
 C          0.0029640684       -0.3332582342       -0.0429107876
 Ni        -0.1033643109        1.7780518629        0.1686134886
 C         -1.4073488761        2.4505990402       -0.8568115096
 O         -2.1439397345        3.0216158773       -1.5183643282
 C         -0.3770281883        1.9029113536        1.9212544028
 O         -0.5534158249        1.8988911630        3.0502163661
 C          1.4012209844        2.5378579299       -0.4402988133
 O          2.2872139610        3.1252909234       -0.8592182703
 H         -3.5296684161        0.9295691727       -2.2463792021
 H         -4.7976368424        0.0832649806       -1.3682793208
 H         -4.4975185082       -0.2942911851       -3.0601721346
 H         -3.4772810077       -2.0808347851       -1.7497360524
 H         -1.3008186997       -0.1729417982       -2.7172999082
 H         -2.3480604064       -1.1013132281       -3.7910996569
 H         -1.2306699545       -1.9383365518       -2.7227472907
 H         -2.4809149570        0.2392998279       -0.1097356903
 H         -3.0656227863       -2.6621832142        0.6509948159
 H         -3.0556051145       -1.7556830682        2.9695737572
 H         -2.6153068111       -0.1646253012        2.3484646531
 H         -1.4893990512       -1.5121756739        2.2047503644
 H         -5.1078868824       -1.7539086773        1.7308325515
 H         -5.1784817684       -1.6104874437       -0.0185569362
 H         -4.8158476909       -0.1896945264        0.9780795928
 H         -1.2142983268       -3.3083717268       -0.5059676338
 H          1.4889294137       -3.2178168347       -0.2116176069
 H          2.2916343466        0.4400338003        0.5119438140
 H          3.9576932718       -0.5500739728        1.7094262301
 H          1.3422188334       -1.8860052723        2.5295393013
 H          1.6967216075       -0.1692633654        2.7291468387
 H          2.6554897044       -1.3765490658        3.5861142504
 H          4.2016110701       -2.8647641396        2.3290272371
 H          4.4517295801       -2.7103940350        0.5999246047
 H          2.9406943118       -3.3848019056        1.2299948664
 H          2.7015463149        0.1798229492       -1.7155523734
 H          5.2729337550       -0.6989592405       -0.3266453711
 H          4.6015332617        0.9348857020       -0.2886831281
 H          5.1239981564        0.2294623855       -1.8146406541
 H          3.8808115925       -1.6542930472       -2.8199327293
 H          2.3137641146       -2.1593338137       -2.2107484676
 H          3.7923684293       -2.6456857517       -1.3720338748
  58
        -82.01655230
 C         -2.1639595302        0.1615881866       -2.7200769175
 C         -3.0768549381       -0.7135367291       -1.8622050003
 C         -3.2673431614       -2.0712296406       -2.5353894115
 C         -2.5419594215       -0.7687667376       -0.4115133552
 C         -3.3667673257       -1.6209272284        0.5730028356
 C         -2.7488684336       -1.5279391334        1.9688720523
 C         -4.8171619147       -1.1461777849        0.6240788700
 N         -1.1474075341       -1.1531174963       -0.3686519497
 C         -0.6947847968       -2.4216835288       -0.5975255451
 C          0.6520292989       -2.3871152283       -0.4791945192
 N          0.9912333498       -1.1000987330       -0.1732700245
 C          2.3459049225       -0.6363530236        0.0779467480
 C          2.6921740718       -0.8885847967        1.5684812300
 C          2.7052194302       -2.3418665762        2.0380378924
 C          3.9821696649       -0.1816493173        1.9755642036
 C          3.2904901423       -1.0803992019       -1.0679477240
 C          4.2165776870        0.0718635136       -1.4649513125
 C          4.1287065303       -2.3374306629       -0.8437007230
 C         -0.1148993818       -0.3232858245       -0.0974520233
 Ni        -0.1222079466        1.7696805055        0.2827689321
 C         -1.7679592847        2.4250947551        0.5658238621
 O         -2.7371351646        2.9806327609        0.8098743986
 C          0.7857391378        2.0735553061        1.7977201304
 O          1.2696434390        2.3753204067        2.7872630813
 C          0.6203493738        2.3433187713       -1.2300624710
 O          1.0827806183        2.6144949247       -2.2393825463
 H         -2.6249024576        0.3532978293       -3.6858996809
 H         -1.2065331996       -0.3265693201       -2.8915007339
 H         -1.9750043231        1.1163662661       -2.2319007246
 H         -4.0526272541       -0.2221177643       -1.8046821426
 H         -3.8840357464       -2.7355958539       -1.9355361225
 H         -2.3104583652       -2.5500448148       -2.7284039165
 H         -3.7636505380       -1.9291519144       -3.4930756407
 H         -2.5651601111        0.2638226022       -0.0388830502
 H         -3.3524743498       -2.6692664954        0.2583713334
 H         -1.7413277833       -1.9368955277        1.9863803575
 H         -3.3509945877       -2.0821544001        2.6848192687
 H         -2.6987808963       -0.4898465258        2.2908194509
 H         -4.8596543667       -0.0840602634        0.8546751210
 H         -5.3544633989       -1.6846398039        1.4013405702
 H         -5.3291728112       -1.3187948353       -0.3184403072
 H         -1.3424865233       -3.2465466816       -0.8050123925
 H          1.3702149091       -3.1683189995       -0.6083518313
 H          2.2760955169        0.4594207611       -0.0030765464
 H          1.8700703930       -0.3977849353        2.1081155265
 H          2.7339022880       -2.3561590141        3.1260152061
 H          3.5742910930       -2.8820302782        1.6784359443
 H          1.8050940030       -2.8661006615        1.7262275824
 H          3.9584999503        0.8636513078        1.6768744295
 H          4.8536470723       -0.6533909089        1.5304213576
 H          4.0946866499       -0.2221594287        3.0567115029
 H          2.6360701885       -1.2727732341       -1.9285164289
 H          4.8906898278        0.3296222610       -0.6534581489
 H          3.6417300315        0.9558996421       -1.7304631043
 H          4.8149992370       -0.2126121562       -2.3276483992
 H          3.5220827983       -3.1971933269       -0.5757588597
 H          4.8754317815       -2.1796246763       -0.0712470394
 H          4.6538325814       -2.5781096463       -1.7666338456
  58
        -82.01642409
 C         -4.5529726045       -0.1341582418        0.7898682819
 C         -3.0404512005       -0.3006960355        0.8990964138
 C         -2.6732316024       -0.6898840383        2.3316681741
 C         -2.5045359674       -1.3711144653       -0.0658898226
 C         -2.9882814052       -1.2661812838       -1.5342110606
 C         -2.5909501597        0.0320238749       -2.2231871389
 C         -2.4915573938       -2.4581502217       -2.3545198920
 N         -1.0539812572       -1.4904754094        0.0060682296
 C         -0.5097456937       -2.7465323337        0.0137166162
 C          0.8309386818       -2.6046635483        0.0101141955
 N          1.0833205554       -1.2629809895        0.0193850330
 C          2.4307936767       -0.7335040280       -0.0218196439
 C          3.2147733039       -0.9914783300        1.2876982059
 C          2.4275696451       -0.4545760063        2.4809531260
 C          3.6196710078       -2.4409384149        1.5527100869
 C          3.1415119526       -1.1966957557       -1.3116828212
 C          2.2706863835       -0.8848450833       -2.5296394833
 C          4.4965828159       -0.5096560967       -1.4657143404
 C         -0.0732549649       -0.5486649917        0.0079214139
 Ni        -0.0867744910        1.6183178432        0.1708170886
 C         -0.1671142979        1.7998419019        1.9420882232
 O         -0.3067663428        1.9036580591        3.0708452991
 C          1.3100239892        2.3199109799       -0.7131934457
 O          2.0710494110        2.9214899558       -1.3196087376
 C         -1.4491499678        2.5224049765       -0.5799804366
 O         -2.1323293608        3.3500826016       -0.9709195946
 H         -4.8432705401        0.3013570863       -0.1618975922
 H         -4.9019531523        0.5279392236        1.5787782025
 H         -5.0561781677       -1.0930068390        0.9048222332
 H         -2.5567726740        0.6526378915        0.6665164164
 H         -2.9913275390        0.0852261009        3.0240722599
 H         -1.5980632449       -0.8137389355        2.4382921761
 H         -3.1606080778       -1.6222920227        2.6138772642
 H         -2.8870315135       -2.3346487616        0.3015709707
 H         -4.0801401868       -1.3277078963       -1.5019837011
 H         -1.5182203023        0.2000830840       -2.1398804296
 H         -3.1114235712        0.8780158516       -1.7847197380
 H         -2.8504039187       -0.0128211470       -3.2787291109
 H         -2.7691341370       -3.4017210651       -1.8885716712
 H         -1.4105088815       -2.4301022608       -2.4722308932
 H         -2.9368523794       -2.4310792074       -3.3462488065
 H         -1.1065722242       -3.6348895034        0.0284063562
 H          1.5994448613       -3.3459708617       -0.0174325468
 H          2.3153769823        0.3560183713       -0.0877032499
 H          4.1308260985       -0.3988683953        1.2034137551
 H          3.0178510481       -0.5374411246        3.3903042442
 H          1.5045448924       -1.0136825026        2.6220759944
 H          2.1755595352        0.5925417916        2.3288779269
 H          4.3196824626       -2.4669208162        2.3853909482
 H          4.1117586366       -2.8878248182        0.6926262812
 H          2.7598168406       -3.0457693247        1.8297139129
 H          3.3011787894       -2.2793775342       -1.2761421485
 H          2.7961551369       -1.1511842410       -3.4436433785
 H          2.0335579956        0.1760619070       -2.5664837618
 H          1.3365682442       -1.4410339884       -2.5050683755
 H          4.3804457242        0.5710939808       -1.4259031386
 H          4.9346084854       -0.7687908215       -2.4268547606
 H          5.1916233080       -0.8147638121       -0.6884938977
  58
        -82.01638292
 C         -4.1910406100       -0.4493213695       -2.2043065931
 C         -2.8780757270       -1.1440955077       -1.8508423987
 C         -1.8409474832       -0.8050927669       -2.9248079311
 C         -2.3637713819       -0.7031603847       -0.4648618998
 C         -3.2015456050       -1.1083884559        0.7780084641
 C         -4.2138591216       -0.0258541305        1.1535845030
 C         -3.8989237016       -2.4633949959        0.6756342170
 N         -0.9939374816       -1.1515810991       -0.2828641607
 C         -0.5989503109       -2.4552309455       -0.3803531128
 C          0.7366619025       -2.4778254751       -0.1747504487
 N          1.1316118982       -1.1875711136        0.0397593479
 C          2.4986677350       -0.7636015771        0.2633348280
 C          3.1548896046       -1.5217821779        1.4444664662
 C          3.9453270318       -2.7816067444        1.0940668988
 C          4.0721612768       -0.5582130795        2.2006326141
 C          3.3135684917       -0.6990498510       -1.0527927701
 C          3.0873814036       -1.8672653138       -2.0107912078
 C          2.9943773644        0.6070049028       -1.7813986211
 C          0.0645694043       -0.3546645906       -0.0125466568
 Ni        -0.0677567338        1.7180375803        0.4357183673
 C         -1.0194234128        1.6721476600        1.9462798664
 O         -1.5198646870        1.5956660423        2.9702403810
 C          1.5037459359        2.5025117597        0.8062811859
 O          2.3941871884        3.1633858269        1.0838253928
 C         -0.7437583806        2.4758125891       -1.0302063007
 O         -1.1053783413        2.9761606839       -1.9921170521
 H         -4.4686133914       -0.6874552185       -3.2288973084
 H         -4.0822412237        0.6296674510       -2.1232089310
 H         -5.0038261673       -0.7666148777       -1.5587871070
 H         -3.0400195954       -2.2262792958       -1.8573238997
 H         -0.9220541569       -1.3717041645       -2.7942895581
 H         -1.5971632483        0.2544943517       -2.8942523698
 H         -2.2379944382       -1.0361003398       -3.9104454848
 H         -2.3072138511        0.3945503016       -0.4698898288
 H         -2.4829229564       -1.1686052878        1.6059077320
 H         -3.7279736454        0.9434007832        1.2334228475
 H         -4.6607359775       -0.2597611718        2.1173370794
 H         -5.0112321003        0.0505881004        0.4210782386
 H         -4.6547915666       -2.4643665884       -0.1047749820
 H         -4.3932898938       -2.6820808809        1.6197852464
 H         -3.1925762973       -3.2658991119        0.4807252372
 H         -1.2719554187       -3.2574665419       -0.5963171636
 H          1.4080549314       -3.3080697636       -0.1620031238
 H          2.3991804002        0.2757676899        0.6037628433
 H          2.3402282960       -1.8090097324        2.1205153188
 H          4.7759733059       -2.5534920947        0.4317594115
 H          3.3268640213       -3.5446457622        0.6306444836
 H          4.3549191739       -3.2072209593        2.0080463121
 H          4.5276027155       -1.0578954142        3.0521424906
 H          3.5135731107        0.2986766266        2.5695624477
 H          4.8672707844       -0.1975613762        1.5518377293
 H          4.3711162063       -0.6810930313       -0.7721483169
 H          2.0600340694       -1.8804002150       -2.3681594592
 H          3.3141404970       -2.8247353588       -1.5532804218
 H          3.7381910599       -1.7506617502       -2.8749133884
 H          3.4863199230        0.6338327215       -2.7508031131
 H          3.3334831256        1.4649438938       -1.2058725021
 H          1.9203187794        0.7030619890       -1.9365409638
  58
        -82.01629243
 C         -4.4990042687       -0.6980691285       -1.6356040932
 C         -3.0970266814       -1.2949638158       -1.5344829273
 C         -2.3069925600       -0.8990912453       -2.7844463387
 C         -2.3636848809       -0.8028001510       -0.2709819931
 C         -2.9328054598       -1.2317863262        1.1091838821
 C         -3.9410667271       -0.2179300567        1.6495257880
 C         -3.5216618546       -2.6400465332        1.1496820996
 N         -0.9602803152       -1.1752982986       -0.3264891594
 C         -0.5162006118       -2.4486261154       -0.5420037238
 C          0.8333249104       -2.4100122772       -0.4798778931
 N          1.1867491890       -1.1160846571       -0.2194184214
 C          2.5477844441       -0.6414813884       -0.0726872466
 C          3.1619641034       -1.0066694316        1.3013923753
 C          2.6704490675       -0.0131585137        2.3545198620
 C          2.8705780508       -2.4250897344        1.7878942710
 C          3.4088117027       -0.9680794663       -1.3193259542
 C          4.3857662266        0.1844113766       -1.5618642474
 C          4.1922204726       -2.2793434772       -1.2844345690
 C          0.0821741939       -0.3355224867       -0.1349251687
 Ni        -0.0883550820        1.7577844148        0.1996436403
 C         -1.1128889822        2.3988909691       -1.1197322208
 O         -1.6954472075        2.8725062307       -1.9813926086
 C         -0.7267627052        1.7894815728        1.8619074795
 O         -1.0659145080        1.7526589121        2.9522139390
 C          1.4788514730        2.6255573104        0.0964424066
 O          2.3755325966        3.3317139803        0.0316440820
 H         -4.9385038812       -0.9555452405       -2.5969100038
 H         -4.4563562080        0.3859667209       -1.5607340941
 H         -5.1569962220       -1.0756115778       -0.8593009423
 H         -3.1832774387       -2.3855216543       -1.5107966073
 H         -1.3279857954       -1.3711256069       -2.8131517911
 H         -2.1668544692        0.1787935351       -2.8170349014
 H         -2.8502600008       -1.1996685133       -3.6772983051
 H         -2.3718478501        0.2958495552       -0.2914515500
 H         -2.0746316616       -1.2130346040        1.7941081750
 H         -4.1881397795       -0.4612803707        2.6805490799
 H         -4.8607001834       -0.2159812593        1.0733569936
 H         -3.5215696351        0.7850094195        1.6311130672
 H         -2.7954478249       -3.3851190407        0.8350183929
 H         -4.4036889612       -2.7210963741        0.5204944632
 H         -3.8161315755       -2.8758823688        2.1701001282
 H         -1.1688509757       -3.2730572231       -0.7364480697
 H          1.5414530059       -3.1989287557       -0.6073058205
 H          2.4443682980        0.4516214042       -0.0700510884
 H          4.2457591696       -0.8890776504        1.2052378547
 H          3.0506668974       -0.2792166120        3.3379980921
 H          1.5822480457       -0.0121115182        2.3947819722
 H          3.0034023277        0.9960334855        2.1233167234
 H          3.3768753961       -2.5865760222        2.7374090877
 H          3.2244822620       -3.1794776536        1.0927128783
 H          1.8044298075       -2.5662818019        1.9513502686
 H          2.7188773044       -1.0070838196       -2.1712537675
 H          5.0576797616        0.3026552119       -0.7146878491
 H          3.8522026119        1.1198760688       -1.7112677168
 H          4.9858167817       -0.0081940056       -2.4478739597
 H          4.7529891742       -2.3805705124       -2.2115661063
 H          3.5447587063       -3.1473168639       -1.2016470581
 H          4.9030785321       -2.2909765247       -0.4626978891
  58
        -82.01623177
 C         -3.8267248743        0.2393127365       -2.3670509740
 C         -2.9172540430       -0.9200661131       -1.9573297478
 C         -1.7465962134       -0.9608298222       -2.9426843779
 C         -2.4421554108       -0.7466913156       -0.4895096424
 C         -3.2951147383       -1.4957973218        0.5580551556
 C         -2.7210655682       -1.2534880906        1.9550972280
 C         -4.7588079993       -1.0655453234        0.5367878188
 N         -1.0599435352       -1.1481364238       -0.3340751295
 C         -0.6415917699       -2.4450487989       -0.4310437951
 C          0.6943063546       -2.4438271828       -0.2244955147
 N          1.0636881008       -1.1463518691       -0.0090445125
 C          2.4120011539       -0.6885736560        0.2597267572
 C          2.8243755205       -1.0056395312        1.7201079090
 C          2.6821924824       -2.4591985012        2.1677640253
 C          4.2319892481       -0.4859901090        2.0050967484
 C          3.4017205562       -1.0127759141       -0.8864316617
 C          3.9640067748       -2.4298732496       -0.9837041825
 C          2.7567564502       -0.6345209546       -2.2223012236
 C         -0.0162721916       -0.3305527919       -0.0797489991
 Ni        -0.0488245806        1.7626002059        0.2885111332
 C         -1.5372054293        2.5561225408       -0.3199185423
 O         -2.3909414075        3.2211410218       -0.6879532355
 C          0.0472718327        1.7098761624        2.0642268333
 O          0.0707670211        1.5625712794        3.1969880232
 C          1.2968792547        2.5556100867       -0.5843100603
 O          2.0767560917        3.1643257623       -1.1564050414
 H         -4.2481614834        0.0516285239       -3.3522282203
 H         -3.2491205707        1.1593685819       -2.4165130932
 H         -4.6448682564        0.3874161390       -1.6708705621
 H         -3.4741477868       -1.8605482066       -2.0392641736
 H         -1.1520154558       -1.8653704350       -2.8389785800
 H         -1.0985888572       -0.0988779604       -2.7921436266
 H         -2.1283409621       -0.9274244076       -3.9603666022
 H         -2.4676447116        0.3224714065       -0.2451545704
 H         -3.2548954094       -2.5697643929        0.3421727074
 H         -1.7152209097       -1.6553417021        2.0517906600
 H         -3.3467911735       -1.7283411214        2.7068635383
 H         -2.6818904818       -0.1862052120        2.1638829626
 H         -5.2970369904       -1.5688459155        1.3371883180
 H         -5.2386519598       -1.3266331412       -0.4020000352
 H         -4.8431194711        0.0069618141        0.6960082294
 H         -1.3061669787       -3.2579524648       -0.6380057576
 H          1.3820585371       -3.2608771664       -0.2144383660
 H          2.3282532310        0.4096532750        0.2363379012
 H          2.1288145548       -0.4227615853        2.3382512982
 H          3.2962550442       -3.1353109376        1.5818082918
 H          1.6464895260       -2.7856553518        2.1122070980
 H          2.9961667944       -2.5379373981        3.2067433272
 H          4.3275429916        0.5512578642        1.6925947042
 H          4.9849490176       -1.0759915553        1.4897828513
 H          4.4344012127       -0.5373633456        3.0723123742
 H          4.2529763091       -0.3426720172       -0.7267230638
 H          3.1918079474       -3.1637252432       -1.1949113171
 H          4.4935813132       -2.7177774422       -0.0809615927
 H          4.6763725821       -2.4627924331       -1.8065122220
 H          2.3170845788        0.3591488470       -2.1748772497
 H          1.9725106378       -1.3401262409       -2.4895253531
 H          3.5020778118       -0.6417258654       -3.0137854158
