  40
        -63.02308231
 C          2.9444801422        0.3983029675       -0.9442026400
 C          2.4972007383        1.2739204869        0.2268563338
 C          2.6641843265        0.5701014345        1.5767523785
 C          3.3878186865        2.5213721331        0.2379162509
 N          1.0782505750        1.6333694494        0.0680140515
 C          0.6710017314        2.9314336291       -0.0522797490
 C         -0.6767611221        2.9301687905       -0.0523819699
 N         -1.0815634178        1.6313173907        0.0677924512
 C         -2.4998362022        1.2691975165        0.2265149719
 C         -2.9452541080        0.3924006365       -0.9443684047
 C         -2.6654987859        0.5652869269        1.5765257459
 C         -3.3927232923        2.5150335764        0.2372015083
 C         -0.0008684083        0.8013430375        0.1227759491
 Ni         0.0013633694       -1.3776950423       -0.1546692922
 C          1.3668662670       -2.2945968859        0.5960175977
 O          2.0439093005       -3.1005310010        1.0389456136
 C         -1.3625909994       -2.2969473148        0.5959678599
 O         -2.0383006742       -3.1038388838        1.0391973524
 C          0.0015983144       -1.2892133882       -1.9380234198
 O          0.0018349012       -1.0789816908       -3.0605107735
 H          2.8119884067        0.9326314752       -1.8830089525
 H          2.3600857818       -0.5180281731       -0.9829387073
 H          3.9932810940        0.1364405282       -0.8355782837
 H          2.5005994236        1.2755771358        2.3892240875
 H          3.6652561252        0.1583287466        1.6663414763
 H          1.9409832380       -0.2353159436        1.6760254283
 H          3.3505294349        3.0511610903       -0.7113304335
 H          4.4143920323        2.2009574441        0.3980385155
 H          3.1232128294        3.1994552871        1.0462560363
 H          1.3312893018        3.7656291632       -0.1349989808
 H         -1.3386116041        3.7631206171       -0.1351735775
 H         -2.8141739049        0.9269891360       -1.8832171086
 H         -3.9934278668        0.1281447033       -0.8355143700
 H         -2.3587497947       -0.5225883064       -0.9831860362
 H         -3.6658890119        0.1519119931        1.6662734691
 H         -2.5030306367        1.2712146736        2.3888280486
 H         -1.9409677936       -0.2389330069        1.6759088586
 H         -3.3561739389        3.0447883492       -0.7120884904
 H         -3.1296606327        3.1937083889        1.0455453374
 H         -4.4187185476        2.1926688927        0.3970427387
