  60
        -99.32319714
 C          2.0933754141       -1.8714397636       -2.3836071452
 C          2.3612475690       -0.8752219404       -1.2566733480
 H          2.1445154146        0.1275481912       -1.6462590311
 C          3.7660275158       -0.8831685141       -0.6906042325
 C          4.6649935441       -1.8669960209       -1.0133186662
 C          5.9575507705       -1.8856118565       -0.4695964970
 C          6.3461660291       -0.9171801553        0.4084470444
 C          5.4581570474        0.1165792255        0.7713721910
 C          5.8539740340        1.1229755125        1.6770274609
 C          4.9989325516        2.1281598723        2.0276550137
 C          3.7103560715        2.1674956239        1.4776539006
 C          3.2951164515        1.2067861241        0.5976424360
 C          4.1487703829        0.1467636675        0.2171607528
 N          1.4149411183       -1.1213628602       -0.1814072816
 C          1.5737963095       -2.1384105107        0.7155969845
 C          0.5131648121       -2.0894768598        1.5534667660
 N         -0.2623953742       -1.0403088208        1.1473965295
 C         -1.5190483118       -0.6299412495        1.7469772476
 H         -1.4993069286        0.4657549773        1.7413768380
 C         -1.6584162954       -1.1176424197        3.1878947987
 C         -2.6949452038       -1.1091378440        0.9155907570
 C         -2.6126415163       -2.3117774220        0.2600891561
 C         -3.6700349670       -2.7927018269       -0.5221073975
 C         -4.8162164921       -2.0624558054       -0.6428391380
 C         -4.9543593802       -0.8298436870        0.0273596373
 C         -6.1377975221       -0.0718350934       -0.0935754671
 C         -6.2772063727        1.1226192419        0.5526177773
 C         -5.2340765685        1.6047942556        1.3551901627
 C         -4.0745256791        0.8940374428        1.4929718273
 C         -3.8875114019       -0.3396911941        0.8307585386
 C          0.2811947582       -0.4331862140        0.0659571616
 Ni        -0.5836006915        1.1584348751       -1.0187410534
 C         -2.0475762928        0.4166710481       -1.7254313075
 O         -2.9471215944       -0.0431053671       -2.2557333246
 C         -0.8946084507        2.4565820558        0.1627485404
 O         -1.0933888189        3.3189001949        0.8861384178
 C          0.4699237388        1.7575728343       -2.3427871075
 O          1.0020099175        2.2536241375       -3.2246544008
 H          2.1812924116       -2.8988948886       -2.0371890989
 H          2.7824656166       -1.7063075082       -3.2070287540
 H          1.0781821696       -1.7186284393       -2.7460735489
 H          4.3932754780       -2.6525367284       -1.7006367415
 H          6.6356621996       -2.6771525511       -0.7526762946
 H          7.3376887211       -0.9247490756        0.8377032455
 H          6.8533061810        1.0812497425        2.0867879935
 H          5.3082809300        2.8960820924        2.7213131510
 H          3.0398813551        2.9689374624        1.7510891984
 H          2.2952761568        1.2781837394        0.1942189745
 H          2.4192178086       -2.7946152167        0.6958013492
 H          0.2718386211       -2.7116756085        2.3887582432
 H         -1.7984907245       -2.1958455170        3.2237377944
 H         -2.5347391391       -0.6542777085        3.6339741609
 H         -0.7832698858       -0.8447724184        3.7744412817
 H         -1.7111286181       -2.9049230288        0.3284310020
 H         -3.5619081072       -3.7387177113       -1.0319729153
 H         -5.6344025036       -2.4149385868       -1.2540280255
 H         -6.9336636446       -0.4581598145       -0.7144286250
 H         -7.1839700708        1.7005650271        0.4514888399
 H         -5.3509082787        2.5492392813        1.8664859375
 H         -3.2952499823        1.2948714179        2.1226254346
  60
        -99.32319158
 C          2.1898507889       -1.5559658811       -2.6042732404
 C          1.7967813626       -0.6974651958       -1.4031877764
 H          1.4915376298        0.2941949059       -1.7567390707
 C          2.9762134678       -0.5441501498       -0.4604478437
 C          3.1410414914       -1.4357594181        0.5692330101
 C          4.2135524203       -1.3304001496        1.4637355696
 C          5.1268592785       -0.3272756853        1.3188337010
 C          5.0091210843        0.6020352862        0.2651799198
 C          5.9511629855        1.6404914560        0.1107601975
 C          5.8407307107        2.5449618044       -0.9058542860
 C          4.7793722221        2.4421359621       -1.8155946730
 C          3.8501967196        1.4468619164       -1.6935967883
 C          3.9253481541        0.4973989569       -0.6503410096
 N          0.6403650385       -1.2292134331       -0.7057238958
 C          0.2169480450       -2.5281651363       -0.7338146457
 C         -0.8740442166       -2.6006245358        0.0623117235
 N         -1.0843507369       -1.3459394744        0.5582978538
 C         -2.1702675859       -1.0418212925        1.4752375953
 H         -2.2658971423        0.0510820432        1.5017110996
 C         -1.7724570494       -1.5007841951        2.8771231840
 C         -3.4560254389       -1.6285575407        0.9304380097
 C         -4.0924974401       -2.6694112390        1.5563456328
 C         -5.2699571203       -3.2269577828        1.0372879948
 C         -5.8058380980       -2.7430967920       -0.1196740416
 C         -5.1887869551       -1.6731943443       -0.8004586605
 C         -5.7385714233       -1.1658760422       -1.9963376357
 C         -5.1467751041       -0.1272733283       -2.6562844787
 C         -3.9791773664        0.4497777606       -2.1383804107
 C         -3.4202242632       -0.0189555163       -0.9818189125
 C         -3.9993246206       -1.0970996988       -0.2752277680
 C         -0.1535677404       -0.4841241406        0.0990803976
 Ni         0.1377691235        1.5530881013        0.5684395630
 C         -1.1200441328        2.2036461476        1.6710363526
 O         -1.8204433717        2.7686858085        2.3758051093
 C          1.7022233308        1.5644883840        1.4347564818
 O          2.6474344029        1.6089281314        2.0721972289
 C          0.1198760168        2.4082138997       -0.9952546091
 O          0.0899478978        2.9762868348       -1.9866468511
 H          1.3300492313       -1.7384856103       -3.2459894676
 H          2.6123810469       -2.5058561729       -2.2839416483
 H          2.9491449424       -1.0327053668       -3.1797564491
 H          2.4266502787       -2.2343602893        0.7139028714
 H          4.3016289647       -2.0451465050        2.2687106280
 H          5.9523881032       -0.2273778574        2.0085794074
 H          6.7636948279        1.7062268711        0.8203875612
 H          6.5628282938        3.3405665676       -1.0156208254
 H          4.6970819173        3.1603734387       -2.6183578357
 H          3.0481229530        1.3984931652       -2.4138236328
 H          0.7001794227       -3.2927960783       -1.3038319099
 H         -1.5129353650       -3.4261405537        0.2990736170
 H         -1.5507761413       -2.5655266942        2.9005593421
 H         -2.5646027720       -1.2798739318        3.5869394525
 H         -0.8773303282       -0.9588538535        3.1777395751
 H         -3.6971696492       -3.0820157580        2.4711190319
 H         -5.7411761185       -4.0440549291        1.5634228620
 H         -6.7095145109       -3.1686940484       -0.5315985354
 H         -6.6430419742       -1.6179593680       -2.3782663119
 H         -5.5732276434        0.2571168265       -3.5711297568
 H         -3.5187570760        1.2766095092       -2.6589329935
 H         -2.5225404275        0.4581638660       -0.6155479167
  60
        -99.32317603
 C          1.8934665673       -1.6288168047       -2.7224844497
 C          1.6561716086       -0.7434808656       -1.4997257463
 H          1.3437780977        0.2535451563       -1.8329334075
 C          2.9331263444       -0.6128694678       -0.6900174669
 C          3.1695551280       -1.4711927056        0.3535146687
 C          4.3360463701       -1.3828313314        1.1239626133
 C          5.2712959359       -0.4312349904        0.8398854856
 C          5.0792819167        0.4638483874       -0.2323242803
 C          6.0426004780        1.4503892152       -0.5295033811
 C          5.8596321005        2.3234634994       -1.5629477690
 C          4.6995612021        2.2411416505       -2.3452593569
 C          3.7476268774        1.2953972031       -2.0838490525
 C          3.8984364937        0.3775468623       -1.0207039554
 N          0.5633511640       -1.2321690990       -0.6798680525
 C          0.1345679721       -2.5279885386       -0.6111365107
 C         -0.8847490840       -2.5555287232        0.2773768260
 N         -1.0478203539       -1.2776134655        0.7302096268
 C         -2.0536086519       -0.9217066605        1.7174961070
 H         -2.1461770633        0.1716408026        1.6955863552
 C         -1.5419552229       -1.3114724300        3.1032601554
 C         -3.3803975721       -1.5289993815        1.3110731106
 C         -3.9636246571       -2.5341606726        2.0388780394
 C         -5.1790434396       -3.1130021388        1.6459377782
 C         -5.8068497966       -2.6871875552        0.5126182346
 C         -5.2476444373       -1.6554511844       -0.2694859916
 C         -5.8921517822       -1.2079676384       -1.4417085121
 C         -5.3562738949       -0.2062274821       -2.1992175296
 C         -4.1518622837        0.3935051138       -1.8064651302
 C         -3.5015977715       -0.0174641849       -0.6759985689
 C         -4.0203200966       -1.0571880445        0.1282440887
 C         -0.1558332850       -0.4453590080        0.1543784412
 Ni         0.1722798503        1.6120723896        0.4866951898
 C         -0.1255696497        2.3702277166       -1.0983355802
 O         -0.3491536262        2.8505746546       -2.1110892832
 C         -0.8996322128        2.2887392133        1.7562065422
 O         -1.4818421888        2.8618224843        2.5553892340
 C          1.8498544635        1.6949082395        1.1058407284
 O          2.8709051289        1.7989776579        1.6036961264
 H          2.3276877825       -2.5839001537       -2.4350420884
 H          2.5945949544       -1.1337254464       -3.3892471706
 H          0.9625977971       -1.8004651598       -3.2594943802
 H          2.4423867755       -2.2297881402        0.6074809101
 H          4.4795300653       -2.0703811817        1.9445112715
 H          6.1710735214       -0.3461262197        1.4318429487
 H          6.9307272181        1.5020066433        0.0842145351
 H          6.5990615308        3.0794641963       -1.7823482636
 H          4.5585986281        2.9363723754       -3.1600379978
 H          2.8670100474        1.2635352627       -2.7066023621
 H          0.5649357978       -3.3212530774       -1.1844720165
 H         -1.5039985445       -3.3644385080        0.6058804749
 H         -1.3211863427       -2.3750169874        3.1622565866
 H         -2.2721897217       -1.0501893503        3.8639558183
 H         -0.6238209304       -0.7608665605        3.3011051200
 H         -3.4950592050       -2.9014646277        2.9382362143
 H         -5.6059016532       -3.9002072217        2.2497569216
 H         -6.7405906970       -3.1300990047        0.1973668282
 H         -6.8239137899       -1.6761048664       -1.7262667290
 H         -5.8551318602        0.1322020199       -3.0953967895
 H         -3.7362180871        1.1920581126       -2.4032508733
 H         -2.5789973523        0.4759785577       -0.4060675998
  60
        -99.32305986
 C          1.3332443173       -1.1907785941       -2.7375609690
 C          1.8827277151       -0.5146936777       -1.4815171814
 H          1.9730932408        0.5589843132       -1.6988236289
 C          3.2230248524       -1.0319819334       -0.9991269056
 C          3.8178080315       -2.1248239790       -1.5762487700
 C          5.0547141274       -2.6103776639       -1.1280260620
 C          5.6968835494       -2.0001568578       -0.0913601936
 C          5.1266924598       -0.8737732438        0.5368342886
 C          5.7855767770       -0.2356087270        1.6084510157
 C          5.2399084960        0.8570552553        2.2188602930
 C          4.0077711223        1.3563395971        1.7754678995
 C          3.3437251975        0.7597242790        0.7398586551
 C          3.8744685364       -0.3737327727        0.0845591667
 N          0.8995754165       -0.6492072220       -0.4190083369
 C          0.7771936583       -1.7843474945        0.3302267156
 C         -0.2587846004       -1.5826842555        1.1744926359
 N         -0.7448279056       -0.3336876586        0.9097871523
 C         -1.8511447007        0.2468650188        1.6544292456
 H         -2.2379654020        1.0808777166        1.0537304120
 C         -1.3083217124        0.8267421608        2.9599109653
 C         -2.9475147086       -0.7878285940        1.8054913352
 C         -3.2813679128       -1.3098045635        3.0287974855
 C         -4.2810832299       -2.2845089912        3.1612742003
 C         -4.9421334246       -2.7448101449        2.0607177153
 C         -4.6360521169       -2.2386863964        0.7805502785
 C         -5.3151507515       -2.7061747951       -0.3640802215
 C         -5.0242479609       -2.2138995530       -1.6041394973
 C         -4.0423063155       -1.2237824659       -1.7462155513
 C         -3.3659470864       -0.7507379436       -0.6564110873
 C         -3.6312679286       -1.2424585250        0.6408824339
 C         -0.0349850167        0.2628372640       -0.0724037900
 Ni        -0.3393119337        2.1687144083       -0.9540571772
 C         -1.2081143542        1.7400828489       -2.4494108714
 O         -1.7592678213        1.4166740206       -3.3963906589
 C         -1.2489501796        3.2185848141        0.1777713306
 O         -1.7672330970        3.9898639773        0.8417071594
 C          1.2322593039        2.9798257573       -1.2507668643
 O          2.1547199920        3.6225239745       -1.4499377831
 H          2.0319152457       -1.0857829663       -3.5626791054
 H          0.3996511819       -0.7048209252       -3.0142897589
 H          1.1289636150       -2.2449611234       -2.5630878839
 H          3.3426247464       -2.6376018813       -2.3970953989
 H          5.4875489359       -3.4724941579       -1.6136229261
 H          6.6492126824       -2.3667823521        0.2635312361
 H          6.7366696726       -0.6316925356        1.9351803902
 H          5.7503423305        1.3419321958        3.0378588016
 H          3.5812300261        2.2239644737        2.2571800623
 H          2.3981575583        1.1758019822        0.4279609769
 H          1.4313879816       -2.6228273443        0.2098630435
 H         -0.6891911597       -2.2179547005        1.9205391723
 H         -0.8201435279        0.0621106092        3.5602082084
 H         -2.1089178093        1.2844758324        3.5341473553
 H         -0.5717181459        1.5921611004        2.7220093033
 H         -2.7776042215       -0.9771298261        3.9224108014
 H         -4.5148907446       -2.6666493392        4.1440004646
 H         -5.7092594735       -3.5002372820        2.1512342898
 H         -6.0752277405       -3.4639794902       -0.2365348537
 H         -5.5483379893       -2.5762278416       -2.4761938029
 H         -3.8226912958       -0.8295240963       -2.7275446173
 H         -2.6223398482        0.0180018592       -0.8034069893
  60
        -99.32256590
 C          3.1573993690       -1.2886227889       -2.2044608876
 C          2.5136677791       -0.5251663569       -1.0478598379
 H          2.0695747003        0.3921019431       -1.4565921169
 C          3.4502001755       -0.1464053571        0.0828182275
 C          4.7231000046       -0.6507346710        0.1621136846
 C          5.5772228319       -0.3224906489        1.2250999257
 C          5.1502640307        0.5095290688        2.2177908720
 C          3.8522476021        1.0593872344        2.1790269867
 C          3.4043389013        1.9302781336        3.1943417658
 C          2.1546472653        2.4792859044        3.1490517091
 C          1.3000930698        2.1762169340        2.0804294285
 C          1.7003705156        1.3247474909        1.0889042692
 C          2.9842846880        0.7370551304        1.0996417786
 N          1.4241477791       -1.3235176267       -0.5069113443
 C          1.6632577344       -2.3644399372        0.3437434630
 C          0.4591736836       -2.8788925835        0.6700310412
 N         -0.4840054311       -2.1352427091        0.0130949644
 C         -1.9023370196       -2.4303227795        0.1752391494
 H         -1.9859179240       -2.9871289901        1.1206766110
 C         -2.3325539640       -3.3702025280       -0.9514129431
 C         -2.7357113306       -1.1718264106        0.3336067790
 C         -3.8090827490       -0.9191232538       -0.4833905153
 C         -4.6052750484        0.2235403906       -0.3204770198
 C         -4.3314424587        1.1152759894        0.6735883975
 C         -3.2593345629        0.8857159617        1.5600591488
 C         -2.9820824105        1.7963798538        2.6007787872
 C         -1.9574985091        1.5758299837        3.4756867668
 C         -1.1741864013        0.4212880763        3.3472279946
 C         -1.4143079098       -0.4763359822        2.3443162352
 C         -2.4510965994       -0.2748386294        1.4056674671
 C          0.0990315801       -1.1738033413       -0.7394051606
 Ni        -0.7472510828        0.2484228073       -2.0668302114
 C         -1.2532919871        1.5932447250       -1.0157137920
 O         -1.5622796586        2.4777482707       -0.3636962324
 C          0.4596614868        0.7212989619       -3.3114589711
 O          1.0804725715        1.0650892551       -4.2076846881
 C         -2.1045083939       -0.4612268059       -2.9910999888
 O         -2.9437158861       -0.7539293449       -3.7091722557
 H          3.5333011728       -2.2571356524       -1.8819090310
 H          3.9695354443       -0.7097153976       -2.6353120721
 H          2.4062808097       -1.4570000161       -2.9740935556
 H          5.0980220797       -1.3154966680       -0.5999802471
 H          6.5727744298       -0.7407825153        1.2471073132
 H          5.7984536637        0.7637345807        3.0440556547
 H          4.0778005015        2.1587668830        4.0084797675
 H          1.8207543688        3.1497803218        3.9272894584
 H          0.3161454997        2.6189514945        2.0401204164
 H          1.0116572895        1.1126071743        0.2855174838
 H          2.6504314391       -2.6396637399        0.6521403621
 H          0.2022459661       -3.6980692121        1.3109274468
 H         -3.3608913358       -3.6914710220       -0.8137889863
 H         -1.6933294847       -4.2518398287       -0.9440793403
 H         -2.2256577324       -2.8822618191       -1.9165347478
 H         -4.0687983735       -1.6027224313       -1.2750188521
 H         -5.4311063995        0.3879163692       -0.9968561778
 H         -4.9297856165        2.0059196774        0.8008281230
 H         -3.6020407389        2.6772927588        2.6892584443
 H         -1.7484360577        2.2786753757        4.2689293306
 H         -0.3702749271        0.2428716427        4.0468083708
 H         -0.7910842190       -1.3541644148        2.2879198416
  60
        -99.32255162
 C          3.1853854419       -1.2785083293       -2.2006457622
 C          2.5180463096       -0.5257521568       -1.0505590840
 H          2.0775755009        0.3922750126       -1.4610458321
 C          3.4325117128       -0.1515379440        0.0998959623
 C          4.7017267781       -0.6604725944        0.2046053290
 C          5.5339124409       -0.3391279848        1.2869319973
 C          5.0884710552        0.4904889256        2.2735138941
 C          3.7935468316        1.0450985260        2.2089044475
 C          3.3268155889        1.9137958903        3.2176368754
 C          2.0804321262        2.4676509051        3.1474476024
 C          1.2482040199        2.1717597209        2.0594193317
 C          1.6668966744        1.3224490807        1.0737512702
 C          2.9479794418        0.7298239130        1.1098365603
 N          1.4227934062       -1.3313113864       -0.5322663518
 C          1.6547268660       -2.3850888745        0.3046180734
 C          0.4473647636       -2.8973238670        0.6219756187
 N         -0.4906080410       -2.1393589210       -0.0258896624
 C         -1.9116899552       -2.4175257733        0.1415406941
 H         -1.9962518198       -2.9898352096        1.0775182264
 C         -2.3669221587       -3.3307044740       -0.9968975417
 C         -2.7223151595       -1.1482525941        0.3305719930
 C         -3.7904008286       -0.8553115572       -0.4797884383
 C         -4.5670984881        0.2960642110       -0.2863278170
 C         -4.2784051552        1.1562945290        0.7310381384
 C         -3.2087182571        0.8866498331        1.6091811996
 C         -2.9149664252        1.7656923640        2.6723228701
 C         -1.8919865511        1.5068318293        3.5385905869
 C         -1.1269413793        0.3441564403        3.3781264271
 C         -1.3842196404       -0.5240556560        2.3538182855
 C         -2.4201527063       -0.2827863085        1.4236547202
 C          0.0989762902       -1.1715706500       -0.7651415717
 Ni        -0.7376928946        0.2584255347       -2.0912252034
 C         -1.2600289286        1.5950187549       -1.0377043726
 O         -1.5872010925        2.4699188791       -0.3816562034
 C          0.4818322234        0.7331007566       -3.3228601773
 O          1.1130659001        1.0750583104       -4.2124826925
 C         -2.0895745830       -0.4420177445       -3.0305537850
 O         -2.9264737661       -0.7219461949       -3.7565192203
 H          4.0048741226       -0.6945964428       -2.6103354422
 H          2.4499813549       -1.4415081477       -2.9863889850
 H          3.5567763587       -2.2491682020       -1.8794525968
 H          5.0907146470       -1.3236364312       -0.5518617953
 H          6.5273237113       -0.7609755403        1.3287959711
 H          5.7194958047        0.7391141353        3.1146394533
 H          3.9834016192        2.1368498633        4.0469431068
 H          1.7322033844        3.1366186112        3.9206682648
 H          0.2670988041        2.6185060896        1.9994397721
 H          0.9949171849        1.1156828518        0.2549534103
 H          2.6397351294       -2.6698359315        0.6112418281
 H          0.1849283806       -3.7241575103        1.2507294892
 H         -2.2547946156       -2.8307303390       -1.9551175251
 H         -3.4011166052       -3.6322597693       -0.8584487489
 H         -1.7461982046       -4.2254259674       -1.0062797039
 H         -4.0617830921       -1.5137085278       -1.2886917424
 H         -5.3903248276        0.4920814442       -0.9574270539
 H         -4.8623373365        2.0526342350        0.8827918317
 H         -3.5206711732        2.6537810816        2.7847941548
 H         -1.6698097478        2.1857593574        4.3488492814
 H         -0.3237815776        0.1357518541        4.0702002105
 H         -0.7749362542       -1.4097200513        2.2734886837
  60
        -99.32145560
 C          3.0402011760       -2.6923987241       -1.6614148339
 C          2.2689709577       -1.5033604775       -1.0918575860
 H          1.8877184794       -0.8907769505       -1.9180111227
 C          3.1829430877       -0.6539754375       -0.2244748035
 C          3.2410754189       -0.8814766906        1.1273631417
 C          4.0538619807       -0.1082603066        1.9660947238
 C          4.8126285376        0.8975417485        1.4433735495
 C          4.8116130688        1.1470706815        0.0558590914
 C          5.6112175415        2.1707199523       -0.4944367718
 C          5.6322536592        2.4010165504       -1.8399192517
 C          4.8544575341        1.6067846929       -2.6936197286
 C          4.0633699718        0.6118971481       -2.1907251920
 C          4.0016628769        0.3538207991       -0.8031302003
 N          1.1004953158       -1.9179849484       -0.3355048806
 C          0.8442443192       -3.1811610483        0.1174308189
 C         -0.2977017423       -3.1148064971        0.8406081634
 N         -0.7025107238       -1.8099247325        0.8233900225
 C         -1.8824702153       -1.2889890568        1.4858622311
 H         -1.6300606022       -0.2507145174        1.7407271481
 C         -2.1878702586       -2.0643248894        2.7688874210
 C         -3.0931496305       -1.2930897714        0.5708182940
 C         -3.1824492599       -2.1991362498       -0.4542722015
 C         -4.2977297754       -2.2394786323       -1.3016833927
 C         -5.3306767398       -1.3690459415       -1.1137392724
 C         -5.2866546307       -0.4220664585       -0.0700787624
 C         -6.3495821627        0.4841103538        0.1266399709
 C         -6.3095945849        1.4082575226        1.1305689521
 C         -5.1960778608        1.4634491689        1.9799049391
 C         -4.1511104817        0.5971341204        1.8173860953
 C         -4.1567990388       -0.3750516245        0.7922302114
 C          0.1484513139       -1.0563899753        0.0914947298
 Ni         0.0430546569        1.0223990458       -0.1919957712
 C          0.9574561149        1.5989617812       -1.6180708803
 O          1.4508261847        2.1495665591       -2.4887564277
 C         -1.6719094120        1.4360347689       -0.5281835973
 O         -2.7080259372        1.7637258774       -0.8780904083
 C          0.8426744982        1.5721516257        1.2960892402
 O          1.4550709753        1.8384791190        2.2232435933
 H          3.8386063461       -2.3230677798       -2.2996255911
 H          2.3892822609       -3.3307391024       -2.2557726606
 H          3.4961565842       -3.2760751509       -0.8644262516
 H          2.6403904395       -1.6622752304        1.5732037917
 H          4.0603485334       -0.3102257497        3.0270030809
 H          5.4289209494        1.5143463988        2.0813686944
 H          6.2109269206        2.7700170960        0.1759919433
 H          6.2448814373        3.1882327713       -2.2539896435
 H          4.8809240937        1.7881323893       -3.7581595897
 H          3.4786496157        0.0187919913       -2.8773588000
 H          1.4673832802       -4.0237589859       -0.0933093060
 H         -0.8282804493       -3.8893386649        1.3527695663
 H         -1.2936625005       -2.1548655543        3.3825064311
 H         -2.5732807798       -3.0564356658        2.5440363149
 H         -2.9484157825       -1.5360570210        3.3371373257
 H         -2.3797975543       -2.9003001902       -0.6330004897
 H         -4.3254162830       -2.9646505069       -2.1016836727
 H         -6.1955760978       -1.3885061389       -1.7610243674
 H         -7.1978520420        0.4330516692       -0.5412097787
 H         -7.1249971994        2.1019579355        1.2731442583
 H         -5.1649968266        2.2029182399        2.7668774880
 H         -3.3061841066        0.6766840443        2.4837670240
  60
        -99.32141846
 C          3.0282275750       -2.0642225852       -1.8155832795
 C          2.3341402572       -1.0817530999       -0.8698958576
 H          1.8825329379       -0.2702776429       -1.4564337529
 C          3.3404619303       -0.4911533524        0.1007479215
 C          3.4573814120       -0.9974312750        1.3694868345
 C          4.3926846961       -0.4862459365        2.2791455243
 C          5.2192707645        0.5335204052        1.9092606838
 C          5.1403389801        1.0833962404        0.6133454524
 C          5.9897112083        2.1407043790        0.2254646530
 C          5.9130813597        2.6821611527       -1.0253095316
 C          4.9747490820        2.1861600923       -1.9406587343
 C          4.1391284329        1.1605733060       -1.5961963568
 C          4.1912077896        0.5708750327       -0.3132943504
 N          1.2240761733       -1.7108355515       -0.1809200440
 C          1.1496905963       -3.0343041022        0.1512470703
 C         -0.0434489295       -3.2195189554        0.7623930333
 N         -0.6610968178       -2.0020009435        0.8016817052
 C         -2.0039392411       -1.7418298595        1.2901242597
 H         -1.9253565959       -0.8389866309        1.9067257385
 C         -2.5455575517       -2.8854517202        2.1445647785
 C         -2.9357957697       -1.4703042518        0.1213285336
 C         -2.7503708967       -2.1480257949       -1.0574994908
 C         -3.5636069340       -1.9133599993       -2.1731931307
 C         -4.5636499381       -0.9877943779       -2.1054919380
 C         -4.8108416507       -0.2879322110       -0.9070257248
 C         -5.8529564262        0.6593496610       -0.8255852426
 C         -6.1121842139        1.3219794113        0.3395497582
 C         -5.3435835096        1.0505961732        1.4799050235
 C         -4.3224600583        0.1431706465        1.4318116148
 C         -4.0055093561       -0.5419463048        0.2378018888
 C          0.1142009583       -1.0542799969        0.2247333823
 Ni        -0.3458849633        0.9795626705       -0.0472975828
 C         -1.3541489641        1.6209092285        1.2812712839
 O         -1.9447791992        2.2012323404        2.0688538852
 C          1.1649588928        1.9478868175        0.0285063581
 O          2.0264534510        2.6810462264        0.1838374377
 C         -1.2609647658        0.9090481983       -1.5697430438
 O         -1.9057403681        0.7951705737       -2.5056315132
 H          3.6012315549       -2.8028717867       -1.2592675522
 H          3.7208569883       -1.5234529547       -2.4543346100
 H          2.2979260910       -2.5711005275       -2.4433292742
 H          2.8161426545       -1.8037809631        1.6955434913
 H          4.4473020164       -0.9087498298        3.2716797578
 H          5.9439361191        0.9374674331        2.6014538263
 H          6.7022928816        2.5172041736        0.9456751704
 H          6.5637213540        3.4942228294       -1.3145222727
 H          4.9107675724        2.6252597400       -2.9256591015
 H          3.4205213762        0.8135095351       -2.3225627785
 H          1.9244469382       -3.7397817366       -0.0622244424
 H         -0.4740372864       -4.1143420251        1.1585181555
 H         -1.8613216123       -3.1226880032        2.9569438446
 H         -2.7183968600       -3.7742416456        1.5413558759
 H         -3.4985052017       -2.5837976640        2.5718316487
 H         -1.9507111471       -2.8706719621       -1.1469299524
 H         -3.3781417437       -2.4597585757       -3.0861991756
 H         -5.1826712207       -0.7786142918       -2.9658671718
 H         -6.4449351747        0.8486433917       -1.7098826950
 H         -6.9084439587        2.0497131280        0.3933484885
 H         -5.5626739774        1.5668124853        2.4031577535
 H         -3.7587784927       -0.0496692111        2.3317965307
  60
        -99.32086889
 C          3.5601543472       -2.3765968264       -0.0921545716
 C          2.3711999993       -1.4466617134       -0.3261426620
 H          2.4394448775       -1.0302042674       -1.3379183954
 C          2.3882590391       -0.3118368565        0.6843288534
 C          1.7170714689       -0.4548507182        1.8726419284
 C          1.6861971800        0.5717219503        2.8243407129
 C          2.3302455839        1.7488968992        2.5795601528
 C          3.0594196264        1.9309710864        1.3867962461
 C          3.7427410967        3.1390736741        1.1351706622
 C          4.4686073318        3.3125027031       -0.0080551419
 C          4.5491869579        2.2729985630       -0.9447550898
 C          3.8933872638        1.0923730234       -0.7331392598
 C          3.1134165282        0.8834733368        0.4259884198
 N          1.0994056934       -2.1458604353       -0.2696375469
 C          0.9074793109       -3.3870276758        0.2665736406
 C         -0.4209948941       -3.6274961267        0.2195280091
 N         -1.0090218331       -2.5207875100       -0.3291207019
 C         -2.4558593634       -2.4483307247       -0.4913461933
 H         -2.8738691035       -3.1950853529        0.2007884533
 C         -2.7992367005       -2.8865884077       -1.9153720060
 C         -3.0022437112       -1.0932069629       -0.0781824265
 C         -3.8529679082       -0.3909922124       -0.8948564438
 C         -4.3406064962        0.8737852677       -0.5366115547
 C         -3.9669071553        1.4444400985        0.6436124378
 C         -3.1406806412        0.7406138319        1.5429984654
 C         -2.7803001396        1.3093865733        2.7821528092
 C         -2.0220567088        0.6173780187        3.6816349457
 C         -1.6169677054       -0.6896111150        3.3821221778
 C         -1.9328249069       -1.2602662163        2.1806185679
 C         -2.6758912003       -0.5604300996        1.2038799410
 C         -0.0796200063       -1.5953956380       -0.6558466390
 Ni        -0.2573055440        0.3233453433       -1.5129176266
 C         -1.6543836220        0.4605393951       -2.6271156733
 O         -2.4115553431        0.7214289145       -3.4431858650
 C         -0.3192777314        1.3407984804       -0.0571415397
 O         -0.3074419483        1.9779538109        0.8897852236
 C          1.1423978041        0.7222982042       -2.5606543343
 O          1.8883578235        1.1407513841       -3.3201112978
 H          3.5758674511       -2.7393052452        0.9334720063
 H          4.4788036243       -1.8202969687       -0.2603519452
 H          3.5364859448       -3.2207209134       -0.7787364415
 H          1.1777259463       -1.3670517256        2.0856896349
 H          1.1335549536        0.4251417919        3.7398941972
 H          2.2949817584        2.5579683795        3.2946969203
 H          3.6796015076        3.9275072898        1.8718475059
 H          4.9862397330        4.2416828400       -0.1958500873
 H          5.1352826442        2.4106300323       -1.8416975242
 H          3.9863773704        0.3102507961       -1.4709875577
 H          1.6996252208       -4.0028827339        0.6348244601
 H         -0.9826139192       -4.4849298137        0.5319060333
 H         -2.3975178291       -2.1768664864       -2.6344016328
 H         -3.8736013865       -2.9760193027       -2.0462054817
 H         -2.3494853681       -3.8596047657       -2.1076014958
 H         -4.1583850575       -0.7949507205       -1.8463301803
 H         -4.9948593676        1.3957629295       -1.2192143870
 H         -4.3059025310        2.4341053185        0.9140528362
 H         -3.1238917752        2.3091807363        3.0064139343
 H         -1.7477852752        1.0609529019        4.6276359999
 H         -1.0540501266       -1.2531286659        4.1132733187
 H         -1.6204069357       -2.2764936149        1.9985806301
  60
        -99.32039710
 C          2.5153231391       -2.7314549054       -1.5713924358
 C          1.8983673952       -1.3512602875       -1.3432403547
 H          1.4755206455       -1.0131138109       -2.2997600997
 C          2.9900380441       -0.3633877591       -0.9649048658
 C          3.4702099550        0.4486230510       -1.9650567188
 C          4.5111031409        1.3583144547       -1.7462088790
 C          5.0757982280        1.4581957430       -0.5082815670
 C          4.6300422127        0.6383916686        0.5478860791
 C          5.2167602207        0.7414861368        1.8265895157
 C          4.8040924828       -0.0505951510        2.8587005657
 C          3.7874536549       -0.9904523885        2.6439039202
 C          3.1970150352       -1.1132865077        1.4170079001
 C          3.5823290554       -0.3011433233        0.3269245347
 N          0.7904250694       -1.3788299491       -0.3994291419
 C          0.3583196901       -2.4855185094        0.2807633694
 C         -0.6761489915       -2.0905228882        1.0557646685
 N         -0.8569344996       -0.7584834222        0.8221844658
 C         -1.8502691639        0.0249498487        1.5372913827
 H         -1.9952110344        0.9531216293        0.9690841425
 C         -1.2706918860        0.4104244504        2.8978554878
 C         -3.1599028655       -0.7345079605        1.5712666912
 C         -3.6895790466       -1.1990657729        2.7478465470
 C         -4.8947880763       -1.9154782746        2.7771787128
 C         -5.5679993543       -2.1731708416        1.6195283072
 C         -5.0647829688       -1.7164118090        0.3837971575
 C         -5.7570080427       -1.9765502642       -0.8173855194
 C         -5.2761870734       -1.5322782552       -2.0156482688
 C         -4.0798200747       -0.8033287839       -2.0566226062
 C         -3.3838459790       -0.5355334040       -0.9104965448
 C         -3.8467543027       -0.9831476295        0.3473038684
 C          0.0354944299       -0.2999611711       -0.0812747233
 Ni         0.1733698989        1.6522638359       -0.8673069505
 C         -1.2751193491        2.6722504564       -0.5456339614
 O         -2.0921690109        3.4686951870       -0.4730238218
 C          1.5901720548        2.3167738917       -0.0131816891
 O          2.4677899862        2.7369176299        0.5829670093
 C          0.3167972369        1.4503756459       -2.6326461198
 O          0.3483131114        1.3661481474       -3.7725193709
 H          3.2868512553       -2.6388883841       -2.3320694341
 H          1.7700381804       -3.4397167715       -1.9275836723
 H          2.9830019948       -3.1131776464       -0.6671014052
 H          3.0386510334        0.3883407828       -2.9544376629
 H          4.8491175513        1.9812659242       -2.5608567920
 H          5.8699932317        2.1651208995       -0.3167304138
 H          6.0030463106        1.4685562046        1.9716857503
 H          5.2546718149        0.0373699536        3.8363308400
 H          3.4683912008       -1.6239880773        3.4593448720
 H          2.4219738336       -1.8510386462        1.2953637562
 H          0.7949839728       -3.4557078133        0.1750434949
 H         -1.2948574648       -2.6446571139        1.7309224111
 H         -0.3683588829        0.9975672345        2.7346361636
 H         -1.0047896872       -0.4688421582        3.4807841377
 H         -1.9798746632        1.0155589238        3.4554819635
 H         -3.1851471520       -1.0186669315        3.6838213399
 H         -5.2779186202       -2.2609082640        3.7260676958
 H         -6.4952904855       -2.7276249479        1.6298590559
 H         -6.6808501684       -2.5353782029       -0.7671261518
 H         -5.8115565824       -1.7339241667       -2.9317543433
 H         -3.7060766323       -0.4476373881       -3.0055181157
 H         -2.4679915946        0.0323853121       -0.9871523154
  60
        -99.31903373
 C          3.5199382217       -2.9582113843       -0.7133658155
 C          2.5305110143       -1.8093481713       -0.9129751924
 H          2.1335236108       -1.8780343975       -1.9361144415
 C          3.2678811904       -0.4836227068       -0.8081545672
 C          3.7063365098        0.0765481589       -1.9842350605
 C          4.3900694426        1.2969909860       -2.0142252082
 C          4.6307363724        1.9675443257       -0.8506981422
 C          4.2412990280        1.4144213643        0.3852769210
 C          4.5128885450        2.0977018126        1.5892648103
 C          4.1703184437        1.5630559355        2.7972586024
 C          3.5593128366        0.3031290353        2.8459933752
 C          3.2744402111       -0.3805530341        1.6970921579
 C          3.5762736486        0.1552047490        0.4245074282
 N          1.3855598064       -1.8946178955       -0.0189034250
 C          1.1602004277       -2.9036973289        0.8779643230
 C          0.0386735790       -2.5802369174        1.5607351689
 N         -0.3941425252       -1.3828169407        1.0666671089
 C         -1.5504463224       -0.6544655192        1.5503289987
 H         -1.3268705540        0.4012466530        1.3457425425
 C         -1.7300707181       -0.8474333863        3.0580171151
 C         -2.8205389656       -1.0430190632        0.8164681854
 C         -2.9364223544       -2.2797696050        0.2361691744
 C         -4.1074633250       -2.6721274782       -0.4260536964
 C         -5.1695753533       -1.8198949401       -0.4994878014
 C         -5.0988711811       -0.5379770752        0.0833727023
 C         -6.1907474086        0.3514200647        0.0034167394
 C         -6.1244611370        1.5982287017        0.5553555352
 C         -4.9541981485        2.0068050256        1.2094099208
 C         -3.8801329737        1.1667000734        1.3076192211
 C         -3.9120902755       -0.1326836347        0.7538676640
 C          0.4172232579       -0.9534092356        0.0733653624
 Ni         0.0859306897        0.7642852193       -1.0865336857
 C         -1.6777230966        0.9183545263       -1.4095718210
 O         -2.7339786762        1.0634302840       -1.8183853915
 C          0.8641946256        2.0135992047       -0.0903886619
 O          1.4058894003        2.7557902854        0.5885834547
 C          0.7882021860        0.5862825395       -2.7208058732
 O          1.1046438746        0.5849472960       -3.8187284029
 H          4.3366088431       -2.8326217327       -1.4201155828
 H          3.0523231672       -3.9217859850       -0.9048245846
 H          3.9403989384       -2.9462821623        0.2895381278
 H          3.5123954414       -0.4298991285       -2.9196571861
 H          4.7021540369        1.7055051921       -2.9637897450
 H          5.1287954659        2.9263281937       -0.8564222749
 H          5.0015657872        3.0599455329        1.5325386929
 H          4.3752305960        2.0950441294        3.7146064575
 H          3.3143551775       -0.1317340243        3.8048710677
 H          2.8225890510       -1.3548463531        1.7824804788
 H          1.7902036831       -3.7613728393        0.9795165008
 H         -0.4611246378       -3.1102135474        2.3437705086
 H         -2.4678630603       -0.1409947380        3.4279761863
 H         -0.7894938459       -0.6746866530        3.5775288148
 H         -2.0893232586       -1.8487660935        3.2850957533
 H         -2.1125562655       -2.9779914579        0.2718249912
 H         -4.1546431028       -3.6531091296       -0.8755905845
 H         -6.0779231644       -2.1098837524       -1.0076260286
 H         -7.0827006120        0.0240996525       -0.5118056371
 H         -6.9625490508        2.2759731852        0.4868360476
 H         -4.9024841061        2.9985930549        1.6346244206
 H         -2.9919817098        1.5205669766        1.8078223180
  60
        -99.31903172
 C          3.3156301315       -3.1864483947       -0.6750099630
 C          2.3708365539       -2.0070512526       -0.9091679386
 H          1.8972570302       -2.1427817379       -1.8922055581
 C          3.1758611418       -0.7186558134       -0.9750617327
 C          3.5466047702       -0.2816755130       -2.2243520599
 C          4.2838753265        0.8930189198       -2.4101391841
 C          4.6482951812        1.6423555041       -1.3298622114
 C          4.3307161892        1.2151078874       -0.0253059067
 C          4.7293129690        1.9790067217        1.0917352836
 C          4.4564248425        1.5657551279        2.3634339658
 C          3.7886255331        0.3507744681        2.5658433907
 C          3.3811334223       -0.4082132247        1.5044846372
 C          3.6097380348        0.0023318092        0.1715552389
 N          1.2913817639       -1.9515773730        0.0651777280
 C          1.0874903085       -2.8602542389        1.0681910237
 C          0.0346198010       -2.4175978536        1.7922073259
 N         -0.3792478635       -1.2504036115        1.2162856341
 C         -1.4630107632       -0.4216176521        1.7061587387
 H         -1.2078941543        0.5976202902        1.3860444556
 C         -1.5395786382       -0.4646638083        3.2342226955
 C         -2.7998116875       -0.8105556893        1.1024938473
 C         -3.0124311579       -2.0873719584        0.6505284994
 C         -4.2453879095       -2.4785480776        0.1114450612
 C         -5.2717853613       -1.5840839211        0.0327430461
 C         -5.1020208951       -0.2598318155        0.4861527622
 C         -6.1569766348        0.6724779245        0.3997131779
 C         -5.9954577183        1.9592335641        0.8260057423
 C         -4.7629445178        2.3660616426        1.3548149200
 C         -3.7222138552        1.4853296422        1.4559773437
 C         -3.8520966187        0.1442669010        1.0308110407
 C          0.3753598056       -0.9574084810        0.1328107082
 Ni         0.0364770012        0.6549055677       -1.1675468421
 C          0.5911075430        0.2694985420       -2.8223790788
 O          0.8172297080        0.1328233343       -3.9340572686
 C         -1.7372088132        0.8840626198       -1.3691423469
 O         -2.8132012266        1.0557987555       -1.7105951080
 C          0.9573949864        1.9492371453       -0.3704235949
 O          1.5913133139        2.7227656665        0.1818010971
 H          4.0816089511       -3.1689959180       -1.4465092271
 H          2.7884506475       -4.1357881279       -0.7432649216
 H          3.8109357778       -3.1093981755        0.2901005335
 H          3.2564102519       -0.8523254471       -3.0956431967
 H          4.5393659142        1.2045004207       -3.4119653999
 H          5.1905343373        2.5684350024       -1.4551758464
 H          5.2592996453        2.9043131840        0.9160804140
 H          4.7591926927        2.1589366251        3.2137343197
 H          3.5974403526        0.0112011325        3.5741542637
 H          2.8880986557       -1.3444697243        1.7069709465
 H          1.6841339115       -3.7362691705        1.2078559103
 H         -0.4297666231       -2.8463842168        2.6549369897
 H         -1.9257592387       -1.4207851186        3.5806192622
 H         -2.2155796982        0.3101309646        3.5848775553
 H         -0.5564465261       -0.2934977677        3.6684755214
 H         -2.2195694794       -2.8201742244        0.6940352214
 H         -4.3686814711       -3.4926373332       -0.2393428250
 H         -6.2272719824       -1.8728804905       -0.3808117923
 H         -7.0982398003        0.3451243070       -0.0186590383
 H         -6.8058944032        2.6693418006        0.7528049066
 H         -4.6364224627        3.3885058587        1.6799696776
 H         -2.7846016667        1.8379269050        1.8569861743
  60
        -99.31902176
 C          3.3098921890       -3.1717498751       -0.7047134547
 C          2.3698571672       -1.9856058556       -0.9222101492
 H          1.8947750834       -2.1070839121       -1.9062974430
 C          3.1774856752       -0.6979902787       -0.9713885092
 C          3.5336367585       -0.2340975173       -2.2151574492
 C          4.2736243755        0.9415479005       -2.3839448301
 C          4.6564009110        1.6642369583       -1.2919811095
 C          4.3523248469        1.2098556785        0.0066474176
 C          4.7688934618        1.9466846360        1.1352400284
 C          4.5080070619        1.5076846223        2.4008358410
 C          3.8329257372        0.2937996031        2.5846058327
 C          3.4083722370       -0.4393018326        1.5117686552
 C          3.6266356505       -0.0028725348        0.1854184625
 N          1.2911699953       -1.9376230436        0.0534504771
 C          1.0925065634       -2.8472791047        1.0565166690
 C          0.0404352667       -2.4076622903        1.7836139201
 N         -0.3783214061       -1.2414197151        1.2091767317
 C         -1.4615054407       -0.4144555140        1.7033176798
 H         -1.2104316975        0.6046824792        1.3797720826
 C         -1.5290645077       -0.4547448284        3.2319268860
 C         -2.8007907878       -0.8077624405        1.1080277091
 C         -3.0129407197       -2.0859118588        0.6596345819
 C         -4.2480281730       -2.4810563034        0.1283681936
 C         -5.2769285543       -1.5891315996        0.0536133769
 C         -5.1077579755       -0.2636416592        0.5036316827
 C         -6.1653638324        0.6660510020        0.4213437489
 C         -6.0044876260        1.9539736500        0.8443274354
 C         -4.7701712244        2.3645216682        1.3660131401
 C         -3.7269551458        1.4863212639        1.4633248553
 C         -3.8558317207        0.1443287837        1.0407425468
 C          0.3722618298       -0.9463337929        0.1235990358
 Ni         0.0244929656        0.6547102722       -1.1881538482
 C          0.5447551174        0.2356450307       -2.8454702132
 O          0.7450812900        0.0620975441       -3.9570490417
 C         -1.7494752456        0.9062275396       -1.3613563364
 O         -2.8267720914        1.0977050351       -1.6877562020
 C          0.9746537743        1.9498256506       -0.4274244661
 O          1.6281842848        2.7237934916        0.1005834959
 H          3.8119438741       -3.1069054364        0.2577493688
 H          4.0710086056       -3.1511205137       -1.4809474979
 H          2.7767489541       -4.1173552040       -0.7785606960
 H          3.2316567764       -0.7844826859       -3.0953156761
 H          4.5173681728        1.2745396814       -3.3817712626
 H          5.2021411834        2.5900138635       -1.4034274356
 H          5.3031934250        2.8720280139        0.9734604636
 H          4.8253675888        2.0797881641        3.2602215129
 H          3.6496249835       -0.0657259142        3.5874419852
 H          2.9085932178       -1.3749118334        1.6998543056
 H          1.6916783687       -3.7220651253        1.1935790851
 H         -0.4203934424       -2.8379007856        2.6475395393
 H         -2.2049776373        0.3189627819        3.5851140179
 H         -0.5438459243       -0.2803108518        3.6601305647
 H         -1.9107430229       -1.4112095012        3.5823191155
 H         -2.2180008587       -2.8166467931        0.6995938859
 H         -4.3710023177       -3.4962001967       -0.2194770468
 H         -6.2341790937       -1.8810890801       -0.3536065758
 H         -7.1077659085        0.3360637023        0.0076148477
 H         -6.8164438681        2.6625074561        0.7727275638
 H         -4.6441155443        3.3879568707        1.6882194345
 H         -2.7881579385        1.8416348332        1.8591550627
  60
        -99.31793638
 C          3.8815749009       -2.0508177886       -0.0711415657
 C          2.5823362892       -1.3702085134       -0.5018589307
 H          2.4418016052       -1.5777323220       -1.5719863367
 C          2.6975334505        0.1397318032       -0.3563418579
 C          2.9271028009        0.8637258345       -1.5022336688
 C          3.0539697134        2.2575667074       -1.4876334870
 C          2.9515912143        2.9358704632       -0.3087002805
 C          2.7633675478        2.2377222580        0.9005879998
 C          2.7192998747        2.9357329893        2.1255859583
 C          2.5999881994        2.2731802156        3.3125091678
 C          2.5030766130        0.8751605388        3.3145288863
 C          2.5116269811        0.1728552438        2.1417711646
 C          2.6445557194        0.8185294065        0.8927095925
 N          1.4067188928       -1.9121844128        0.1653041238
 C          1.4343975652       -2.7837933830        1.2187284468
 C          0.1509743178       -2.9988923374        1.5786889948
 N         -0.6311027064       -2.2566929265        0.7366347667
 C         -2.0832770554       -2.2963290156        0.8655828131
 H         -2.2812807726       -2.5505281417        1.9185357322
 C         -2.5940578823       -3.4496309830       -0.0008403180
 C         -2.7409332485       -0.9542413141        0.5999637331
 C         -3.8321460711       -0.8563665782       -0.2278199797
 C         -4.4493428921        0.3742562647       -0.4922891953
 C         -3.9656734142        1.5183657871        0.0687548602
 C         -2.8838511825        1.4648046570        0.9705924372
 C         -2.4045596885        2.6404152474        1.5846190042
 C         -1.3950498657        2.5936949036        2.5019033866
 C         -0.8435193421        1.3572414157        2.8592703539
 C         -1.2663389593        0.2033892351        2.2610049607
 C         -2.2790426908        0.2132811508        1.2760105228
 C          0.1284113272       -1.5974701036       -0.1660361498
 Ni        -0.4268382746       -0.4129900531       -1.8063495791
 C         -2.0453619540       -0.8043487987       -2.4822015957
 O         -2.9509964299       -0.9644636059       -3.1615447130
 C         -0.2612290895        1.1937606415       -1.0608579651
 O         -0.1055839233        2.1718980416       -0.4931344329
 C          0.6265745965       -0.7750355206       -3.2111086400
 O          1.1188428984       -0.9850036071       -4.2230255378
 H          3.8222008748       -3.1279908383       -0.2145699520
 H          4.1310022349       -1.8316846861        0.9638764253
 H          4.6873712807       -1.6689517980       -0.6935463461
 H          3.0167055891        0.3511166255       -2.4494958482
 H          3.2179522533        2.7828258553       -2.4167019009
 H          3.0273516135        4.0132223242       -0.2803728613
 H          2.7972216216        4.0134543094        2.1032431407
 H          2.5805095245        2.8137241165        4.2477677673
 H          2.4190493589        0.3486910869        4.2553357367
 H          2.4239041646       -0.8988985586        2.1891881083
 H          2.3325409026       -3.1958637554        1.6281177603
 H         -0.2576729683       -3.6105011421        2.3576052846
 H         -3.6487621450       -3.6354352518        0.1789362265
 H         -2.0421108949       -4.3552958396        0.2465135042
 H         -2.4325578171       -3.2279082762       -1.0532280491
 H         -4.2344168515       -1.7304642893       -0.7135497651
 H         -5.2950687159        0.4026985077       -1.1633938117
 H         -4.4096480068        2.4776929580       -0.1550122984
 H         -2.8603035424        3.5823005482        1.3136659545
 H         -1.0267971165        3.4967279639        2.9657218041
 H         -0.0733459581        1.3196714656        3.6145959824
 H         -0.8215246662       -0.7281002789        2.5740269892
  60
        -99.31750311
 C          2.7389585908        1.6681451169        1.6429043868
 C          2.6153775194        0.1419603263        1.5292101814
 H          3.2845808848       -0.3201204516        2.2681416449
 C          3.0187092980       -0.3822447686        0.1610958198
 C          2.1198130999       -1.0096462197       -0.6635105245
 C          2.4720505162       -1.4211103692       -1.9568949192
 C          3.7330100734       -1.2034158962       -2.4265675415
 C          4.7122986412       -0.6272501352       -1.5914398991
 C          6.0350201675       -0.4517222257       -2.0486484433
 C          7.0025559437        0.0562802124       -1.2301793020
 C          6.6846840580        0.3895939909        0.0932344051
 C          5.4072918068        0.2481842810        0.5607077530
 C          4.3695179270       -0.2367640287       -0.2674215683
 N          1.2742110926       -0.2536739402        1.9195029484
 C          1.0584063934       -1.1545791917        2.9244785124
 C         -0.2798530402       -1.2683389879        3.0763570733
 N         -0.8492069205       -0.4290294530        2.1605071359
 C         -2.2753181188       -0.2476061109        1.9669413396
 H         -2.3949617649        0.8025018181        1.6725665023
 C         -3.0585905835       -0.5022175761        3.2550517441
 C         -2.7995422687       -1.1316087953        0.8500509546
 C         -2.1853482937       -2.3266969147        0.5734488895
 C         -2.6451577302       -3.1671009574       -0.4487410666
 C         -3.7333586505       -2.8091921484       -1.1893200346
 C         -4.4071714916       -1.5976388531       -0.9323637070
 C         -5.5315551678       -1.2217730043       -1.6965104016
 C         -6.1814046366       -0.0447603565       -1.4595643703
 C         -5.7279950566        0.8070938493       -0.4430868365
 C         -4.6425312997        0.4703462680        0.3168647600
 C         -3.9441857851       -0.7386110916        0.1024004878
 C          0.0971417103        0.2011285548        1.4253266263
 Ni        -0.3706002443        1.4108913172       -0.2699725473
 C          1.0978098717        1.7611714786       -1.2517251297
 O          1.9291646088        2.0137427099       -1.9913040577
 C         -1.3711183995        0.3744819931       -1.3393956927
 O         -1.8539228945       -0.2270221936       -2.1811107051
 C         -1.1727831006        2.8598269288        0.3979659260
 O         -1.6947803567        3.7836002482        0.8237983757
 H          1.8912802446        2.1391938686        1.1467471206
 H          3.6498710547        2.0255177497        1.1751415905
 H          2.7319347725        1.9652422952        2.6900093815
 H          1.1062164813       -1.1937776588       -0.3385269586
 H          1.7232256939       -1.8906768372       -2.5774196527
 H          4.0071624432       -1.4831794333       -3.4334110430
 H          6.2685911778       -0.7389031039       -3.0640223506
 H          8.0132775054        0.1880321217       -1.5870700812
 H          7.4603394940        0.7583217368        0.7487911239
 H          5.2055927045        0.4932701551        1.5917562792
 H          1.8586176605       -1.6361068412        3.4486346173
 H         -0.8446759531       -1.8686853470        3.7572008240
 H         -3.0773461107       -1.5622332867        3.4988721574
 H         -4.0864432754       -0.1768551167        3.1189607780
 H         -2.6240349371        0.0523653337        4.0844713566
 H         -1.3180370570       -2.6368832411        1.1395909707
 H         -2.1251229857       -4.0936758397       -0.6430699194
 H         -4.0941589791       -3.4448761193       -1.9849421337
 H         -5.8653581779       -1.8870102196       -2.4801762030
 H         -7.0390884830        0.2392323544       -2.0513119808
 H         -6.2419850300        1.7402861471       -0.2642218796
 H         -4.3193456708        1.1536832856        1.0867137380
  60
        -99.31750017
 C          2.5192727245        1.2483991663        2.2520641370
 C          2.5168333086       -0.1758437140        1.6789418595
 H          3.1778196219       -0.8020924061        2.2939083539
 C          3.0335577974       -0.2371075198        0.2512605333
 C          2.2288172056       -0.6230306069       -0.7902738558
 C          2.6841008730       -0.6051212377       -2.1164020360
 C          3.9541764745       -0.1998400606       -2.4003970739
 C          4.8413166772        0.1393983245       -1.3581169497
 C          6.1745649164        0.5045996971       -1.6383798801
 C          7.0551236698        0.7850936273       -0.6333774657
 C          6.6363290856        0.6896020421        0.7004207121
 C          5.3454698882        0.3553793140        1.0041385030
 C          4.3944538062        0.0946524047       -0.0085526382
 N          1.1906966092       -0.7464923533        1.8320140823
 C          0.9930619587       -1.9239743147        2.4975080660
 C         -0.3385502669       -2.1550200024        2.5108211322
 N         -0.9227239719       -1.1082885956        1.8547116797
 C         -2.3469429685       -0.9584516651        1.6242210416
 H         -2.5307511403        0.1230069135        1.6482915664
 C         -3.1711105700       -1.6344668049        2.7204424350
 C         -2.7476085436       -1.4924082385        0.2610744606
 C         -2.0273817545       -2.5048583038       -0.3203774033
 C         -2.3731361353       -3.0223823364       -1.5754921732
 C         -3.4541464614       -2.5273525748       -2.2440827999
 C         -4.2339834752       -1.4967167373       -1.6805383620
 C         -5.3516773621       -0.9799172101       -2.3683830354
 C         -6.1039788031        0.0255501617       -1.8327680184
 C         -5.7637872643        0.5570177946       -0.5812649193
 C         -4.6877402559        0.0762639291        0.1116963146
 C         -3.8863997239       -0.9642964746       -0.4082593163
 C          0.0091289602       -0.2295224007        1.4157633496
 Ni        -0.4651966427        1.4152945451        0.1403667088
 C         -1.3957990477        2.5432692390        1.1653159718
 O         -1.9976973890        3.2607297618        1.8211365564
 C          1.0180027614        2.1287490607       -0.5901668914
 O          1.8630682753        2.6409193405       -1.1606238790
 C         -1.3418972919        0.7073268925       -1.2561526716
 O         -1.7453417364        0.3716605535       -2.2700095217
 H          3.4266744890        1.7785865524        1.9838698575
 H          2.4301559566        1.2136882897        3.3363112854
 H          1.6688298717        1.8014611114        1.8552970395
 H          1.2118265010       -0.9420710627       -0.6144395813
 H          2.0062900109       -0.8963692709       -2.9050877878
 H          4.3063243505       -0.1487401571       -3.4204716665
 H          6.4873768803        0.5486704856       -2.6719292935
 H          8.0745507477        1.0639723369       -0.8553825910
 H          7.3444930153        0.8792377538        1.4940830106
 H          5.0659418910        0.2702840110        2.0426078309
 H          1.7997869131       -2.4972715864        2.9067327518
 H         -0.8900251830       -2.9671081392        2.9343423380
 H         -2.8195861590       -1.3333767012        3.7053862894
 H         -3.1229009973       -2.7178713550        2.6347805388
 H         -4.2125034356       -1.3416606342        2.6177013093
 H         -1.1631272176       -2.9165139152        0.1821075587
 H         -1.7718486465       -3.8106882692       -2.0041659783
 H         -3.7282170763       -2.9135485714       -3.2151761541
 H         -5.5975966150       -1.3967809518       -3.3347395407
 H         -6.9565684924        0.4191702369       -2.3662399369
 H         -6.3581445287        1.3575566740       -0.1654392260
 H         -4.4525389430        0.5146596460        1.0690621194
  60
        -99.31717086
 C          2.6804299629       -2.1320482004       -2.4229416335
 C          2.5314892611       -1.0815036709       -1.3224544066
 H          2.2870467542       -0.1265505081       -1.8099756580
 C          3.7513021930       -0.8913649300       -0.4425065079
 C          4.8581130751       -1.6914588991       -0.5710621500
 C          5.9801706651       -1.5329513943        0.2552020792
 C          5.9900193180       -0.5738927263        1.2245262440
 C          4.8780242813        0.2758022432        1.3969121276
 C          4.8785420217        1.2718721172        2.3958220543
 C          3.8066491697        2.1008272049        2.5638663729
 C          2.6903846048        1.9696195666        1.7268090479
 C          2.6600628080        1.0138716513        0.7499307918
 C          3.7429957104        0.1291555527        0.5529255216
 N          1.3894363037       -1.4410164232       -0.4960382788
 C          1.4841303454       -2.3570834580        0.5118034418
 C          0.2434853726       -2.4880525738        1.0291112624
 N         -0.5783415266       -1.6564968076        0.3195446905
 C         -2.0011295096       -1.5845653846        0.6021213003
 H         -2.1913950919       -2.3719071575        1.3444383372
 C         -2.7848288082       -1.9194010094       -0.6745926012
 C         -2.4242819045       -0.2644530775        1.2245688966
 C         -1.5566934454        0.7924378326        1.3313752616
 C         -1.9702010591        2.0352003165        1.8316355921
 C         -3.2616530154        2.2212027230        2.2258009073
 C         -4.1724467802        1.1450059370        2.2031021081
 C         -5.4945435892        1.3120459170        2.6652719032
 C         -6.3673608287        0.2627515904        2.6997038563
 C         -5.9388638713       -1.0074030308        2.2914632966
 C         -4.6690939226       -1.1973837559        1.8204727088
 C         -3.7493935315       -0.1278483104        1.7298121149
 C          0.1214505280       -0.9920749323       -0.6342064128
 Ni        -0.4725846231        0.5052519990       -2.0559058835
 C         -0.4970225738       -0.4057846060       -3.5896648453
 O         -0.4944929091       -1.0114825202       -4.5584137914
 C         -2.0507609996        1.2330930656       -1.5818809290
 O         -3.0145107194        1.8126774948       -1.3929128354
 C          0.6827760993        1.8793713341       -2.0560156961
 O          1.2581561621        2.8623532806       -2.1445892027
 H          1.7630691619       -2.1567395552       -3.0075272624
 H          2.8450759895       -3.1229310181       -2.0048521694
 H          3.5013882290       -1.8748833308       -3.0861169711
 H          4.8897058163       -2.4679483027       -1.3183032259
 H          6.8304752158       -2.1840666416        0.1157790224
 H          6.8458334963       -0.4486053442        1.8719368848
 H          5.7512673680        1.3654381066        3.0265292358
 H          3.8137452000        2.8606718979        3.3312948693
 H          1.8487188507        2.6344556945        1.8545913378
 H          1.7897043447        0.9503700080        0.1157944934
 H          2.4095169229       -2.8236296956        0.7787227689
 H         -0.1122757077       -3.0984678262        1.8337108786
 H         -3.8429867973       -1.7153722503       -0.5524912437
 H         -2.6481287222       -2.9686832414       -0.9297847344
 H         -2.4133751167       -1.3139380606       -1.5000010826
 H         -0.5277118626        0.6930197853        1.0213506421
 H         -1.2570907612        2.8449042700        1.8772727530
 H         -3.6025094681        3.1839180579        2.5781012591
 H         -5.7994936321        2.2924123943        3.0027236958
 H         -7.3782514117        0.3978546193        3.0547680331
 H         -6.6203369168       -1.8433873708        2.3549614128
 H         -4.3676617382       -2.1942793300        1.5391505491
  60
        -99.31614587
 C          2.1754806730        1.4257861319       -1.4074279582
 C          2.3337329269        1.1234256897        0.0848589734
 H          2.6750185609        2.0452185096        0.5783141614
 C          3.4144122751        0.0728668980        0.2392643446
 C          4.6251374754        0.4603584789        0.7554079106
 C          5.7014151575       -0.4307740517        0.8602009739
 C          5.5566414261       -1.7225231725        0.4461089116
 C          4.3291492137       -2.1724744204       -0.0834698619
 C          4.1745716824       -3.5120591302       -0.4987754481
 C          2.9868886361       -3.9618346737       -1.0000670324
 C          1.9015547561       -3.0818186502       -1.1079246415
 C          2.0207188785       -1.7760008844       -0.7212843467
 C          3.2338551055       -1.2714206248       -0.1977493648
 N          1.0962048156        0.7155172123        0.7439415370
 C          1.0981541811       -0.2386915253        1.7278427815
 C         -0.1883813574       -0.4519227553        2.0741701947
 N         -0.9443281562        0.3897531568        1.3103025825
 C         -2.3981975453        0.3410603629        1.3378223420
 H         -2.7552335006        0.9233014802        0.4766354855
 C         -2.8988150307        1.0221408844        2.6096989416
 C         -2.8205730289       -1.1066459582        1.1659155734
 C         -3.4895681922       -1.7814998879        2.1546151404
 C         -3.8191496952       -3.1385480529        2.0244936284
 C         -3.4551481774       -3.8297875877        0.9068798108
 C         -2.7753111868       -3.1792244911       -0.1433373195
 C         -2.4013891159       -3.8841517228       -1.3066932898
 C         -1.7616626993       -3.2545921547       -2.3359180918
 C         -1.4867381572       -1.8829086393       -2.2464565911
 C         -1.8320354274       -1.1735800520       -1.1296659361
 C         -2.4686950377       -1.7951488225       -0.0322912757
 C         -0.1661313192        1.1475334432        0.5038053232
 Ni        -0.8844721047        2.8920060507       -0.4810918047
 C         -2.4253604306        3.4848702242        0.2409262410
 O         -3.3683129121        4.0432494959        0.5623828411
 C          0.3668958560        4.1065751893       -0.0752939667
 O          1.1240086733        4.8837325825        0.2799779024
 C         -1.1742044910        2.4429496009       -2.1862171989
 O         -1.4176014849        2.1364548571       -3.2587724987
 H          1.8632495068        0.5459748709       -1.9610635811
 H          3.1366426859        1.7550006286       -1.7954309420
 H          1.4474092243        2.2193071764       -1.5660397823
 H          4.7604835442        1.4800037249        1.0880528728
 H          6.6379650860       -0.0833338983        1.2697729706
 H          6.3767859822       -2.4219352059        0.5190797037
 H          5.0207707748       -4.1779921509       -0.4065141811
 H          2.8756233080       -4.9896063137       -1.3123307800
 H          0.9590848323       -3.4385228263       -1.4973775730
 H          1.1581046528       -1.1372579139       -0.8194076138
 H          1.9958627958       -0.6866950668        2.0982257408
 H         -0.6180530274       -1.1310063818        2.7806056117
 H         -3.9849351701        1.0373200924        2.6311486813
 H         -2.5389786664        2.0492303885        2.6228225368
 H         -2.5245823653        0.5233122944        3.5008099000
 H         -3.7771138823       -1.2783527771        3.0639037738
 H         -4.3508947144       -3.6287268653        2.8266115281
 H         -3.6850652991       -4.8806176757        0.8057241004
 H         -2.6382566293       -4.9370685418       -1.3672001774
 H         -1.4780168635       -3.8004373131       -3.2241121290
 H         -1.0018368879       -1.3828411004       -3.0722845854
 H         -1.6200768969       -0.1155298535       -1.1056228237
  60
        -99.31537474
 C          2.7912785931       -1.5680451116       -2.3145664616
 C          2.4874360518       -0.6465361302       -1.1339258415
 H          2.5998220254        0.3925714064       -1.4760918022
 C          3.3603080616       -0.8571736253        0.0887604724
 C          4.2621307576       -1.8883363431        0.1569523629
 C          5.0506963736       -2.1011420710        1.2970538597
 C          4.9268510392       -1.2829231870        2.3808120427
 C          4.0169973165       -0.2058382268        2.3598087441
 C          3.8848373699        0.6492568644        3.4739538962
 C          3.0123027724        1.6994632118        3.4552993825
 C          2.2415193334        1.9410090797        2.3099084660
 C          2.3459363096        1.1293839813        1.2146116679
 C          3.2259044902        0.0246101896        1.2007704303
 N          1.0932785317       -0.8183913087       -0.7568861994
 C          0.6693058545       -1.8872554981       -0.0221877239
 C         -0.6601635123       -1.7305074854        0.1609572617
 N         -1.0116771165       -0.5589396825       -0.4520821913
 C         -2.3692063928       -0.0234163611       -0.4912157719
 H         -2.6430148153        0.0247667002       -1.5548182414
 C         -2.4513107483        1.4084458795        0.0536152029
 C         -3.3863955109       -0.9033657504        0.2020641710
 C         -4.4058357223       -1.4139576944       -0.5631198973
 C         -5.4561560300       -2.1522049421       -0.0028661007
 C         -5.4901459453       -2.3697349520        1.3433522802
 C         -4.4614429797       -1.8782217044        2.1731637442
 C         -4.4899918519       -2.1145028518        3.5641990940
 C         -3.4908395821       -1.6623861437        4.3769930241
 C         -2.4090706885       -0.9648942968        3.8221591744
 C         -2.3535795051       -0.7154581089        2.4792616768
 C         -3.3816480897       -1.1441311325        1.6067227271
 C          0.0632950208        0.0023381461       -1.0587759129
 Ni         0.1819135128        1.6485831883       -2.4069781255
 C          0.6562691946        3.0752996261       -1.4466479293
 O          0.9793272332        4.0070637065       -0.8711585040
 C          1.3976501894        1.2995272803       -3.6832777151
 O          2.0973226638        1.2201419973       -4.5821380864
 C         -1.4063426343        1.7718148065       -3.2274352662
 O         -2.3580252625        1.8743468943       -3.8498117815
 H          2.1169708719       -1.3241796455       -3.1331669068
 H          2.6365477557       -2.6121010164       -2.0513147318
 H          3.8128538764       -1.4262522974       -2.6558839811
 H          4.3870865275       -2.5640890810       -0.6737854307
 H          5.7503198424       -2.9238808939        1.3049751233
 H          5.5227611896       -1.4434400162        3.2676336827
 H          4.4948184371        0.4552476787        4.3449309508
 H          2.9167392093        2.3504280643        4.3118300973
 H          1.5629983117        2.7813831157        2.2924579376
 H          1.7448266719        1.3534562022        0.3470974052
 H          1.3348472724       -2.6548601227        0.3140442630
 H         -1.3619162008       -2.3618131228        0.6626799835
 H         -3.4504450932        1.7950374668       -0.1317986754
 H         -1.7310961455        2.0407885099       -0.4645670941
 H         -2.2572471996        1.4562196679        1.1194921728
 H         -4.4107460517       -1.2362483110       -1.6293379380
 H         -6.2362801302       -2.5332724471       -0.6444505519
 H         -6.3008275691       -2.9227336212        1.7950424347
 H         -5.3233253316       -2.6683892990        3.9723146982
 H         -3.5206325683       -1.8458846971        5.4406616169
 H         -1.6085849583       -0.6265344278        4.4637032025
 H         -1.4901205752       -0.2009093981        2.0885211680
  60
        -99.31526456
 C          2.6882851688       -2.7770052905       -0.9820884495
 C          2.1172168243       -1.3777181962       -0.7633439770
 H          2.3239612772       -0.7676903020       -1.6500229855
 C          2.7656375834       -0.7337432670        0.4492453387
 C          2.1972641465       -0.9061399157        1.6864675167
 C          2.7488460791       -0.3221525751        2.8334191089
 C          3.8766799072        0.4395188978        2.7358204568
 C          4.5098276777        0.6250382939        1.4900069613
 C          5.6793983619        1.4064759406        1.3841520928
 C          6.3019619423        1.5818588372        0.1819118804
 C          5.7820242309        0.9688369050       -0.9664576767
 C          4.6487720933        0.2075689402       -0.8975932105
 C          3.9641699517        0.0200088880        0.3237858874
 N          0.6722760135       -1.3835998185       -0.6161574084
 C         -0.0980064377       -2.4829436422       -0.3679481827
 C         -1.3724018600       -2.0480597501       -0.2404229545
 N         -1.3472194490       -0.6894992582       -0.3875892178
 C         -2.5164222920        0.1830197154       -0.3387320088
 H         -2.4952935291        0.7493245337       -1.2806564295
 C         -2.4253762159        1.2157462569        0.7931348003
 C         -3.8314512205       -0.5643020967       -0.2884181010
 C         -4.6784113409       -0.4145972667       -1.3593872135
 C         -5.9595828659       -0.9799606652       -1.3791117322
 C         -6.4026878539       -1.6940613981       -0.3046930863
 C         -5.5696337866       -1.8889436575        0.8159173055
 C         -6.0242731908       -2.6389526297        1.9216579211
 C         -5.2236180948       -2.8542740164        3.0058798039
 C         -3.9212321388       -2.3365787021        3.0172553839
 C         -3.4521527211       -1.6028492501        1.9635952522
 C         -4.2589594311       -1.3337562656        0.8325341289
 C         -0.0884219218       -0.2636493041       -0.6518724842
 Ni         0.6449410807        1.6680382965       -1.1175268495
 C          1.4298806541        2.1794181049        0.3968633442
 O          1.9566366314        2.4934428872        1.3596479699
 C          1.8397846709        1.5650154519       -2.4492479951
 O          2.5929786591        1.6744235088       -3.3018397865
 C         -0.7034882170        2.6958629366       -1.7069748048
 O         -1.4727765387        3.4084913331       -2.1611073801
 H          3.7509995694       -2.6922130546       -1.1949641721
 H          2.2044076676       -3.2679070472       -1.8242079471
 H          2.5757605480       -3.3882513279       -0.0891234283
 H          1.2945689256       -1.4926028371        1.7898367670
 H          2.2651125451       -0.4719643495        3.7874748027
 H          4.3021901251        0.9118426630        3.6093332814
 H          6.0723177884        1.8663643037        2.2798541290
 H          7.1940586447        2.1860652136        0.1070144063
 H          6.2841128579        1.1030748421       -1.9134932281
 H          4.2830461042       -0.2572629513       -1.8002193570
 H          0.2896782450       -3.4769448088       -0.3048110387
 H         -2.2694733368       -2.6063804983       -0.0784456186
 H         -2.5435471664        0.7727277853        1.7755681127
 H         -3.2110745145        1.9544373419        0.6551763863
 H         -1.4600205495        1.7198656995        0.7477390837
 H         -4.3570551770        0.1648833304       -2.2133215704
 H         -6.5892382110       -0.8340174957       -2.2438091038
 H         -7.3940351525       -2.1232380356       -0.2945909140
 H         -7.0252130026       -3.0448535586        1.8877766033
 H         -5.5793424897       -3.4276152838        3.8488994394
 H         -3.2819912749       -2.5255219546        3.8673430560
 H         -2.4348682122       -1.2469057705        1.9977066297
  60
        -99.31523835
 C          2.7008753922       -2.7608132732       -0.9979830496
 C          2.1197876676       -1.3657922133       -0.7791844032
 H          2.3445580538       -0.7465888487       -1.6549998062
 C          2.7361735653       -0.7305466845        0.4547989525
 C          2.1388008400       -0.9178605259        1.6761501396
 C          2.6574749959       -0.3402447123        2.8414851157
 C          3.7817951329        0.4301902981        2.7785137008
 C          4.4443243238        0.6307904935        1.5504833553
 C          5.6103737178        1.4214433450        1.4804924227
 C          6.2611585214        1.6119593920        0.2956399637
 C          5.7743867141        1.0053599434       -0.8705633439
 C          4.6454268770        0.2354092304       -0.8364916242
 C          3.9321237376        0.0322852156        0.3658184262
 N          0.6720422720       -1.3776509094       -0.6632076720
 C         -0.0990719978       -2.4814507935       -0.4382294557
 C         -1.3752630268       -2.0500571807       -0.3185006205
 N         -1.3506048412       -0.6892172279       -0.4457936365
 C         -2.5250616188        0.1763268642       -0.3910457981
 H         -2.5291154698        0.7259581948       -1.3429911634
 C         -2.4263325610        1.2271049286        0.7235305068
 C         -3.8318410543       -0.5805159216       -0.2943504972
 C         -4.7178040251       -0.4433241134       -1.3346890805
 C         -5.9946484478       -1.0182323958       -1.3037647343
 C         -6.3924793757       -1.7297626995       -0.2100475477
 C         -5.5177879923       -1.9116726240        0.8807297118
 C         -5.9250178108       -2.6588899092        2.0066604211
 C         -5.0833350972       -2.8601983393        3.0621640012
 C         -3.7865097088       -2.3299111286        3.0237030395
 C         -3.3627299770       -1.5985740344        1.9494288183
 C         -4.2124784203       -1.3453183804        0.8465419762
 C         -0.0901129374       -0.2583541752       -0.6931818888
 Ni         0.6442599092        1.6737944756       -1.1552730898
 C          1.4008094411        2.1947845042        0.3704150940
 O          1.9126525231        2.5067085505        1.3418429960
 C          1.8669932660        1.5748995129       -2.4628373987
 O          2.6358607115        1.6938037662       -3.2999836038
 C         -0.7017358388        2.6796564387       -1.7868127432
 O         -1.4720076428        3.3696049612       -2.2728866850
 H          3.7679286728       -2.6702419088       -1.1852805240
 H          2.2385608883       -3.2451371909       -1.8558711830
 H          2.5698711830       -3.3811344960       -0.1138359194
 H          1.2382965015       -1.5118259639        1.7523792548
 H          2.1512743739       -0.5019450023        3.7818522387
 H          4.1819052431        0.8980213029        3.6663269989
 H          5.9774024861        1.8763992254        2.3895962561
 H          7.1502210111        2.2233593659        0.2481319473
 H          6.2988599272        1.1515522160       -1.8035902027
 H          4.3056491784       -0.2243080144       -1.7517946683
 H          0.2895345809       -3.4756306950       -0.3847346402
 H         -2.2733256109       -2.6112392465       -0.1724583321
 H         -3.2153856699        1.9613339040        0.5808828433
 H         -1.4630780249        1.7336200692        0.6643452623
 H         -2.5364113355        0.7971730472        1.7128396761
 H         -4.4319147679        0.1332029385       -2.2031027945
 H         -6.6568555853       -0.8820598578       -2.1454361677
 H         -7.3793035267       -2.1666622380       -0.1615707404
 H         -6.9227683670       -3.0738942744        2.0118473088
 H         -5.4027678980       -3.4316968012        3.9208329448
 H         -3.1155156213       -2.5070789136        3.8515646190
 H         -2.3488960328       -1.2313117614        1.9450799148
  60
        -99.31494025
 C          1.7476059328       -0.8760314038       -2.1764904333
 C          1.9968719536        0.0342235632       -0.9662740620
 H          1.9035081216        1.0667631662       -1.3319860678
 C          3.3551976221       -0.0498872455       -0.2888387524
 C          3.8864634709        1.1563868308        0.1054666868
 C          5.1272727994        1.2590698330        0.7431880154
 C          5.8565646327        0.1324699478        0.9856936553
 C          5.3572645688       -1.1316006580        0.6144015154
 C          6.1125944079       -2.2932021157        0.8829332504
 C          5.6470955073       -3.5327831219        0.5532139143
 C          4.3935573469       -3.6541405098       -0.0601942490
 C          3.6405603582       -2.5474405238       -0.3392597764
 C          4.0867366430       -1.2429795760       -0.0234597131
 N          0.9289395154       -0.1156274659        0.0109679932
 C          0.8753558450       -1.1116168469        0.9454740351
 C         -0.2841397246       -0.9503279590        1.6210976977
 N         -0.9091795803        0.1364668436        1.0794353527
 C         -2.1929690957        0.6168864660        1.5648099331
 H         -2.5972184342        1.2830366648        0.7914690015
 C         -1.9625376004        1.4541239611        2.8217335792
 C         -3.1325190262       -0.5609354845        1.7242512544
 C         -3.5746969550       -0.9667901722        2.9571271961
 C         -4.4246822008       -2.0727591276        3.1030273517
 C         -4.8242457677       -2.7807852175        2.0080187907
 C         -4.3974069264       -2.4026855772        0.7181859406
 C         -4.8070147975       -3.1278456962       -0.4203584547
 C         -4.3997130102       -2.7614023024       -1.6711461349
 C         -3.5689739120       -1.6439325367       -1.8318940885
 C         -3.1543276409       -0.9202586003       -0.7485111147
 C         -3.5451573771       -1.2751442664        0.5620309748
 C         -0.1670336693        0.6738093670        0.0878819860
 Ni        -0.5926278992        2.3764771375       -1.0971327598
 C          0.8347556945        3.4473124550       -0.9965921136
 O          1.6860129346        4.2035719270       -0.9043508375
 C         -0.9672183460        1.6561226537       -2.6839265160
 O         -1.2584785939        1.1561210366       -3.6691032571
 C         -1.9744649776        3.3142077661       -0.4410045760
 O         -2.7949583893        4.0399009081       -0.1173632001
 H          2.6794306191       -1.0809192620       -2.6960600753
 H          1.0715091497       -0.3748224000       -2.8654700034
 H          1.2767678446       -1.8135036334       -1.8908778371
 H          3.3334036278        2.0651598486       -0.0827343374
 H          5.4970031208        2.2321067601        1.0290593644
 H          6.8221732271        0.1881835716        1.4669047497
 H          7.0740762803       -2.1767419783        1.3623689103
 H          6.2309228587       -4.4166542277        0.7624063689
 H          4.0189225527       -4.6350165193       -0.3147775818
 H          2.6839901822       -2.6913709738       -0.8086396100
 H          1.6542043598       -1.8337585335        1.0703223550
 H         -0.7116582083       -1.5174468431        2.4218572308
 H         -2.9059153668        1.8374276348        3.2003543111
 H         -1.3241749727        2.2978576082        2.5653437482
 H         -1.4663743157        0.8765436234        3.5985665478
 H         -3.2754673741       -0.4372514622        3.8477346646
 H         -4.7522489011       -2.3566553854        4.0922478778
 H         -5.4732939081       -3.6385441046        2.1099195006
 H         -5.4544604257       -3.9818658463       -0.2797957914
 H         -4.7168878294       -3.3212627818       -2.5385890274
 H         -3.2575369556       -1.3511352739       -2.8238303044
 H         -2.5217586656       -0.0608944893       -0.9149565737
  60
        -99.31470254
 C          2.2544732608       -2.0781065422       -2.3152781247
 C          2.3131000684       -0.9900613867       -1.2438275750
 H          2.4868422568       -0.0297081650       -1.7489213414
 C          3.3797695824       -1.1802933828       -0.1837980603
 C          4.1118700277       -2.3368256733       -0.0991342980
 C          5.0828002287       -2.5191182415        0.8964565060
 C          5.3147257137       -1.5407607526        1.8178170927
 C          4.5898768689       -0.3320212419        1.7723297148
 C          4.8242139719        0.6883764103        2.7177738443
 C          4.1288130935        1.8627329058        2.6720642644
 C          3.1716269995        2.0648771047        1.6682305321
 C          2.9205740241        1.0945117731        0.7385076449
 C          3.6119404912       -0.1369227964        0.7587660576
 N          1.0113303754       -0.9004571712       -0.6008717844
 C          0.6218598270       -1.7658207969        0.3804268112
 C         -0.6341641646       -1.4140951222        0.7359741068
 N         -0.9787673949       -0.3423546507       -0.0388631271
 C         -2.2382454978        0.3841845571        0.0451247495
 H         -2.4814394083        0.6562110952       -0.9907713862
 C         -2.0534671659        1.7053234108        0.8078626762
 C         -3.3812204832       -0.4871668845        0.5284915642
 C         -4.2446370856       -0.9432730175       -0.4393076551
 C         -5.3716046474       -1.7147838005       -0.1322660156
 C         -5.6464425969       -2.0244799885        1.1673466148
 C         -4.7883502421       -1.5939712983        2.1991771531
 C         -5.0671875525       -1.9287108290        3.5415239886
 C         -4.2373967803       -1.5412640735        4.5535552346
 C         -3.0814545167       -0.8075097899        4.2550456805
 C         -2.7867915819       -0.4621078697        2.9655474938
 C         -3.6291781132       -0.8257615672        1.8896055968
 C          0.0278453013       -0.0199764769       -0.8859021806
 Ni         0.0650235156        1.5062974570       -2.3590156577
 C          1.1779743968        1.0342389503       -3.6833073617
 O          1.8215266637        0.8199795923       -4.6021376383
 C         -1.5662478164        1.6460437346       -3.0823334512
 O         -2.5429140609        1.7705628839       -3.6619947582
 C          0.5915363382        2.9504614657       -1.4567977960
 O          0.9269719531        3.8699890238       -0.8677257780
 H          1.4838200579       -1.8164397335       -3.0380627944
 H          1.9999141154       -3.0441591873       -1.8848068409
 H          3.2052510053       -2.1507568749       -2.8358166096
 H          3.9557405240       -3.1375443433       -0.8042989785
 H          5.6385250655       -3.4447837086        0.9243404735
 H          6.0559132816       -1.6738768452        2.5925989779
 H          5.5715598118        0.5200409309        3.4802920572
 H          4.3142336197        2.6400266258        3.3986636796
 H          2.6316812880        2.9995547679        1.6280004506
 H          2.1824516328        1.2882238348       -0.0246561440
 H          1.2600895045       -2.5426320734        0.7474586700
 H         -1.2932443642       -1.8509241156        1.4555057557
 H         -1.3412188842        1.6120624660        1.6227548298
 H         -3.0058033417        2.0470063257        1.2037629175
 H         -1.6681518660        2.4592353039        0.1236842156
 H         -4.0591456761       -0.6962955042       -1.4752162350
 H         -6.0188678040       -2.0472902683       -0.9296561328
 H         -6.5198748573       -2.6047234587        1.4270794712
 H         -5.9564033958       -2.5063348276        3.7499604269
 H         -4.4581528939       -1.8009579424        5.5781200777
 H         -2.4157264720       -0.5157330239        5.0541550278
 H         -1.8801581880        0.0859258731        2.7756762131
  60
        -99.31402258
 C          2.8455767005       -3.2932105405       -0.5142036327
 C          2.0379647814       -2.0155914937       -0.7476955396
 H          1.5439459870       -2.0973104222       -1.7267199064
 C          2.9883171368       -0.8296924619       -0.8280777274
 C          3.4740558957       -0.5195176875       -2.0762632199
 C          4.3236364865        0.5709541714       -2.2918714192
 C          4.6711519644        1.3746576730       -1.2455284257
 C          4.2422987212        1.0693795420        0.0613563302
 C          4.6288565697        1.8834407383        1.1467946986
 C          4.2650587921        1.5752524953        2.4254616096
 C          3.5235557221        0.4119178537        2.6698834828
 C          3.1215363338       -0.3904530795        1.6388589687
 C          3.4270847768       -0.0756367005        0.2950586720
 N          0.9810543594       -1.8384359312        0.2357848830
 C          0.7045292592       -2.7127256473        1.2508979276
 C         -0.2669074204       -2.1491632433        2.0026137910
 N         -0.5717657207       -0.9471242189        1.4249947949
 C         -1.4731160308        0.0446316978        1.9942980245
 H         -0.8822049106        0.9697265585        2.0595724845
 C         -1.9209026996       -0.3266320008        3.4094609296
 C         -2.7022291431        0.3732805482        1.1642936537
 C         -3.0399859685        1.7046801659        1.0790079516
 C         -4.1952285840        2.1352174206        0.4181000169
 C         -5.0171976356        1.2215990203       -0.1754137941
 C         -4.7234328756       -0.1549515949       -0.1057045602
 C         -5.5789930732       -1.0989387760       -0.7114493020
 C         -5.3197932802       -2.4369759906       -0.6366389847
 C         -4.1884096397       -2.8839401767        0.0586897623
 C         -3.3365627562       -1.9941873202        0.6515755141
 C         -3.5613455807       -0.6012104060        0.5868785007
 C          0.1871445051       -0.7452850308        0.3212431067
 Ni         0.0596320115        0.9026880492       -0.9595477454
 C         -1.6571505338        1.0322564944       -1.4752828300
 O         -2.6538353542        1.0694509182       -2.0325899234
 C          0.8455205439        2.1205348956        0.0629183115
 O          1.4334901331        2.7925073522        0.7782837579
 C          0.8615637548        0.7196054157       -2.5539930828
 O          1.1849308818        0.8092194198       -3.6466562153
 H          3.6032603569       -3.3664551564       -1.2904547023
 H          2.2151630345       -4.1780644621       -0.5724871085
 H          3.3533746952       -3.2653684337        0.4474278823
 H          3.1754430591       -1.1186168284       -2.9259568588
 H          4.6691213801        0.7832737026       -3.2925912612
 H          5.2874596784        2.2487126840       -1.3989768640
 H          5.2261971443        2.7604106495        0.9413883700
 H          4.5574132611        2.2079160679        3.2504996822
 H          3.2719354413        0.1462138377        3.6870892719
 H          2.5809511699       -1.2918751238        1.8755739484
 H          1.2003946678       -3.6502835763        1.3831761565
 H         -0.7387506804       -2.5257063648        2.8853402471
 H         -2.4886296280        0.5052776888        3.8190627750
 H         -1.0645979537       -0.5066311797        4.0563475147
 H         -2.5688143478       -1.2002500835        3.4040355079
 H         -2.3936758631        2.4467785145        1.5268297279
 H         -4.4163374133        3.1910511485        0.3716201530
 H         -5.9044753464        1.5364155228       -0.7052516487
 H         -6.4490728069       -0.7361564311       -1.2399981752
 H         -5.9782749936       -3.1535485012       -1.1051351315
 H         -3.9891121498       -3.9441810373        0.1235001666
 H         -2.4776908047       -2.3779485630        1.1748398458
  60
        -99.31387018
 C          3.2148379531       -2.2022774339       -1.0352212786
 C          2.1992378095       -1.0770794075       -0.8339779750
 H          2.3561378586       -0.3154720213       -1.6070345877
 C          2.3861326539       -0.4376293523        0.5311556501
 C          1.6090718194       -0.8365899809        1.5894426672
 C          1.7545106436       -0.2663346210        2.8606193331
 C          2.6907041457        0.7030605742        3.0716737161
 C          3.5245276638        1.1340404458        2.0193564699
 C          4.4940737739        2.1360954000        2.2319854068
 C          5.2974748361        2.5649346540        1.2148569499
 C          5.1600499000        2.0047001168       -0.0624608011
 C          4.2309794764        1.0302982652       -0.3004483310
 C          3.3820066959        0.5599050868        0.7258187939
 N          0.8347619184       -1.5397049980       -1.0049228667
 C          0.4286677005       -2.8197705907       -0.7580841275
 C         -0.9086520027       -2.8397515794       -0.9299474484
 N         -1.2920516593       -1.5682362913       -1.2681332180
 C         -2.7250725535       -1.3582559150       -1.4550715577
 H         -3.0189268600       -2.0809188996       -2.2315579285
 C         -3.1515392639        0.0157744619       -1.9494194078
 C         -3.4666791241       -1.7372678459       -0.1837823533
 C         -4.4808914198       -2.6569526874       -0.2841391942
 C         -5.2101929798       -3.0778000887        0.8351573621
 C         -4.9010067857       -2.5869682456        2.0700808738
 C         -3.8688025638       -1.6394187510        2.2260182366
 C         -3.5470721212       -1.1312398876        3.5023586186
 C         -2.5585367099       -0.2029271261        3.6624854917
 C         -1.8597711291        0.2668456696        2.5420452423
 C         -2.1461203196       -0.2066430143        1.2919686034
 C         -3.1451941728       -1.1844789331        1.0871343370
 C         -0.2200512135       -0.7431004216       -1.3228453393
 Ni         0.1374828854        1.3435258400       -1.6699950131
 C         -1.2480363753        2.4037693703       -2.0961012633
 O         -1.9431419657        3.2616782659       -2.3873847729
 C          0.6871877383        1.9235645282       -0.0651237073
 O          0.8430850836        2.4081576722        0.9571130018
 C          1.2474627830        1.3745817529       -3.0720371760
 O          1.8767532838        1.4345786040       -4.0243709721
 H          4.2132481715       -1.7760541462       -1.0863958471
 H          3.0172125924       -2.7372076674       -1.9621200350
 H          3.1980311523       -2.9013952808       -0.2019589540
 H          0.8503738866       -1.5949084004        1.4569682157
 H          1.1121461496       -0.6011184829        3.6618333274
 H          2.8076221916        1.1575411051        4.0449606008
 H          4.5844502846        2.5613785033        3.2214908105
 H          6.0353188926        3.3353521352        1.3835932575
 H          5.7940621838        2.3520628245       -0.8652125626
 H          4.1509634332        0.6265036185       -1.2977575409
 H          1.0963767375       -3.6091707401       -0.4876309438
 H         -1.6116178208       -3.6415160248       -0.8353676334
 H         -4.2084266518       -0.0250048263       -2.2048274013
 H         -2.5863873450        0.2847007922       -2.8391073102
 H         -3.0164076183        0.7739131717       -1.1846418990
 H         -4.7291874659       -3.0740407493       -1.2508977542
 H         -6.0041910249       -3.7987344935        0.7092658869
 H         -5.4422047697       -2.9137593074        2.9463137140
 H         -4.1054708880       -1.4937342011        4.3540150654
 H         -2.3173035505        0.1794355138        4.6435636725
 H         -1.0885902922        1.0127373407        2.6668266894
 H         -1.5936405161        0.1924793189        0.4553967512
