  70
       -106.39107569
 C          2.2111574135        2.1239311993       -1.7173679615
 C          3.4265510289        2.3452537785       -0.8187347519
 C          4.3344542528        3.4091940813       -1.4339435212
 C          4.2146378723        1.0549374213       -0.5140497213
 H          5.1655298288        1.3593887040       -0.0627313717
 C          4.5076628733        0.2069074774       -1.7532148532
 C          5.3596403347       -1.0091288659       -1.4035268575
 C          4.6530641649       -1.8834838352       -0.3690391487
 H          3.7000888380       -2.2239578195       -0.7918443434
 C          5.4907341590       -3.1059362516       -0.0078063884
 C          4.3561445479       -1.0428285546        0.8703479053
 C          3.4987337840        0.1738687839        0.5186060969
 H          2.5419004495       -0.1698451615        0.0993814769
 O          3.2434903870        0.9389210975        1.7055154526
 C          2.0397303171        0.6635922936        2.3370801217
 N          0.9236859205        1.2938844620        1.6610750816
 C          0.6998810077        2.6423812819        1.7357541901
 C         -0.3345872657        2.9132099667        0.9100820853
 N         -0.7092390193        1.7268082734        0.3418800626
 C         -1.7954305206        1.5511654522       -0.6040474419
 H         -1.4605407057        0.7569891527       -1.2829246921
 C         -2.0578754538        2.8218526109       -1.4115377122
 C         -3.0651689432        1.0968942432        0.0918581135
 C         -3.3154211592        1.4881337895        1.3823953733
 C         -4.4771490679        1.0890826273        2.0559335359
 C         -5.3931613816        0.2976918697        1.4271300426
 C         -5.1857586102       -0.1190916805        0.0963311330
 C         -6.1286383099       -0.9394700412       -0.5575529491
 C         -5.9305431083       -1.3512740270       -1.8440046779
 C         -4.7750535002       -0.9540395716       -2.5306792388
 C         -3.8428926651       -0.1578081067       -1.9255462764
 C         -4.0100423834        0.2853697565       -0.5946246129
 C          0.0592150004        0.7118569901        0.7972808974
 Ni        -0.1741323964       -1.3180598131        0.2542212492
 C         -1.8553745045       -1.7074906808        0.7560547040
 O         -2.8648672544       -2.0498309748        1.1599155568
 C          0.1997479687       -1.3709709927       -1.4887910188
 O          0.5091826775       -1.4250086053       -2.5880335500
 C          0.9216906778       -2.4260250983        1.1432781446
 O          1.5444586583       -3.2611753667        1.6127833600
 H          1.5919501652        1.3067574133       -1.3542206652
 H          2.5175017765        1.8987437894       -2.7358767036
 H          1.6032333016        3.0271793953       -1.7404051524
 H          3.0750818800        2.7276088115        0.1460495268
 H          3.7806123283        4.3334156119       -1.5855724722
 H          4.7172776908        3.0833483556       -2.3982167696
 H          5.1783146753        3.6200172494       -0.7812129983
 H          5.0251256260        0.8124645313       -2.4986597435
 H          3.5684558939       -0.1387057234       -2.1881449075
 H          6.3216229964       -0.6820993802       -1.0017777318
 H          5.5547561844       -1.5908312548       -2.3070292657
 H          5.6922246555       -3.7051556519       -0.8928643984
 H          4.9670942404       -3.7271220670        0.7151012750
 H          6.4413987343       -2.8012722630        0.4250443685
 H          5.2899489460       -0.6927541787        1.3158155320
 H          3.8384942436       -1.6472460307        1.6185797553
 H          2.1169315450        1.0824770387        3.3466568145
 H          1.8309401913       -0.4142314883        2.3967346447
 H          1.2912279742        3.2817589396        2.3578136042
 H         -0.8138249813        3.8444089193        0.6942976858
 H         -2.7470072753        2.5935565637       -2.2202797048
 H         -1.1325983779        3.2023783689       -1.8394262998
 H         -2.5159455395        3.5910496126       -0.7937295775
 H         -2.6039380599        2.1078268658        1.9100042396
 H         -4.6320112870        1.4102399916        3.0753887904
 H         -6.2889793492       -0.0244298470        1.9379353804
 H         -7.0130298922       -1.2391797845       -0.0134844254
 H         -6.6541602016       -1.9832205311       -2.3373257789
 H         -4.6217632197       -1.2852741913       -3.5474499366
 H         -2.9652374612        0.1258658253       -2.4854962097
  70
       -106.39107270
 C          2.0892312752        2.2509772116       -1.7360835280
 C          3.3457010962        2.4547307839       -0.8914084903
 C          4.2047874263        3.5594032733       -1.5049276476
 C          4.1677753333        1.1664562026       -0.6831706972
 H          5.1353684243        1.4678895349       -0.2666558069
 C          4.4111769805        0.3775278990       -1.9711635216
 C          5.2983230205       -0.8372185302       -1.7174788530
 C          4.6588716451       -1.7670787974       -0.6877084794
 H          3.6910541157       -2.1062141571       -1.0765488228
 C          5.5326892165       -2.9887499255       -0.4221995753
 C          4.4120304260       -0.9851836009        0.6001913060
 C          3.5184027335        0.2292636808        0.3439881453
 H          2.5479955176       -0.1144348868       -0.0427591253
 O          3.3088063541        0.9386295653        1.5735613695
 C          2.1441410906        0.6106856189        2.2515608977
 N          0.9822633405        1.2398936577        1.6566226278
 C          0.7339051467        2.5791460822        1.7940206634
 C         -0.3478256533        2.8560678355        1.0335323559
 N         -0.7263780457        1.6829519450        0.4407147995
 C         -1.8583593068        1.5173708063       -0.4516259035
 H         -1.5503378569        0.7439186232       -1.1664283491
 C         -2.1747961101        2.8046559020       -1.2123405943
 C         -3.0857500097        1.0309714563        0.2967726187
 C         -3.2713314163        1.3816952203        1.6096111146
 C         -4.3931872447        0.9523120364        2.3305441350
 C         -5.3345727319        0.1710507804        1.7271762037
 C         -5.1931674945       -0.2054928939        0.3758899627
 C         -6.1621278166       -1.0158123059       -0.2518935705
 C         -6.0277181150       -1.3890525190       -1.5581811761
 C         -4.9124462794       -0.9617578684       -2.2916864837
 C         -3.9566534973       -0.1740775006       -1.7127811003
 C         -4.0582940311        0.2298966151       -0.3628865865
 C          0.0864980758        0.6702246100        0.8167625376
 Ni        -0.1246784611       -1.3410517919        0.2005640742
 C          0.1941392241       -1.3107847202       -1.5539286745
 O          0.4756462872       -1.3068037255       -2.6620017404
 C          1.0251815943       -2.4588200604        1.0049748043
 O          1.6812847487       -3.2978327910        1.4188049822
 C         -1.7778658119       -1.7903297569        0.7448349706
 O         -2.7644914908       -2.1712115707        1.1701424357
 H          2.3462801565        2.0738219001       -2.7774541191
 H          1.4678987402        3.1441602700       -1.6896770464
 H          1.5013477693        1.4090993017       -1.3774145492
 H          3.0384090083        2.7894315679        0.1056195447
 H          5.0779100594        3.7564930750       -0.8873304969
 H          3.6301823958        4.4796605806       -1.5877575099
 H          4.5422574323        3.2817369111       -2.5006983985
 H          4.8812203449        1.0233809173       -2.7141827862
 H          3.4567832861        0.0344547275       -2.3738175189
 H          6.2743273458       -0.5107437279       -1.3506013368
 H          5.4562328868       -1.3765081385       -2.6539564800
 H          5.6981647856       -3.5461903007       -1.3413658141
 H          5.0561889813       -3.6492514597        0.2984730329
 H          6.4992932594       -2.6859899386       -0.0247704258
 H          5.3615085942       -0.6373571686        1.0130710112
 H          3.9426906111       -1.6299997474        1.3465512521
 H          2.2624214343        0.9917325779        3.2720886625
 H          1.9620525614       -0.4732954008        2.2782152116
 H          1.3431436033        3.2086634272        2.4088258910
 H         -0.8573879070        3.7831514812        0.8776977339
 H         -1.2758354243        3.2071749569       -1.6748099017
 H         -2.6102418545        3.5524124255       -0.5532483706
 H         -2.9003664281        2.5885787135       -1.9920201414
 H         -2.5385029322        1.9924485996        2.1179879350
 H         -4.4972226950        1.2425955470        3.3655950438
 H         -6.2002940262       -0.1736204801        2.2739059264
 H         -7.0146565189       -1.3392731791        0.3282411995
 H         -6.7708677298       -2.0135565532       -2.0315345851
 H         -4.8092072430       -1.2628386970       -3.3240282253
 H         -3.1111519266        0.1330840289       -2.3086462120
  70
       -106.39103622
 C          4.4928141369       -0.2945198860       -1.5935284363
 C          4.8765280285       -0.2822331542       -0.1148588075
 C          6.3326336517       -0.7196816743        0.0404147719
 C          3.9470101885       -1.1304866878        0.7774585815
 H          4.4184266222       -1.1877818604        1.7651714099
 C          3.7208449850       -2.5515331770        0.2606749181
 C          2.8797132717       -3.3605627560        1.2423130837
 C          1.5167394727       -2.7029911578        1.4479715042
 H          1.0019887959       -2.6632991110        0.4821209503
 C          0.6575559801       -3.4976539467        2.4263937163
 C          1.7119916722       -1.2718462077        1.9428654247
 C          2.5817280426       -0.4564012346        0.9834807610
 H          2.0648754683       -0.3712324734        0.0194461133
 O          2.7729627360        0.8575373119        1.5265955850
 C          2.1667358803        1.8857248289        0.8253704340
 N          0.7225311618        1.8540813975        0.9405340980
 C          0.0943763442        2.0170473631        2.1463033054
 C         -1.2282579567        1.8755742089        1.9157724725
 N         -1.3722574749        1.6244311441        0.5785801272
 C         -2.6809464549        1.4877463267       -0.0434533095
 H         -2.5227324567        1.0277016311       -1.0271816310
 C         -3.2592459706        2.8838251025       -0.2744317970
 C         -3.5397802991        0.5624957161        0.7951450933
 C         -4.5870424174        1.0385458839        1.5422927995
 C         -5.3727489571        0.1858620349        2.3309043917
 C         -5.1070654023       -1.1513540015        2.3703597150
 C         -4.0444527885       -1.6905125606        1.6165602837
 C         -3.7719614749       -3.0745597342        1.6379635595
 C         -2.7559485942       -3.6020869184        0.8939755910
 C         -1.9625125032       -2.7587239810        0.1039677110
 C         -2.1900553963       -1.4112479655        0.0751926827
 C         -3.2408230214       -0.8301063451        0.8188452181
 C         -0.1745023415        1.6057164744       -0.0436059368
 Ni         0.2252323458        1.2444932186       -2.0946129550
 C          0.5417738250       -0.5099037795       -2.1813777082
 O          0.7404492386       -1.6341477404       -2.2352936166
 C         -1.1922812431        1.7729614037       -3.0646656713
 O         -2.0018322991        2.1283129477       -3.7864414309
 C          1.6053740838        2.2709664857       -2.6054504389
 O          2.4384040164        2.9234996228       -3.0328821630
 H          5.0941341417        0.4328566449       -2.1353816031
 H          3.4457604693       -0.0363475170       -1.7403854209
 H          4.6714555953       -1.2723058223       -2.0339429816
 H          4.8015544546        0.7478279948        0.2522435070
 H          6.4774261853       -1.7315467145       -0.3305260678
 H          6.6362394566       -0.6871067515        1.0843083290
 H          6.9839740371       -0.0574652402       -0.5255837718
 H          4.6815181326       -3.0451955330        0.1094886882
 H          3.2031881137       -2.5141473830       -0.6991033251
 H          3.3975283821       -3.4287784245        2.2019440813
 H          2.7450428619       -4.3754902134        0.8619776812
 H          1.1407423873       -3.5498998092        3.3998459820
 H          0.5070139698       -4.5119728093        2.0640636978
 H         -0.3168696224       -3.0293288752        2.5486439387
 H          2.1961214817       -1.2792313136        2.9218563612
 H          0.7397611622       -0.7844711001        2.0540812999
 H          2.4120019194        1.8612691169       -0.2475526141
 H          2.5383286422        2.8169662222        1.2697614066
 H          0.6430441698        2.2036331189        3.0458118051
 H         -2.0648462282        1.9216185515        2.5818093368
 H         -4.2452816708        2.8137878364       -0.7251721900
 H         -2.6049628736        3.4274459390       -0.9535017681
 H         -3.3238599444        3.4469570289        0.6538640806
 H         -4.8325814946        2.0887765620        1.5348636543
 H         -6.1881282155        0.6027306926        2.9033520104
 H         -5.7067809039       -1.8174698729        2.9735745661
 H         -4.3924029062       -3.7106199985        2.2532343269
 H         -2.5576017952       -4.6634159348        0.9080939909
 H         -1.1662711118       -3.1836434763       -0.4886405628
 H         -1.5518864502       -0.7901205061       -0.5356153831
  70
       -106.39103110
 C          4.3484581820       -0.0670089379       -2.0070826835
 C          4.8574552319        0.1617330711       -0.5849297608
 C          6.3611980427       -0.1054795326       -0.5296035943
 C          4.1103116798       -0.6620761055        0.4841476571
 H          4.6717402848       -0.5550763924        1.4192538726
 C          3.9959873966       -2.1496484892        0.1501239214
 C          3.3395233595       -2.9154835528        1.2938009620
 C          1.9363408214       -2.3761661571        1.5632575006
 H          1.3368335370       -2.5026400210        0.6554593630
 C          1.2605548528       -3.1303372784        2.7041372944
 C          2.0163355780       -0.8841286058        1.8776317848
 C          2.7035277333       -0.1058568523        0.7534992015
 H          2.0966087998       -0.1848942566       -0.1570692126
 O          2.7986978873        1.2749360227        1.1308962429
 C          2.0301499540        2.1514131131        0.3844714006
 N          0.6125568029        2.0028692832        0.6464780278
 C          0.0794856941        2.2579518719        1.8816921958
 C         -1.2381295788        1.9753011673        1.8004210191
 N         -1.4733970033        1.5499012849        0.5215970521
 C         -2.8119295945        1.2278644451        0.0493685941
 H         -2.6958101278        0.6564624670       -0.8805486382
 C         -3.5327246307        2.5309794519       -0.2958939110
 C         -3.5087539935        0.3551160317        1.0737324757
 C         -4.5367204947        0.8357944060        1.8442962337
 C         -5.1718337271        0.0334463876        2.8030635325
 C         -4.7738708492       -1.2576120311        2.9903449228
 C         -3.7248462721       -1.8000388299        2.2200337002
 C         -3.3163314860       -3.1389185952        2.3954400924
 C         -2.3135699909       -3.6723190283        1.6377879508
 C         -1.6710296686       -2.8791335981        0.6770379480
 C         -2.0323149999       -1.5735709450        0.4945867449
 C         -3.0740591069       -0.9900817613        1.2490436870
 C         -0.3385937826        1.5583434294       -0.2093778363
 Ni        -0.0875850470        0.9746398183       -2.2324563972
 C         -1.6284045705        1.2528289814       -3.1147714099
 O         -2.5280833580        1.4407192576       -3.7914640245
 C          1.1371057554        2.0398559606       -2.9969791542
 O          1.8614765630        2.7007763856       -3.5808810054
 C          0.3855599746       -0.7436516241       -2.1383147288
 O          0.6859804287       -1.8445661915       -2.0742729643
 H          3.2697055951        0.0608515814       -2.0745063895
 H          4.5989648499       -1.0664416067       -2.3539736116
 H          4.8115704275        0.6490908109       -2.6831017556
 H          4.7011909856        1.2157504211       -0.3279772644
 H          6.5842470964       -1.1354680708       -0.7975614313
 H          6.7504365381        0.0844898137        0.4680707348
 H          6.8821761875        0.5445445936       -1.2290302053
 H          4.9876099967       -2.5605515580       -0.0430776224
 H          3.3937290287       -2.2776037657       -0.7506855402
 H          3.9450041134       -2.8176945699        2.1979631066
 H          3.2837264183       -3.9767009939        1.0416674072
 H          1.8326941815       -3.0201348107        3.6230036623
 H          1.1892543301       -4.1901328258        2.4704363952
 H          0.2561503205       -2.7482819422        2.8743666002
 H          2.5827708407       -0.7276647630        2.7982399747
 H          1.0102123186       -0.4851777846        2.0318666241
 H          2.1800752059        2.0209885651       -0.6982670976
 H          2.3422750462        3.1594189378        0.6834011881
 H          0.6839210567        2.6007535810        2.6953878063
 H         -2.0138302709        2.0307645378        2.5358354546
 H         -4.5414579120        2.3241912865       -0.6423505886
 H         -2.9880300707        3.0331647319       -1.0933219449
 H         -3.5730052310        3.2021275485        0.5590955265
 H         -4.8835677374        1.8499680983        1.7243337928
 H         -5.9776033635        0.4519494884        3.3877825494
 H         -5.2567888741       -1.8847658771        3.7256694608
 H         -3.8215768979       -3.7365325333        3.1408734509
 H         -2.0105599676       -4.7001152275        1.7712501105
 H         -0.8848776878       -3.3098929836        0.0753582415
 H         -1.5086809598       -0.9890003018       -0.2471349293
  70
       -106.39098251
 C          4.2433731385       -0.2701177032       -2.0215766100
 C          4.7962062674       -0.0314985454       -0.6177513712
 C          6.2762821908       -0.4105118238       -0.5787675861
 C          4.0115834614       -0.7567743816        0.4948350707
 H          4.5928011303       -0.6454113434        1.4172866263
 C          3.7940204816       -2.2472925539        0.2317733454
 C          3.1127250767       -2.9166200549        1.4210601193
 C          1.7548247981       -2.2730189116        1.6937163450
 H          1.1240361273       -2.4013411681        0.8077551422
 C          1.0570114178       -2.9248319426        2.8832576233
 C          1.9403715908       -0.7767329707        1.9331355576
 C          2.6468085789       -0.1011937648        0.7553688747
 H          2.0174863973       -0.1960181774       -0.1384431599
 O          2.8291001394        1.2905072477        1.0512158495
 C          2.0704547698        2.1629204126        0.2885511624
 N          0.6567087928        2.0607126445        0.5879611981
 C          0.1658972046        2.3404524051        1.8353356064
 C         -1.1534233647        2.0565989289        1.8042994064
 N         -1.4324458413        1.6071808095        0.5421871852
 C         -2.7842439151        1.2527744034        0.1357697902
 H         -2.7032086249        0.7192357691       -0.8190130050
 C         -3.5748389055        2.5356157259       -0.1208969793
 C         -3.3836858774        0.3194467676        1.1695167846
 C         -4.3316177712        0.7552153690        2.0602123521
 C         -4.8735877597       -0.0985945569        3.0315271436
 C         -4.4642153013       -1.3973457830        3.1090347514
 C         -3.4969058379       -1.8955926735        2.2123742715
 C         -3.0819694941       -3.2427009036        2.2716057677
 C         -2.1617867724       -3.7342356183        1.3907980152
 C         -1.6078924223       -2.8879282778        0.4205485390
 C         -1.9747680923       -1.5730473347        0.3501585926
 C         -2.9376010301       -1.0321586614        1.2302327361
 C         -0.3234254355        1.6018189775       -0.2270340807
 Ni        -0.1384330185        1.0397102432       -2.2638203944
 C         -1.7154377866        1.3117654664       -3.0807820406
 O         -2.6430613581        1.5092888077       -3.7158185122
 C          1.0456611459        2.1372953348       -3.0476742984
 O          1.7465212947        2.8194012398       -3.6356510980
 C          0.3641549501       -0.6732640495       -2.2262855394
 O          0.6753022477       -1.7728271086       -2.2072678682
 H          4.3878259063       -1.3033478469       -2.3272499550
 H          4.7636483715        0.3669491334       -2.7341309968
 H          3.1820715918       -0.0372995150       -2.0810872789
 H          4.7240789778        1.0397629589       -0.3971580249
 H          6.8321537270        0.1794023960       -1.3041057654
 H          6.4162818290       -1.4610940121       -0.8218836718
 H          6.6967347998       -0.2243928945        0.4068823909
 H          4.7525408464       -2.7311755082        0.0408804727
 H          3.1665518309       -2.3752653630       -0.6516603219
 H          3.7435011300       -2.8207437780        2.3079862682
 H          2.9808818291       -3.9816382891        1.2181108548
 H          1.6522090409       -2.8042492461        3.7860353584
 H          0.9148261915       -3.9881825850        2.7055663414
 H          0.0811610379       -2.4731123427        3.0490089566
 H          2.5398910464       -0.6141475961        2.8314908135
 H          0.9663011087       -0.3070696198        2.0917966689
 H          2.1924705294        1.9871597455       -0.7915663523
 H          2.4193880307        3.1709379974        0.5425934736
 H          0.7977260249        2.6979427814        2.6214786420
 H         -1.9023477428        2.1244582018        2.5658575382
 H         -4.5992075803        2.2972872575       -0.3934595418
 H         -3.1125764056        3.0753946464       -0.9452321267
 H         -3.5746392941        3.1873187366        0.7497392210
 H         -4.6872584529        1.7731179294        2.0271233208
 H         -5.6176561000        0.2861523481        3.7131956166
 H         -4.8764979741       -2.0644246613        3.8521883108
 H         -3.5170905267       -3.8810656269        3.0273972407
 H         -1.8571788809       -4.7692383547        1.4342759452
 H         -0.8876784660       -3.2846210526       -0.2797394939
 H         -1.5161684689       -0.9462799028       -0.4003592816
  70
       -106.39061752
 C          2.3840061115        2.1350500974        3.7425994572
 C          1.5182635033        1.7770024699        2.5356106971
 C          0.0416291176        1.8578232338        2.9183769466
 C          1.8580871340        0.4087147028        1.9086580874
 H          1.0362097585        0.1394025226        1.2345779946
 C          2.0030576606       -0.7051427552        2.9484905041
 C          2.2965260533       -2.0514643085        2.2961373055
 C          3.5785857042       -1.9822974237        1.4692602581
 H          4.4125269558       -1.7241437093        2.1325128871
 C          3.8795241616       -3.3216883462        0.8032684696
 C          3.4244787821       -0.8842081988        0.4184591737
 C          3.1521598743        0.4683025237        1.0742257686
 H          3.9876219642        0.7090279889        1.7431379707
 O          3.1896884982        1.5671342138        0.1521494842
 C          2.5705346644        1.4575175313       -1.0868002282
 N          1.1322341890        1.6356427483       -1.0368887328
 C          0.5728487312        2.7982621920       -0.5796343798
 C         -0.7654015078        2.6255780348       -0.6141228640
 N         -0.9883165988        1.3659559973       -1.0990269440
 C         -2.3353993605        0.8553127990       -1.3099494534
 H         -2.2454602186       -0.2232269227       -1.4954956006
 C         -2.9126511745        1.4969527492       -2.5716266127
 C         -3.1478834796        1.0773386703       -0.0479965670
 C         -4.1352592962        2.0281063833        0.0082602443
 C         -4.8633380054        2.2628693099        1.1833828391
 C         -4.5958783909        1.5454091388        2.3119710790
 C         -3.5947382370        0.5530474196        2.3050736946
 C         -3.3164687880       -0.2008365706        3.4643419939
 C         -2.3584059663       -1.1735637178        3.4573040622
 C         -1.6356464284       -1.4286656406        2.2839645998
 C         -1.8727420474       -0.7056452341        1.1485246698
 C         -2.8576501398        0.3059441309        1.1141623950
 C          0.1752236769        0.7385089852       -1.3767736087
 Ni         0.3955971359       -1.1388694419       -2.3509148684
 C          1.9658116984       -1.1822577686       -3.2190653499
 O          2.9072349120       -1.3174581356       -3.8503011462
 C          0.2697968755       -2.4363113707       -1.1328859641
 O          0.2132767430       -3.3339401611       -0.4281155220
 C         -0.8944547383       -1.2429938991       -3.5936913242
 O         -1.6354440631       -1.4069965203       -4.4460429313
 H          2.1494784154        1.5029967521        4.5952211428
 H          2.1970429822        3.1677394709        4.0299605825
 H          3.4410313548        2.0380937613        3.5096473358
 H          1.7089739360        2.5301987522        1.7648341939
 H         -0.2037250635        1.1264730850        3.6846746177
 H         -0.5967492500        1.6719134010        2.0577268736
 H         -0.1921761537        2.8464667026        3.3074675269
 H          1.0838297257       -0.7730860936        3.5323720915
 H          2.8219129871       -0.4650796720        3.6282499812
 H          1.4685472842       -2.3352476508        1.6443655556
 H          2.3936872398       -2.8191337304        3.0670843245
 H          4.7989272626       -3.2653653652        0.2248267329
 H          3.0705832444       -3.6032050953        0.1326138506
 H          3.9912320259       -4.1032939911        1.5512155068
 H          2.5865949514       -1.1546892866       -0.2324947931
 H          4.3298824437       -0.8154473672       -0.1901155038
 H          2.7698254760        0.5028043372       -1.5866512589
 H          2.9958287802        2.2731741959       -1.6864783194
 H          1.1709356274        3.6325953357       -0.2779492305
 H         -1.5634884669        3.2793489050       -0.3293667522
 H         -2.2951798351        1.2214758010       -3.4240577339
 H         -2.9187242498        2.5821305302       -2.5005189164
 H         -3.9237330835        1.1399436503       -2.7468412378
 H         -4.3770896729        2.6197709272       -0.8603876449
 H         -5.6329592649        3.0205127258        1.1814685089
 H         -5.1465279884        1.7224093052        3.2244162604
 H         -3.8850588347        0.0063025774        4.3597932231
 H         -2.1544301281       -1.7513051205        4.3469073364
 H         -0.8871763908       -2.2067502860        2.2813372516
 H         -1.2925222912       -0.9215929035        0.2641655341
  70
       -106.39045768
 C          2.2771012332        2.4570494579       -0.8545127594
 C          3.1701210175        2.5200654420        0.3826370682
 C          4.0203402256        3.7888040022        0.3420632321
 C          4.0500549726        1.2682500383        0.5739099263
 H          4.7683344847        1.5015512151        1.3678434435
 C          4.8222293079        0.8564619683       -0.6810412176
 C          5.7404078651       -0.3291851777       -0.4002049037
 C          4.9390219254       -1.5298113442        0.1004149366
 H          4.2202490804       -1.8187796589       -0.6760244785
 C          5.8459671104       -2.7211914011        0.3915261423
 C          4.1601372446       -1.1221143624        1.3488616702
 C          3.2356117526        0.0606658620        1.0565055428
 H          2.5198434107       -0.2301326747        0.2743741316
 O          2.5112841321        0.4156893253        2.2421332128
 C          1.2638055483       -0.1763052128        2.3655674030
 N          0.2695965505        0.4688505494        1.5306475850
 C         -0.2131343935        1.7169871680        1.8217440516
 C         -1.0770238431        2.0402127341        0.8359665768
 N         -1.1001613867        0.9831939433       -0.0303233236
 C         -1.9266640225        0.9760224793       -1.2278819539
 H         -2.0003572706       -0.0700619111       -1.5575138448
 C         -1.2087354669        1.7538677653       -2.3303638261
 C         -3.3141869908        1.4824958591       -0.8841679614
 C         -3.7995548559        2.6505098501       -1.4150788305
 C         -5.0804593430        3.1256797520       -1.0989437853
 C         -5.8791802179        2.4280006146       -0.2418766890
 C         -5.4259993190        1.2230770942        0.3334831634
 C         -6.2466052871        0.4948881863        1.2200667758
 C         -5.8142941551       -0.6729617509        1.7799891569
 C         -4.5364221320       -1.1586191182        1.4716665687
 C         -3.7169206233       -0.4755578527        0.6165482175
 C         -4.1281707930        0.7352065534        0.0163648375
 C         -0.2659846035        0.0023810462        0.3766239341
 Ni         0.1622787497       -1.7877519625       -0.6878578359
 C          1.0755520026       -2.9695465030        0.3037706728
 O          1.6410221387       -3.8303872915        0.7975362544
 C         -1.3820712016       -2.5850312921       -1.1483177301
 O         -2.2812822164       -3.2180258506       -1.4525903429
 C          1.1583947449       -1.1997271228       -2.0448921205
 O          1.8575880848       -0.8243290361       -2.8669425692
 H          2.8662698270        2.5375034037       -1.7646404699
 H          1.5666400207        3.2816676264       -0.8381033388
 H          1.7146233880        1.5274616256       -0.8874052778
 H          2.5257749269        2.5801931130        1.2667109773
 H          4.6740172511        3.7920201480       -0.5269301735
 H          4.6341932742        3.8705399177        1.2360293772
 H          3.3803687769        4.6668613763        0.2855510782
 H          5.4153200312        1.6982783485       -1.0408236112
 H          4.1189816322        0.5763262510       -1.4669469876
 H          6.4798767003       -0.0509106237        0.3545003532
 H          6.2781475974       -0.5991360955       -1.3116468255
 H          6.3908779504       -3.0132411459       -0.5033227356
 H          5.2606822252       -3.5730583089        0.7300437173
 H          6.5670415969       -2.4697401501        1.1665971994
 H          4.8523327783       -0.8349099060        2.1433701406
 H          3.5691044034       -1.9652392081        1.7135864614
 H          0.9674554735       -0.0552743470        3.4138326481
 H          1.2760962207       -1.2444056564        2.1057205813
 H          0.0999778241        2.2545114197        2.6923824044
 H         -1.6782648332        2.9132730468        0.6881790258
 H         -1.8036548165        1.7566943399       -3.2392137501
 H         -0.2600982289        1.2669957056       -2.5450845912
 H         -1.0033502358        2.7773380698       -2.0252324028
 H         -3.2013470214        3.2333719090       -2.0968653682
 H         -5.4221497479        4.0490448619       -1.5427409019
 H         -6.8677562433        2.7843757808        0.0088816570
 H         -7.2296722356        0.8832686517        1.4455705130
 H         -6.4483305769       -1.2265638980        2.4565879289
 H         -4.1976279696       -2.0837544885        1.9142829766
 H         -2.7396972074       -0.8819705959        0.4071554106
  70
       -106.39045185
 C          3.5286021240        0.1472931550       -2.6328407505
 C          4.4984842707        0.4353090366       -1.4885594852
 C          5.9338605356        0.2089699405       -1.9620490981
 C          4.2052360364       -0.3767576850       -0.2107391148
 H          5.0714685877       -0.2581071434        0.4501171662
 C          3.9840701936       -1.8681434155       -0.4666860932
 C          3.8078697867       -2.6285306869        0.8431972089
 C          2.6082147211       -2.0905811757        1.6205345462
 H          1.7068751762       -2.2327727215        1.0131216690
 C          2.4352788427       -2.8312712110        2.9437874909
 C          2.7932905041       -0.5945373222        1.8630879198
 C          2.9918516831        0.1732146393        0.5542323573
 H          2.0904044805        0.0707263523       -0.0642453068
 O          3.1946053685        1.5602975513        0.8627202994
 C          2.1927970756        2.4188794341        0.4380278409
 N          0.9447797879        2.1897770390        1.1365208077
 C          0.8279038595        2.3680814928        2.4884896852
 C         -0.4208157355        1.9764689511        2.8259700193
 N         -1.0362382164        1.5742369954        1.6721926644
 C         -2.3813154606        1.0336635608        1.5696953117
 H         -2.8345832826        1.5359155627        0.7073877714
 C         -3.2216705999        1.3226010239        2.8114499070
 C         -2.3302898422       -0.4614169550        1.3069657383
 C         -1.3455355775       -1.2157951524        1.8937644307
 C         -1.2467251330       -2.5945403534        1.6679102919
 C         -2.1353121106       -3.2147883569        0.8389369420
 C         -3.1803891398       -2.4866040003        0.2350920025
 C         -4.1124154784       -3.1260422570       -0.6089224863
 C         -5.1429183054       -2.4310011394       -1.1734466701
 C         -5.2901431797       -1.0636194943       -0.9025296203
 C         -4.3994945004       -0.4134884921       -0.0946296752
 C         -3.3045582510       -1.0917890701        0.4855849158
 C         -0.2014071961        1.6945523932        0.6144018524
 Ni        -0.6048692105        1.1157155075       -1.3744932204
 C          0.3992270301        2.0581111048       -2.5297280991
 O          0.9060637422        2.6611532337       -3.3569423517
 C         -0.3202822008       -0.6399335975       -1.2735998435
 O         -0.1397838977       -1.7606973478       -1.1471342933
 C         -2.2979111627        1.5031558519       -1.8265280777
 O         -3.3106835371        1.7244796671       -2.3046677816
 H          3.6729718068        0.8730010029       -3.4307661026
 H          2.4919161608        0.2103032684       -2.3060269255
 H          3.6985551576       -0.8440220047       -3.0458287027
 H          4.4060919763        1.4921454072       -1.2133859075
 H          6.0890785476       -0.8274802742       -2.2524232617
 H          6.6435536178        0.4578977932       -1.1762668608
 H          6.1457451808        0.8360818591       -2.8251329885
 H          4.8341772562       -2.2771124144       -1.0141857224
 H          3.0893133814       -2.0054717508       -1.0759536083
 H          4.7090311774       -2.5249495366        1.4525221101
 H          3.6648820903       -3.6911053622        0.6350152777
 H          3.3256077689       -2.7199487676        3.5594668128
 H          2.2722952214       -3.8926033122        2.7689972207
 H          1.5866768594       -2.4377643933        3.4998106576
 H          3.6688919929       -0.4254347601        2.4940239430
 H          1.9238876522       -0.1911659474        2.3881849577
 H          1.9865095021        2.3212775613       -0.6388788354
 H          2.5494249524        3.4317711995        0.6595022754
 H          1.6366511203        2.7423847162        3.0810607280
 H         -0.8967838207        1.9623720289        3.7831897019
 H         -4.2444933389        1.0056368368        2.6239161435
 H         -3.2250577025        2.3864857039        3.0405083698
 H         -2.8538504834        0.7652289578        3.6702848685
 H         -0.6133846462       -0.7449004312        2.5354866736
 H         -0.4557629824       -3.1536907787        2.1440447205
 H         -2.0557174994       -4.2730185108        0.6364790353
 H         -3.9930358522       -4.1835892566       -0.7973590905
 H         -5.8507841293       -2.9259547807       -1.8217575778
 H         -6.1166532843       -0.5219038287       -1.3386671184
 H         -4.5521036950        0.6366089739        0.1025433922
  70
       -106.38981888
 C          2.3018880210        2.4453158330       -1.0361075767
 C          3.1006546548        2.6032406160        0.2563415649
 C          3.7902210006        3.9666272307        0.2736360144
 C          4.1102621574        1.4646178856        0.5039762610
 H          4.7253735643        1.7624421341        1.3604455337
 C          5.0297819676        1.1889544774       -0.6865419908
 C          6.0648028772        0.1223073605       -0.3455649301
 C          5.3776853503       -1.1870731397        0.0356688193
 H          4.7856615967       -1.5289695071       -0.8201155409
 C          6.3959597694       -2.2682807003        0.3840513033
 C          4.4358110379       -0.9355294993        1.2112538146
 C          3.4098924649        0.1578788641        0.9029380332
 H          2.7566368794       -0.1694874120        0.0832561197
 O          2.6142418411        0.3928616473        2.0735028910
 C          1.4065192614       -0.2857821878        2.1263806926
 N          0.3821759243        0.3826783808        1.3464223447
 C         -0.0482948820        1.6454031017        1.6535331021
 C         -0.9539559613        1.9856857339        0.7117363645
 N         -1.0582505869        0.9210971992       -0.1401729517
 C         -1.9424730719        0.9339907584       -1.2959995870
 H         -2.0939038452       -0.1116263752       -1.5937393950
 C         -1.2374889344        1.6452922027       -2.4499353917
 C         -3.2810362427        1.5179413386       -0.8920924096
 C         -3.7112569444        2.7285939527       -1.3716119212
 C         -4.9413831752        3.2765497514       -0.9800112067
 C         -5.7394515629        2.6112399428       -0.0965392219
 C         -5.3415767614        1.3629978853        0.4252058863
 C         -6.1604416658        0.6664382647        1.3384748070
 C         -5.7793802595       -0.5440814828        1.8425564929
 C         -4.5604230106       -1.1102008615        1.4446798825
 C         -3.7444069172       -0.4598339001        0.5614378862
 C         -4.0997560561        0.7976110638        0.0250660728
 C         -0.2305541704       -0.0786151444        0.2305366035
 Ni        -0.0498509084       -2.0224549737       -0.5861693345
 C         -0.9391969801       -2.9633997367        0.6403012355
 O         -1.5234359358       -3.4995161326        1.4615580022
 C         -0.7453229077       -2.0759253810       -2.2397264715
 O         -1.0899474252       -2.2306178661       -3.3172893594
 C          1.6634072390       -2.5143016432       -0.7770761532
 O          2.6853625887       -2.9635962763       -1.0170646395
 H          1.5046370339        3.1857944424       -1.0655609456
 H          1.8488897230        1.4593389207       -1.1073546988
 H          2.9355027195        2.5986902876       -1.9061078929
 H          2.3985968024        2.5785578904        1.0963986923
 H          3.0506927530        4.7605553796        0.1928889259
 H          4.4818319188        4.0654305456       -0.5595462119
 H          4.3428215511        4.1075809613        1.1996062826
 H          5.5370168252        2.1093561794       -0.9783772352
 H          4.4359380871        0.8440417009       -1.5348207633
 H          6.6833912083        0.4628155887        0.4880891332
 H          6.7202195038       -0.0413384671       -1.2037176925
 H          6.9981037251       -1.9634424709        1.2375730360
 H          7.0602445017       -2.4509845463       -0.4574988876
 H          5.8936891343       -3.2001265183        0.6329428303
 H          5.0113354921       -0.6227517609        2.0854248898
 H          3.9106405554       -1.8574700180        1.4736100609
 H          1.0990833112       -0.2872040048        3.1791615282
 H          1.4803528932       -1.3220728667        1.7618379630
 H          0.3227089742        2.1768783181        2.5050110058
 H         -1.5349773275        2.8758386267        0.5871733461
 H         -0.9581400705        2.6608920555       -2.1794265686
 H         -1.8771264954        1.6664168831       -3.3277559230
 H         -0.3298371334        1.0982207572       -2.6973830966
 H         -3.1070300188        3.2883338790       -2.0677894249
 H         -5.2434967620        4.2313540214       -1.3842888253
 H         -6.6863556052        3.0271304534        0.2159535732
 H         -7.1003507278        1.1134485664        1.6298820082
 H         -6.4112299714       -1.0720663336        2.5413442795
 H         -4.2664181210       -2.0715849082        1.8393881502
 H         -2.8161679000       -0.9308184656        0.2739132947
  70
       -106.38954726
 C          2.1557782889        2.4965776609       -1.2442369634
 C          3.0914766100        2.6715102379       -0.0495337667
 C          3.7949035701        4.0249361106       -0.1381923297
 C          4.1092851964        1.5246402393        0.1135501609
 H          4.8192833892        1.8336504933        0.8888194213
 C          4.8867663511        1.2041533274       -1.1639377879
 C          5.9382932681        0.1289509188       -0.9113531607
 C          5.2804880363       -1.1596722775       -0.4218458806
 H          4.5931221004       -1.5145982481       -1.1973563628
 C          6.3189375355       -2.2459527414       -0.1588473944
 C          4.4775743139       -0.8640759301        0.8432283130
 C          3.4408064785        0.2388247303        0.6176875024
 H          2.7029433575       -0.1000858836       -0.1205167191
 O          2.7675866312        0.5129892765        1.8543060057
 C          1.5855369924       -0.1848081117        2.0476237286
 N          0.4758857418        0.4373664540        1.3497996552
 C          0.0458768758        1.6980237410        1.6665769735
 C         -0.9449150798        1.9991133653        0.8002553442
 N         -1.0975150071        0.9145705701       -0.0182392922
 C         -2.0706162038        0.8878250933       -1.0986812188
 H         -2.2002846750       -0.1639504022       -1.3846022323
 C         -1.4867126660        1.6184702491       -2.3069450998
 C         -3.3952508985        1.4189918982       -0.5905306350
 C         -3.9192694765        2.5985124597       -1.0540392198
 C         -5.1393497809        3.0972362892       -0.5752771136
 C         -5.8338275503        2.4120005537        0.3775567445
 C         -5.3362498069        1.1949375351        0.8873483269
 C         -6.0500249762        0.4800881968        1.8718213634
 C         -5.5737054385       -0.6997628605        2.3672093509
 C         -4.3595146316       -1.2129176911        1.8911271084
 C         -3.6432494859       -0.5441413285        0.9375808871
 C         -4.1016932949        0.6809135500        0.4031966445
 C         -0.2231769944       -0.0619226109        0.3024190971
 Ni        -0.0028825058       -1.9757854093       -0.5816470052
 C         -1.4264560661       -2.4528863839       -1.5710341209
 O         -2.2316824343       -2.9339763056       -2.2218980402
 C          1.4173515533       -1.8215529368       -1.6508997015
 O          2.2720497968       -1.7165061761       -2.4016284874
 C          0.1074537362       -3.1145883698        0.7918453689
 O          0.1154434372       -3.8558222308        1.6600625185
 H          1.3692352938        3.2480679017       -1.2060743719
 H          1.6849989870        1.5163572868       -1.2421528526
 H          2.6938129906        2.6198702318       -2.1807641097
 H          2.4838588287        2.6740715063        0.8617143144
 H          4.4444325315        4.1792668821        0.7202879931
 H          3.0605431452        4.8274008960       -0.1596826315
 H          4.3951685624        4.0941617117       -1.0421509014
 H          5.3714105212        2.1081364407       -1.5347588251
 H          4.1980883905        0.8478051569       -1.9317702928
 H          6.6505355604        0.4795734193       -0.1606530873
 H          6.4915510461       -0.0668773195       -1.8323118330
 H          5.8381077219       -3.1625208876        0.1752230589
 H          7.0186919797       -1.9253207218        0.6102713198
 H          6.8801890567       -2.4636652150       -1.0646311308
 H          5.1498418532       -0.5417149305        1.6416003181
 H          3.9690189368       -1.7704504648        1.1818052794
 H          1.3805033238       -0.1588537833        3.1245535809
 H          1.6525815384       -1.2284830040        1.7067553823
 H          0.4796602931        2.2567714330        2.4694800878
 H         -1.5542531770        2.8741226946        0.7078153359
 H         -2.1947859348        1.6120364111       -3.1307204075
 H         -0.5841809452        1.1001848523       -2.6251794760
 H         -1.2222147884        2.6446608432       -2.0627063173
 H         -3.3989983250        3.1708716035       -1.8055207843
 H         -5.5172989483        4.0288841354       -0.9696245014
 H         -6.7737992961        2.7876824053        0.7551355974
 H         -6.9862546845        0.8883605599        2.2252794243
 H         -6.1252644401       -1.2426647168        3.1204299762
 H         -3.9880209771       -2.1487899832        2.2818628147
 H         -2.7132418395       -0.9761176304        0.5984476421
  70
       -106.38943446
 C          5.7026971446       -0.4932596398       -1.0140903401
 C          5.6032403007        0.3826828970        0.2335015065
 C          6.9575264061        0.4282441662        0.9398640561
 C          4.4857034244       -0.0473142337        1.2065682491
 H          4.6252697399        0.5285150310        2.1283919037
 C          4.5117514523       -1.5362158105        1.5519796654
 C          3.4384087131       -1.8789685294        2.5787599385
 C          2.0541576781       -1.5344554202        2.0348176216
 H          1.8861249336       -2.1127230850        1.1186979625
 C          0.9586437089       -1.8868385616        3.0356271903
 C          2.0024937181       -0.0501696135        1.6775038340
 C          3.0936334145        0.3224550562        0.6703544166
 H          2.9034356653       -0.2157620267       -0.2684132455
 O          3.0920588051        1.7290289952        0.4054271602
 C          2.2985360562        2.1700711854       -0.6384477343
 N          0.9130180235        2.3638265213       -0.2589246556
 C          0.5373635109        3.3526997490        0.6090984756
 C         -0.8018728456        3.2526958902        0.7576824773
 N         -1.2102872910        2.2085796195       -0.0265082714
 C         -2.5760315655        1.7329208924       -0.1493251252
 H         -2.6656974299        1.3838207904       -1.1841420693
 C         -3.5951701996        2.8456885454        0.0917215319
 C         -2.8342372507        0.5697196055        0.7909958190
 C         -2.2286682598        0.5460240434        2.0217826448
 C         -2.4429944096       -0.5046277724        2.9233432141
 C         -3.2626333500       -1.5403948703        2.5812128933
 C         -3.9154408643       -1.5545024466        1.3318378406
 C         -4.7650968246       -2.6223925209        0.9747699763
 C         -5.4068051561       -2.6380785660       -0.2300218292
 C         -5.2274339819       -1.5759054474       -1.1268818589
 C         -4.4097138187       -0.5268681013       -0.8111883796
 C         -3.7180978848       -0.4805755769        0.4197430305
 C         -0.1577355170        1.6389493034       -0.6570082579
 Ni        -0.2559338245       -0.1081465494       -1.8385509196
 C         -0.7747751069       -1.3403821005       -0.6532974110
 O         -1.0293477616       -2.1592154296        0.0994240861
 C         -1.4207421311        0.2184833647       -3.1556066817
 O         -2.1376838973        0.3797803562       -4.0298574361
 C          1.3314882584       -0.5680730489       -2.5367564459
 O          2.2630884175       -0.9961909676       -3.0432913975
 H          6.4005414181       -0.0477830774       -1.7200841548
 H          4.7410631207       -0.5903532823       -1.5111040508
 H          6.0666197358       -1.4868769562       -0.7644919970
 H          5.3583918993        1.4023055069       -0.0830129234
 H          6.9153476393        1.0732786729        1.8145367288
 H          7.7177407154        0.8164359880        0.2656493028
 H          7.2655560897       -0.5651156976        1.2575854843
 H          5.4934525690       -1.8038629032        1.9447703149
 H          4.3338411130       -2.1242240542        0.6502592990
 H          3.6157072854       -1.3189596828        3.5001104432
 H          3.4857698103       -2.9432563981        2.8194827105
 H         -0.0226242666       -1.6782823148        2.6156660761
 H          1.0762504598       -1.3064636081        3.9489229228
 H          1.0036582312       -2.9429288580        3.2918265543
 H          2.1366266926        0.5555666505        2.5770847392
 H          1.0226491072        0.1810788057        1.2521527583
 H          2.3115186009        1.4794809536       -1.4948987962
 H          2.7057347053        3.1432199841       -0.9423411378
 H          1.2490052380        4.0241755186        1.0422585706
 H         -1.4733866611        3.8431547669        1.3442273022
 H         -3.6311653573        3.1245023884        1.1424802651
 H         -4.5822614689        2.4882782470       -0.1901224981
 H         -3.3570811782        3.7219404827       -0.5080289590
 H         -1.5586345621        1.3428180089        2.3132733973
 H         -1.9494297391       -0.4849885100        3.8836969256
 H         -3.4241090696       -2.3645154711        3.2608236635
 H         -4.8954300362       -3.4318674144        1.6788694202
 H         -6.0524827952       -3.4608683096       -0.4991681517
 H         -5.7408468380       -1.5911980265       -2.0771797934
 H         -4.3006806018        0.2744433164       -1.5255063504
  70
       -106.38942985
 C          5.7913312527       -0.4645737877       -0.9297564196
 C          5.6368260708        0.4383784364        0.2927118195
 C          6.9679026595        0.5290493137        1.0377647251
 C          4.4993331969        0.0080793718        1.2421941971
 H          4.5989435641        0.6086280705        2.1533488694
 C          4.5453744542       -1.4712600574        1.6246646895
 C          3.4496746517       -1.8114271384        2.6284065350
 C          2.0748481487       -1.5090546837        2.0374599664
 H          1.9432430474       -2.1142338966        1.1328076619
 C          0.9593166779       -1.8570194844        3.0175883752
 C          2.0037890863       -0.0359510763        1.6394672571
 C          3.1168371895        0.3347861170        0.6558170294
 H          2.9666423666       -0.2302403714       -0.2745002963
 O          3.0967006258        1.7336267257        0.3544183304
 C          2.2980474583        2.1373287198       -0.7008008187
 N          0.9139059994        2.3418685233       -0.3218667816
 C          0.5427449083        3.3502194068        0.5253507045
 C         -0.7963690848        3.2566429344        0.6793180145
 N         -1.2091787565        2.1969760181       -0.0813807174
 C         -2.5761219187        1.7217078331       -0.1907575112
 H         -2.6695896115        1.3514819930       -1.2180443986
 C         -3.5918677539        2.8416866848        0.0308204048
 C         -2.8347498074        0.5782255168        0.7733817579
 C         -2.2146217112        0.5685111978        1.9970697010
 C         -2.4302253451       -0.4640240942        2.9190485798
 C         -3.2673074373       -1.4948020445        2.6054797086
 C         -3.9356363867       -1.5224675396        1.3645417849
 C         -4.8034594886       -2.5851419691        1.0368951769
 C         -5.4589957688       -2.6143597804       -0.1601878222
 C         -5.2746883829       -1.5721185068       -1.0791422667
 C         -4.4396269973       -0.5285058246       -0.7920838839
 C         -3.7350227752       -0.4679544864        0.4308308237
 C         -0.1594933322        1.6112466803       -0.7016434891
 Ni        -0.2654432973       -0.1586100727       -1.8480274537
 C         -0.8125525965       -1.3682531375       -0.6514656770
 O         -1.0747416567       -2.1814931986        0.1046721331
 C         -1.4059792186        0.1699749219       -3.1851970527
 O         -2.1104460474        0.3418929452       -4.0675135072
 C          1.3258948635       -0.6596856960       -2.5074791577
 O          2.2588273425       -1.1170201702       -2.9852189883
 H          6.1667637092       -1.4444620648       -0.6454133887
 H          6.5015364102       -0.0218628910       -1.6250702450
 H          4.8471341854       -0.5924773513       -1.4526528715
 H          5.3808050388        1.4447271452       -0.0555898602
 H          6.8861646509        1.1934439709        1.8949648971
 H          7.7401134828        0.9172354504        0.3773498052
 H          7.2864150668       -0.4498031565        1.3884272679
 H          5.5203481940       -1.7088381233        2.0520029556
 H          4.4057915259       -2.0843265520        0.7329608361
 H          3.5889696294       -1.2257166536        3.5402628160
 H          3.5114255757       -2.8683344062        2.8967780697
 H         -0.0142326721       -1.6750333389        2.5683692531
 H          1.0434874266       -1.2536444110        3.9195989169
 H          1.0152441941       -2.9059011049        3.2999216651
 H          2.0976098636        0.5956060769        2.5263623026
 H          1.0325592714        0.1621128418        1.1789019241
 H          2.3085619398        1.4178565686       -1.5331556885
 H          2.7018909273        3.1003435758       -1.0398396310
 H          1.2572118556        4.0290466674        0.9420808961
 H         -1.4649520138        3.8607915444        1.2551417110
 H         -3.3535712264        3.7049972796       -0.5873220578
 H         -3.6236402779        3.1418362840        1.0758356787
 H         -4.5808272980        2.4813320641       -0.2403836091
 H         -1.5319871074        1.3621553490        2.2669528875
 H         -1.9238494335       -0.4344896408        3.8723956586
 H         -3.4308177831       -2.3046861482        3.3015102736
 H         -4.9363773195       -3.3797641814        1.7572414953
 H         -6.1188435840       -3.4330084625       -0.4066458763
 H         -5.7982362747       -1.5985714105       -2.0236508339
 H         -4.3262988719        0.2569212426       -1.5231872007
  70
       -106.38941857
 C          5.8714863382       -0.4354664108       -0.8594154356
 C          5.6685708468        0.4932600254        0.3363676637
 C          6.9782843968        0.6286871539        1.1118607510
 C          4.5161376615        0.0626306291        1.2675011987
 H          4.5805322176        0.6869861642        2.1657282864
 C          4.5818656108       -1.4057144939        1.6876203708
 C          3.4691170931       -1.7431303698        2.6733786385
 C          2.1031043256       -1.4834011853        2.0429600466
 H          2.0038871907       -2.1148022837        1.1521982363
 C          0.9720873367       -1.8269000046        3.0068596009
 C          2.0126476259       -0.0230461658        1.6040018901
 C          3.1426184622        0.3461523707        0.6391646045
 H          3.0276642915       -0.2441398701       -0.2805765362
 O          3.1042621863        1.7362259847        0.3020009857
 C          2.2973944204        2.1031148936       -0.7605784529
 N          0.9157095584        2.3182941165       -0.3783844496
 C          0.5518385883        3.3441100496        0.4507645727
 C         -0.7869812746        3.2585346250        0.6119868676
 N         -1.2069132652        2.1864119216       -0.1270485559
 C         -2.5761056450        1.7148682807       -0.2233971272
 H         -2.6760952733        1.3303723149       -1.2449471410
 C         -3.5862639717        2.8419567353       -0.0124199417
 C         -2.8350518690        0.5859312849        0.7576384119
 C         -2.2006336915        0.5834146597        1.9740116530
 C         -2.4170187519       -0.4358929076        2.9104183382
 C         -3.2703006063       -1.4599334906        2.6193411762
 C         -3.9538906367       -1.4941846152        1.3868760389
 C         -4.8385475178       -2.5498346110        1.0823722248
 C         -5.5077868914       -2.5857940611       -0.1069337678
 C         -5.3201866503       -1.5580094258       -1.0413667271
 C         -4.4691065604       -0.5214054634       -0.7767561020
 C         -3.7511504493       -0.4537801337        0.4379773772
 C         -0.1619316173        1.5847057082       -0.7397980818
 Ni        -0.2790964431       -0.2067748602       -1.8509623315
 C         -0.8470948432       -1.3943294288       -0.6415348833
 O         -1.1156419650       -2.2013697224        0.1190901108
 C         -1.4048999837        0.1155569306       -3.2016756653
 O         -2.1027324332        0.2889180644       -4.0889958087
 C          1.3128507251       -0.7426155490       -2.4804323742
 O          2.2455758346       -1.2253875456       -2.9327518602
 H          6.5906772155        0.0044284051       -1.5472301874
 H          4.9433789796       -0.5939950113       -1.4023971497
 H          6.2580708864       -1.4007720526       -0.5420224867
 H          5.4015144782        1.4854683219       -0.0426776193
 H          6.8617064138        1.3113253079        1.9505028880
 H          7.7590432536        1.0169344764        0.4616073063
 H          7.3073158384       -0.3348560945        1.4938342818
 H          5.5506621957       -1.6129411207        2.1438045019
 H          4.4760482525       -2.0430899003        0.8084050018
 H          3.5748855332       -1.1322375954        3.5731537079
 H          3.5450849532       -2.7915704283        2.9698601695
 H          1.0265313025       -1.2004508692        3.8953250141
 H          1.0394311272       -2.8674611170        3.3161970125
 H          0.0054902026       -1.6725173531        2.5329788066
 H          2.0703462608        0.6332601060        2.4759630108
 H          1.0495324771        0.1415292956        1.1138987914
 H          2.3031941229        1.3563100147       -1.5684941889
 H          2.6968392969        3.0550065996       -1.1348362377
 H          1.2707665652        4.0278222274        0.8515348178
 H         -1.4507370568        3.8755657377        1.1796374008
 H         -3.3479519658        3.6954167621       -0.6440992027
 H         -3.6109018911        3.1569599337        1.0284165354
 H         -4.5782039397        2.4819221619       -0.2728950458
 H         -1.5058648264        1.3721898003        2.2265400788
 H         -1.8980237098       -0.4019697895        3.8567627113
 H         -3.4349713908       -2.2595828162        3.3268344182
 H         -4.9732278372       -3.3336674054        1.8141193523
 H         -6.1807240274       -3.3989474266       -0.3355649229
 H         -5.8538547394       -1.5902461545       -1.9800213512
 H         -4.3526498796        0.2523711266       -1.5197052960
  70
       -106.38940195
 C          5.9694192124       -0.4026953574       -0.7544598366
 C          5.7009321157        0.5598068403        0.4009646066
 C          6.9783362951        0.7554389751        1.2164652893
 C          4.5271664426        0.1301526179        1.3055206525
 H          4.5446889075        0.7845625618        2.1842628246
 C          4.6140339754       -1.3216780756        1.7762199394
 C          3.4769446502       -1.6547538412        2.7352720396
 C          2.1271769625       -1.4507272255        2.0515735709
 H          2.0724552016       -2.1148381951        1.1810038358
 C          0.9732872384       -1.7881692722        2.9902658741
 C          2.0162066395       -0.0091701420        1.5585500343
 C          3.1700356253        0.3581798950        0.6215709817
 H          3.1024755808       -0.2630062938       -0.2826121013
 O          3.1121187515        1.7353580723        0.2381377916
 C          2.2987694187        2.0557000728       -0.8348021943
 N          0.9192171316        2.2855815764       -0.4532374068
 C          0.5624139907        3.3336975559        0.3506138654
 C         -0.7762085673        3.2578008123        0.5184487919
 N         -1.2030632000        2.1691341611       -0.1919065964
 C         -2.5742286917        1.7004011809       -0.2715945140
 H         -2.6795038602        1.2904121463       -1.2828342603
 C         -3.5789696366        2.8366736861       -0.0850329077
 C         -2.8344138533        0.5971156811        0.7379481139
 C         -2.1849054970        0.6124898565        1.9461840166
 C         -2.4029414743       -0.3833551146        2.9071349748
 C         -3.2743273549       -1.4010718223        2.6497557586
 C         -3.9737442109       -1.4529060408        1.4268172621
 C         -4.8768050357       -2.5022890676        1.1567841560
 C         -5.5599367841       -2.5560068331       -0.0239224757
 C         -5.3675033498       -1.5534963647       -0.9844612033
 C         -4.4989181148       -0.5233987816       -0.7533609179
 C         -3.7676509249       -0.4372828577        0.4522038018
 C         -0.1626079994        1.5476293423       -0.7921976932
 Ni        -0.2913230655       -0.2676284976       -1.8625257610
 C         -0.8964005869       -1.4279087901       -0.6437452149
 O         -1.1773590576       -2.2283277956        0.1194438580
 C         -1.3851079713        0.0576349600       -3.2382075981
 O         -2.0646581848        0.2447854457       -4.1367914085
 C          1.3027373402       -0.8505612415       -2.4421660271
 O          2.2357831139       -1.3665093318       -2.8553245253
 H          6.7013217614        0.0326590295       -1.4316603924
 H          5.0651887409       -0.6032056862       -1.3232546403
 H          6.3684736056       -1.3464029315       -0.3909078187
 H          5.4225586817        1.5312581437       -0.0210119405
 H          6.8149885543        1.4629986376        2.0261315704
 H          7.7720659021        1.1414350990        0.5807464399
 H          7.3171842044       -0.1856553525        1.6432064314
 H          5.5714751820       -1.4894620172        2.2709434329
 H          4.5535770917       -1.9897124519        0.9157063859
 H          3.5372185750       -1.0120213039        3.6168879475
 H          3.5682198694       -2.6905407495        3.0694920858
 H          1.0513914048       -2.8171066271        3.3340213427
 H          0.0188623338       -1.6680163797        2.4829945867
 H          0.9876546678       -1.1338311025        3.8599637201
 H          2.0254765917        0.6776688304        2.4086610053
 H          1.0671547153        0.1119799129        1.0295635068
 H          2.3008785146        1.2753150355       -1.6102938543
 H          2.6945087951        2.9913639127       -1.2518666770
 H          1.2857258371        4.0241590086        0.7314180111
 H         -1.4353833519        3.8914480690        1.0729545306
 H         -4.5735408606        2.4747946595       -0.3324522147
 H         -3.3394743121        3.6731169364       -0.7386460502
 H         -3.5979867217        3.1775794634        0.9477295202
 H         -1.4764180781        1.3968305723        2.1728422937
 H         -1.8706519485       -0.3367416949        3.8454542469
 H         -3.4414558717       -2.1822829734        3.3769912290
 H         -5.0142561532       -3.2670015638        1.9079905524
 H         -6.2468305604       -3.3644513577       -0.2261976214
 H         -5.9110868401       -1.6004787858       -1.9167839126
 H         -4.3783200339        0.2302685599       -1.5160509600
  70
       -106.38938629
 C          6.0538522492       -0.3622574937       -0.6662969803
 C          5.7292730251        0.6260634162        0.4523078821
 C          6.9771960124        0.8755360633        1.2981816509
 C          4.5397307177        0.1942412547        1.3349319924
 H          4.5164069891        0.8734694667        2.1945055512
 C          4.6463384061       -1.2411511489        1.8499315998
 C          3.4907068744       -1.5729167364        2.7870148839
 C          2.1561393311       -1.4206715904        2.0612598365
 H          2.1398668628       -2.1122446741        1.2107719795
 C          0.9846755047       -1.7550941227        2.9791300452
 C          2.0265250716        0.0021943638        1.5208129720
 C          3.1981754916        0.3702406921        0.6064771191
 H          3.1714294266       -0.2772806960       -0.2814446303
 O          3.1217500978        1.7342090833        0.1817468237
 C          2.3014903841        2.0115368053       -0.8981440033
 N          0.9238376082        2.2528980529       -0.5165635594
 C          0.5730030849        3.3194810872        0.2652550746
 C         -0.7653985466        3.2519552104        0.4384004578
 N         -1.1980872432        2.1498866936       -0.2473552236
 C         -2.5711748782        1.6850337627       -0.3142869314
 H         -2.6805035843        1.2541532994       -1.3165779712
 C         -3.5702822268        2.8296651162       -0.1491112668
 C         -2.8346772241        0.6039500705        0.7181819071
 C         -2.1701169299        0.6294907546        1.9179868472
 C         -2.3924642852       -0.3460219968        2.8986243811
 C         -3.2847136242       -1.3524831348        2.6704723888
 C         -4.0001130332       -1.4138388601        1.4572299240
 C         -4.9249416631       -2.4514905735        1.2172666734
 C         -5.6221534869       -2.5151916279        0.0453084191
 C         -5.4215524306       -1.5355264566       -0.9368582919
 C         -4.5323175521       -0.5169759088       -0.7348528656
 C         -3.7876512301       -0.4201637240        0.4616579067
 C         -0.1614664503        1.5116613546       -0.8364428719
 Ni        -0.2999705230       -0.3250685307       -1.8681653471
 C         -0.9370835669       -1.4589452537       -0.6401886276
 O         -1.2323289372       -2.2505068201        0.1268883671
 C         -1.3678197485       -0.0056912928       -3.2651926525
 O         -2.0323446305        0.1842307953       -4.1743680155
 C          1.2954459535       -0.9442162331       -2.4043732321
 O          2.2289538596       -1.4832778293       -2.7855525394
 H          6.7955444412        0.0707427699       -1.3342843058
 H          5.1715496098       -0.5997346860       -1.2549339563
 H          6.4631152385       -1.2856389030       -0.2639806196
 H          5.4407680827        1.5779548692       -0.0057064865
 H          7.3251604178       -0.0445837190        1.7617349862
 H          6.7737328816        1.6017071730        2.0818582261
 H          7.7800847547        1.2622975636        0.6745575545
 H          5.5931234603       -1.3721732504        2.3752956666
 H          4.6250839989       -1.9347843842        1.0080238116
 H          3.5118218804       -0.9035615343        3.6504424348
 H          3.5960428660       -2.5960885670        3.1542786668
 H          0.9644492180       -1.0772431973        3.8304867280
 H          1.0730988486       -2.7725646777        3.3531656053
 H          0.0413436601       -1.6669909668        2.4452173933
 H          1.9942882081        0.7142924809        2.3493889156
 H          1.0906037744        0.0833513388        0.9613549129
 H          2.3009741716        1.2024112156       -1.6435095152
 H          2.6921655853        2.9316866328       -1.3531109205
 H          1.3000157603        4.0152647888        0.6289324483
 H         -1.4206555904        3.8993606727        0.9814957456
 H         -4.5672988060        2.4680044757       -0.3866284199
 H         -3.3281241789        3.6512854725       -0.8203132493
 H         -3.5850850296        3.1917706997        0.8764822761
 H         -1.4462953329        1.4057799116        2.1225916935
 H         -1.8471584617       -0.2926906326        3.8290337009
 H         -3.4563574984       -2.1174826290        3.4137092758
 H         -5.0671654042       -3.1995973068        1.9841364054
 H         -6.3257606708       -3.3146590874       -0.1339010772
 H         -5.9752112128       -1.5911966951       -1.8627645469
 H         -4.4049279273        0.2184470644       -1.5140624022
  70
       -106.38887226
 C          6.4450295839        0.7537974165        1.9985457174
 C          5.0593992645        0.1226824124        2.1188102838
 C          5.1487773303       -1.1860600133        2.9025050203
 C          4.3628117209       -0.0946769875        0.7602880357
 H          3.4999995349       -0.7473103038        0.9364517317
 C          5.2407449943       -0.7837055728       -0.2867387878
 C          4.4463360374       -1.0719004690       -1.5567036189
 C          3.9020874055        0.2223305321       -2.1585282449
 H          4.7472196302        0.8712468590       -2.4175849422
 C          3.0924375944       -0.0546697909       -3.4216481383
 C          3.0405283749        0.9300579893       -1.1142930951
 C          3.8416887927        1.2207882232        0.1557500406
 H          4.6947464490        1.8601081076       -0.0993599619
 O          3.1281891497        2.0411651712        1.0876013573
 C          1.9235857493        1.5703933506        1.5967489633
 N          0.8004394547        1.8800511698        0.7332393407
 C          0.5227883250        3.1616301301        0.3451094017
 C         -0.5385679535        3.0941358378       -0.4890538825
 N         -0.8773582042        1.7726510996       -0.5929820705
 C         -1.9770135725        1.2404477485       -1.3769841835
 H         -1.6080918872        0.2919513988       -1.7850720262
 C         -2.3585846140        2.1659944757       -2.5313602585
 C         -3.1871879978        0.9631433513       -0.5043318339
 C         -3.4345767137        1.7565140527        0.5871673678
 C         -4.5397582937        1.5334949853        1.4182680879
 C         -5.4024387891        0.5119737601        1.1471406412
 C         -5.1986077080       -0.3195996178        0.0270270051
 C         -6.0876505916       -1.3771655722       -0.2572631609
 C         -5.8930995860       -2.1884479431       -1.3378967169
 C         -4.7966227891       -1.9693642983       -2.1830726155
 C         -3.9173330668       -0.9522416008       -1.9354808739
 C         -4.0807752718       -0.0959218114       -0.8238921899
 C         -0.0590949028        1.0062132630        0.1629523766
 Ni        -0.2375225312       -1.0829331597        0.4179809142
 C          0.9534801253       -1.7799708907        1.5634807342
 O          1.5989490711       -2.3881185150        2.2855179187
 C         -1.8524574070       -1.2783391626        1.1726087417
 O         -2.8192400150       -1.4558840201        1.7499222323
 C         -0.0438054159       -1.7670820735       -1.2168468841
 O          0.1144857771       -2.2199189942       -2.2546933537
 H          6.8241086903        0.9940183349        2.9895939498
 H          6.4057594345        1.6738067104        1.4213654922
 H          7.1462919966        0.0700269084        1.5270194988
 H          4.4296807388        0.8146437149        2.6900340569
 H          4.1658315062       -1.6355206582        3.0240071408
 H          5.5638641127       -1.0035730428        3.8911867395
 H          5.7918128677       -1.9001304758        2.3934031928
 H          5.6275498189       -1.7190233146        0.1197651220
 H          6.0888333249       -0.1443867049       -0.5373801317
 H          3.6111073449       -1.7371887758       -1.3242424506
 H          5.0847254005       -1.5786430951       -2.2835025147
 H          2.2450902497       -0.6974882245       -3.1944388437
 H          3.7077858990       -0.5512244235       -4.1683123467
 H          2.7157852189        0.8727980844       -3.8479915792
 H          2.1920581011        0.2826463729       -0.8701004626
 H          2.6521203656        1.8686974943       -1.5186975044
 H          1.7777058361        2.0924028637        2.5519374538
 H          1.9171037067        0.4878549083        1.7704687399
 H          1.1081562436        3.9912647779        0.6828589820
 H         -1.0578260686        3.8757202871       -1.0016662114
 H         -2.8466552202        3.0666881353       -2.1655841112
 H         -3.0601512176        1.6503044380       -3.1819202495
 H         -1.4803199818        2.4391354081       -3.1129818636
 H         -2.7624615598        2.5671041352        0.8321421278
 H         -4.6933377480        2.1733801489        2.2746289843
 H         -6.2529264114        0.3224146613        1.7858028420
 H         -6.9274891989       -1.5336875853        0.4046722114
 H         -6.5749014590       -2.9994351800       -1.5471921122
 H         -4.6469975769       -2.6148275043       -3.0363074283
 H         -3.0855717542       -0.8140738540       -2.6088820685
  70
       -106.38886879
 C          6.4319599571        0.7134249957        2.0178450171
 C          5.0435102895        0.0852972663        2.1200884053
 C          5.1248977167       -1.2383642262        2.8792404839
 C          4.3522679304       -0.1038022915        0.7545740617
 H          3.4853676535       -0.7556049429        0.9141042616
 C          5.2322748425       -0.7773959290       -0.3008192608
 C          4.4435473112       -1.0383317426       -1.5802097886
 C          3.9076994981        0.2693444827       -2.1600961696
 H          4.7567421660        0.9196725474       -2.4023272683
 C          3.1037643150        0.0197110628       -3.4325464638
 C          3.0435627348        0.9603199457       -1.1067833348
 C          3.8406990010        1.2250201455        0.1715605222
 H          4.6982226739        1.8640422174       -0.0690063883
 O          3.1274529616        2.0337578054        1.1137166681
 C          1.9226900387        1.5575500276        1.6172511447
 N          0.8003078114        1.8683402683        0.7531949518
 C          0.5202109247        3.1504863905        0.3686739142
 C         -0.5384451744        3.0828804518       -0.4689170579
 N         -0.8733495680        1.7607950511       -0.5782740051
 C         -1.9690467053        1.2288993711       -1.3676984485
 H         -1.6024490203        0.2738306150       -1.7627207416
 C         -2.3309619739        2.1466309027       -2.5347453078
 C         -3.1902418952        0.9676266844       -0.5054717755
 C         -3.4404434497        1.7666603478        0.5811080821
 C         -4.5565318989        1.5578736864        1.4013597482
 C         -5.4271604543        0.5447743962        1.1243916182
 C         -5.2199951417       -0.2929328734        0.0094749032
 C         -6.1167646232       -1.3424094282       -0.2804404113
 C         -5.9186677678       -2.1601714806       -1.3555256749
 C         -4.8104197105       -1.9561990052       -2.1890285349
 C         -3.9236315662       -0.9469374211       -1.9359956596
 C         -4.0909358049       -0.0838552040       -0.8302146736
 C         -0.0552715327        0.9941805725        0.1774661312
 Ni        -0.2259359171       -1.0967458747        0.4207314984
 C          0.9434704477       -1.7879551632        1.5915586069
 O          1.5787429805       -2.3906643607        2.3269186065
 C         -1.8552103653       -1.3083343303        1.1403024778
 O         -2.8308412486       -1.4974638154        1.6986902074
 C          0.0150559479       -1.7671497356       -1.2134340447
 O          0.2082296361       -2.2041672522       -2.2522006484
 H          7.1328060133        0.0361058948        1.5365055696
 H          6.8074974697        0.9333140244        3.0149365722
 H          6.3985930887        1.6443793801        1.4581137466
 H          4.4140393841        0.7687411380        2.7017678869
 H          4.1399132998       -1.6863244806        2.9888492614
 H          5.5368658882       -1.0759296529        3.8726865311
 H          5.7672456315       -1.9452841164        2.3593942822
 H          5.6125199723       -1.7219718364        0.0901174767
 H          6.0846765641       -0.1375477742       -0.5349126810
 H          3.6045371361       -1.7045669449       -1.3647457457
 H          5.0837972037       -1.5338213669       -2.3131200805
 H          2.2532491210       -0.6247878186       -3.2226620523
 H          3.7215600747       -0.4639933808       -4.1855970184
 H          2.7323469163        0.9566397405       -3.8425032964
 H          2.1924201073        0.3111050608       -0.8777163514
 H          2.6596418671        1.9074686380       -1.4952983743
 H          1.7739260901        2.0742118204        2.5748713385
 H          1.9185892065        0.4740563866        1.7851520947
 H          1.1022721114        3.9805756729        0.7110179358
 H         -1.0582988690        3.8645436992       -0.9808696757
 H         -2.8192245242        3.0527509593       -2.1829721513
 H         -3.0264597607        1.6292668843       -3.1904072408
 H         -1.4436128591        2.4107868184       -3.1066785311
 H         -2.7627949738        2.5711448384        0.8307405098
 H         -4.7123483940        2.2023527246        2.2538629830
 H         -6.2867708250        0.3668785616        1.7541361164
 H         -6.9654452945       -1.4875146093        0.3727588949
 H         -6.6066200902       -2.9647785566       -1.5692711901
 H         -4.6577804879       -2.6070019608       -3.0376701321
 H         -3.0825212584       -0.8208247781       -2.6000755594
  70
       -106.38870463
 C          4.4553410319        2.8480489668        2.3564208099
 C          3.1788025182        2.6399791107        1.5429156870
 C          2.0591702617        3.5062012480        2.1177279098
 C          2.7463223830        1.1620295477        1.4337514797
 H          1.7126786320        1.1370802672        1.0704790237
 C          2.7882661067        0.4231679843        2.7730668476
 C          2.3162782021       -1.0190622389        2.6295407989
 C          3.2078765121       -1.7682575287        1.6417487780
 H          4.2390796256       -1.7483917525        2.0144384669
 C          2.7711730222       -3.2218474552        1.4895848546
 C          3.1526043776       -1.0523532994        0.2937937439
 C          3.6115058929        0.3982657549        0.4119856917
 H          4.6530271073        0.4139375626        0.7565425864
 O          3.7002842810        1.0790352075       -0.8501863097
 C          2.7457304423        0.8572143802       -1.8354494467
 N          1.4599435861        1.4678558248       -1.5570199030
 C          1.3274034475        2.8177412005       -1.3777331884
 C          0.0254216030        3.0492287165       -1.0997449871
 N         -0.6083301886        1.8375797126       -1.1329924297
 C         -2.0190362568        1.6102135322       -0.8643533928
 H         -2.3760759964        0.9674817067       -1.6771067212
 C         -2.8295785395        2.9044628018       -0.8662773275
 C         -2.2002881073        0.8868621032        0.4582977961
 C         -1.3393775378        1.1510368025        1.4936560623
 C         -1.4554095761        0.5021450378        2.7288117756
 C         -2.4506169580       -0.4099753734        2.9274504758
 C         -3.3797651721       -0.6907064646        1.9046297839
 C         -4.4166700291       -1.6248376964        2.1090229194
 C         -5.3203674398       -1.8997542921        1.1233479367
 C         -5.2254185645       -1.2416778688       -0.1106254544
 C         -4.2310133800       -0.3323661840       -0.3409908905
 C         -3.2693424371       -0.0310179157        0.6488077455
 C          0.2663027755        0.8442009704       -1.4201080223
 Ni        -0.2634281202       -1.1875937505       -1.6852908316
 C         -1.6781559449       -1.2188284746       -2.7851669926
 O         -2.5626394261       -1.3648512697       -3.4928236999
 C          1.0516415751       -2.1418054683       -2.4550236680
 O          1.7721431098       -2.8701532716       -2.9602559831
 C         -0.6631397312       -1.7760865538       -0.0487121556
 O         -0.8996203438       -2.2091467116        0.9808225094
 H          4.7872894124        3.8793457008        2.2550255032
 H          5.2549266145        2.2028190647        2.0028472269
 H          4.2847219567        2.6533967801        3.4122346333
 H          3.3843399472        2.9808892373        0.5231096845
 H          1.1683675210        3.4551154999        1.4949151999
 H          2.3761575756        4.5457546034        2.1664626116
 H          1.7979766059        3.1859997240        3.1237631650
 H          2.1586409340        0.9455712838        3.4953360246
 H          3.8096031869        0.4171971562        3.1564557540
 H          1.2837737773       -1.0390713280        2.2731353257
 H          2.3435004685       -1.5132419392        3.6031146867
 H          1.7533483595       -3.2745891343        1.1094498726
 H          2.8058013977       -3.7336648247        2.4485765044
 H          3.4225268649       -3.7477371888        0.7950972385
 H          2.1154700797       -1.0830829741       -0.0574520679
 H          3.7824920270       -1.5724363542       -0.4325997304
 H          2.5676964182       -0.2059078706       -2.0384527003
 H          3.1644218154        1.3285281078       -2.7343555139
 H          2.1588077606        3.4857698262       -1.4611199390
 H         -0.4744784789        3.9714741480       -0.8936324569
 H         -3.8837418456        2.6567946341       -0.7699494701
 H         -2.6866761310        3.4530922076       -1.7951658859
 H         -2.5583493513        3.5361043612       -0.0229334998
 H         -0.5404067730        1.8666520523        1.3625329961
 H         -0.7456040780        0.7254682809        3.5114342597
 H         -2.5435798924       -0.9303382064        3.8695785497
 H         -4.4784794306       -2.1216456901        3.0668058239
 H         -6.1092447050       -2.6193918523        1.2850517881
 H         -5.9461513828       -1.4595262709       -0.8852362278
 H         -4.1930551325        0.1591675484       -1.3009797024
  70
       -106.38865042
 C          5.9440158434        1.0093684193        2.6360095684
 C          4.7778556393        0.0682517756        2.3403605074
 C          5.1849730586       -1.3743920615        2.6369752006
 C          4.2278411587        0.2034556155        0.9057198334
 H          3.5688615621       -0.6547856176        0.7237249692
 C          5.3086312380        0.1800084943       -0.1778783183
 C          4.6867291126        0.2004665083       -1.5706721816
 C          3.8292411441        1.4501527706       -1.7635890794
 H          4.4700232433        2.3340691960       -1.6618163067
 C          3.1861677760        1.4695631810       -3.1472425259
 C          2.7605796752        1.4928287775       -0.6725560399
 C          3.3971704896        1.4851199537        0.7186157217
 H          4.0569944679        2.3554247265        0.8114244964
 O          2.4492613802        1.7241331064        1.7643923672
 C          1.4161946459        0.8123347507        1.9427643640
 N          0.2982395451        1.0582263582        1.0525203378
 C         -0.2954830423        2.2879845649        0.9682952762
 C         -1.2545342217        2.1911691566        0.0220582210
 N         -1.2245365330        0.9045080098       -0.4385404533
 C         -2.0798593800        0.4409136314       -1.5197356174
 H         -2.0878062403       -0.6576822748       -1.4721245113
 C         -1.4319287577        0.8401889724       -2.8460123478
 C         -3.4912015899        0.9533163765       -1.3115651190
 C         -4.0788355083        1.8116745616       -2.2057119166
 C         -5.3833618654        2.2903533152       -2.0167941578
 C         -6.1028533929        1.9094796125       -0.9229224232
 C         -5.5440727927        1.0292875607        0.0264757039
 C         -6.2824906843        0.6277398236        1.1592429534
 C         -5.7479974670       -0.2264529967        2.0806552952
 C         -4.4463206244       -0.7138385595        1.9017701156
 C         -3.7044921098       -0.3419781734        0.8151601211
 C         -4.2221702773        0.5389416390       -0.1600558572
 C         -0.2665361300        0.1864054361        0.1853004580
 Ni         0.2149130174       -1.8525839523       -0.1752751673
 C          1.2816262786       -2.5155762211        1.1035157170
 O          1.9287962839       -3.0866678153        1.8523313384
 C         -1.2940961736       -2.8236530047       -0.1302786834
 O         -2.1631596550       -3.5611282940       -0.0810323694
 C          1.0035910599       -1.8225481491       -1.7725982586
 O          1.5336303712       -1.8109005166       -2.7849096388
 H          6.8260621204        0.7305355539        2.0651611265
 H          6.1967042661        0.9562092710        3.6928280967
 H          5.6830537924        2.0385626530        2.4041547766
 H          3.9603734420        0.3336820216        3.0207203891
 H          6.0129107407       -1.6826857045        2.0028811555
 H          4.3540397205       -2.0564389578        2.4719108527
 H          5.5005598427       -1.4689673897        3.6735328105
 H          5.9181415315       -0.7176611569       -0.0662424982
 H          5.9592879618        1.0491838244       -0.0689446811
 H          4.0642669299       -0.6869070189       -1.7069761348
 H          5.4750263029        0.1728435539       -2.3258881756
 H          2.5571883537        0.5932967951       -3.2859707672
 H          3.9490749254        1.4665382222       -3.9221987601
 H          2.5710192452        2.3581134472       -3.2732697546
 H          2.1164773838        0.6155654019       -0.7814356446
 H          2.1434832832        2.3884917946       -0.7829422666
 H          1.0733149476        0.9500455894        2.9770428725
 H          1.7287778929       -0.2285438051        1.7994673008
 H          0.0269308461        3.1085146214        1.5745637762
 H         -1.9522596261        2.9139642891       -0.3472967436
 H         -1.3166066003        1.9192926916       -2.9206737379
 H         -2.0217483769        0.4774071951       -3.6828386637
 H         -0.4434834164        0.3889611413       -2.9019478077
 H         -3.5459330108        2.1382457920       -3.0841481540
 H         -5.8064969771        2.9632265545       -2.7478877014
 H         -7.1083273654        2.2725369254       -0.7668099344
 H         -7.2854957122        1.0116464320        1.2805063405
 H         -6.3195348035       -0.5314634973        2.9447010816
 H         -4.0270138068       -1.3916809931        2.6306700141
 H         -2.7058771179       -0.7373771449        0.7143866135
  70
       -106.38845882
 C          5.9939012718        0.9384177582        2.7456557021
 C          4.9087836608       -0.0472842819        2.3176156603
 C          5.4172023905       -1.4802946745        2.4684307217
 C          4.3789684637        0.2006932360        0.8905256342
 H          3.7972113753       -0.6836086176        0.6052752693
 C          5.4781352181        0.3857360009       -0.1578916788
 C          4.8836995675        0.5094617013       -1.5573250679
 C          3.9248780518        1.6961716070       -1.6403587478
 H          4.4878604318        2.6156553163       -1.4411386499
 C          3.2950467713        1.7965174095       -3.0267745821
 C          2.8393173158        1.5480306927       -0.5748631282
 C          3.4473249134        1.4234698730        0.8233920499
 H          4.0293731499        2.3266846718        1.0394622872
 O          2.4630498597        1.4488119518        1.8620031961
 C          1.4613252645        0.4871502477        1.8426129750
 N          0.3446704678        0.8830956454        1.0027286583
 C         -0.1967855219        2.1374350195        1.0621710088
 C         -1.1782049111        2.1780224809        0.1347224123
 N         -1.2144110477        0.9457832428       -0.4571791960
 C         -2.1196465029        0.6341161330       -1.5514209640
 H         -2.1539738465       -0.4595368892       -1.6353428562
 C         -1.5162169276        1.1745832863       -2.8473880239
 C         -3.5069579884        1.1379284117       -1.2117785259
 C         -4.0902270954        2.1624623201       -1.9121671447
 C         -5.3670519528        2.6405847454       -1.5838588627
 C         -6.0578128721        2.0935577270       -0.5429365339
 C         -5.5008700582        1.0377840587        0.2080429310
 C         -6.2094787091        0.4656691691        1.2852166947
 C         -5.6752274800       -0.5589744517        2.0126482206
 C         -4.4067895343       -1.0565375426        1.6841754991
 C         -3.6941111063       -0.5234427104        0.6462398404
 C         -4.2100561988        0.5423308389       -0.1246066514
 C         -0.2743342869        0.1307111246        0.0639921579
 Ni         0.0935088642       -1.9173313532       -0.3073638825
 C         -0.2273384137       -2.5837438766        1.3176026532
 O         -0.4893805167       -2.9261553193        2.3743752978
 C         -1.0113118268       -2.6091567467       -1.5446436634
 O         -1.6035515268       -3.2054369016       -2.3174969016
 C          1.7428994367       -2.1110521638       -0.9684755779
 O          2.7362627604       -2.3392445757       -1.4850417568
 H          6.2275986120        0.7895039520        3.7976336169
 H          5.6610019773        1.9649795983        2.6175046006
 H          6.9062805107        0.7882460294        2.1741005254
 H          4.0581672850        0.0812227973        2.9968285846
 H          4.6417898074       -2.1975184421        2.2071411197
 H          5.7185234279       -1.6652120396        3.4969711512
 H          6.2780019959       -1.6565779914        1.8277131143
 H          6.1593189192       -0.4655627537       -0.1277889073
 H          6.0502321884        1.2880263806        0.0644277296
 H          4.3464783017       -0.4064988892       -1.8101154498
 H          5.6866080222        0.6344624361       -2.2869942846
 H          4.0629206191        1.9116775195       -3.7880941001
 H          2.6231629179        2.6503492021       -3.0835527262
 H          2.7254045158        0.8962584254       -3.2488071558
 H          2.2482425676        0.6559549265       -0.7992126576
 H          2.1711369994        2.4131081925       -0.6012218959
 H          1.1056876719        0.4025993747        2.8787528533
 H          1.8048386213       -0.4980172787        1.4975542992
 H          0.1727238901        2.8757010273        1.7427802293
 H         -1.8516836271        2.9631496565       -0.1401328136
 H         -2.1631281793        0.9490272434       -3.6903750624
 H         -0.5546386550        0.6911632278       -3.0103964426
 H         -1.3523992959        2.2484825729       -2.7919713612
 H         -3.5740045425        2.6240759493       -2.7389360988
 H         -5.7910006311        3.4474577092       -2.1631539315
 H         -7.0399794767        2.4575664356       -0.2781398656
 H         -7.1888631279        0.8570679999        1.5213839570
 H         -6.2230083643       -0.9927297058        2.8361358027
 H         -3.9906133507       -1.8718462263        2.2574610723
 H         -2.7222946175       -0.9392812356        0.4237234644
  70
       -106.38843157
 C          5.8026591870        0.2695727592        0.5029638642
 C          5.0236589029       -0.9234409213       -0.0492559935
 C          4.5275047346       -0.6204992984       -1.4617597187
 C          3.9129939139       -1.3889753882        0.9198126206
 H          4.3171684677       -1.3124804325        1.9351374234
 C          3.5582485773       -2.8561680464        0.6499282967
 C          2.5669910838       -3.4006601415        1.6708077362
 C          1.2779658277       -2.5854435826        1.6477647208
 H          0.8243541428       -2.6714794186        0.6545016948
 C          0.2784601606       -3.0921884839        2.6828137439
 C          1.6083161966       -1.1175792262        1.8999023944
 C          2.6201096447       -0.5577558192        0.8914933738
 H          2.1815533834       -0.5903193596       -0.1128182659
 O          2.9091437275        0.8048340480        1.2330846159
 C          2.2684616268        1.7756045379        0.4838117093
 N          0.8432171908        1.8383572662        0.7391119550
 C          0.3352200808        2.0627510215        1.9906778526
 C         -1.0071791509        1.9603969553        1.8859921260
 N         -1.2826957388        1.6785896608        0.5752942381
 C         -2.6450447128        1.5175207379        0.0915184771
 H         -2.5758926492        1.1240869444       -0.9294386743
 C         -3.3109623766        2.8903694412        0.0075924760
 C         -3.3596529481        0.4990377556        0.9581773413
 C         -4.2944863111        0.8831275413        1.8854511672
 C         -4.9488047957       -0.0528636603        2.6990099092
 C         -4.6670625722       -1.3818541095        2.5782030792
 C         -3.7167609378       -1.8280763761        1.6368959016
 C         -3.4338543049       -3.2027137089        1.4928469601
 C         -2.5247090216       -3.6408085516        0.5731873633
 C         -1.8496254907       -2.7131257095       -0.2317325553
 C         -2.0923624587       -1.3733490908       -0.1080498848
 C         -3.0399365054       -0.8824839515        0.8174817886
 C         -0.1491212780        1.6015558739       -0.1517372887
 Ni         0.0929827815        1.2989912227       -2.2336720733
 C          0.6838816489       -0.3783802413       -2.3881472039
 O          1.0126165241       -1.4686751304       -2.4832825371
 C         -1.4594491148        1.5510615608       -3.1038566919
 O         -2.3481797408        1.7350395321       -3.7962878844
 C          1.2151059636        2.5894229970       -2.7721065204
 O          1.8870632162        3.4316240367       -3.1473129175
 H          5.1509427718        1.1266258205        0.6390556973
 H          6.6018809438        0.5430721190       -0.1830116118
 H          6.2469038775        0.0222314681        1.4645607618
 H          5.7274248543       -1.7622456539       -0.1249854131
 H          3.9496037214        0.2997674414       -1.4878104671
 H          3.9129741962       -1.4298030650       -1.8479127468
 H          5.3770195255       -0.4959941558       -2.1302092755
 H          4.4713132459       -3.4545509806        0.6742874480
 H          3.1268457461       -2.9481087726       -0.3488697616
 H          3.0066994864       -3.3531680638        2.6698052505
 H          2.3487405683       -4.4477846184        1.4506647667
 H          0.0239898020       -4.1316899025        2.4901985611
 H         -0.6372169671       -2.5055899232        2.6517397999
 H          0.7004417520       -3.0215410782        3.6831974063
 H          2.0287099751       -1.0005282182        2.9015502579
 H          0.6872292095       -0.5333468867        1.8543106223
 H          2.3899049779        1.6180433010       -0.6008107736
 H          2.7264278566        2.7300990393        0.7727087094
 H          0.9706125311        2.2546713047        2.8299790865
 H         -1.7753780792        2.0502889586        2.6256915694
 H         -4.3424547342        2.7875287876       -0.3177639604
 H         -2.7755519590        3.4956320527       -0.7214964764
 H         -3.2839294042        3.4102917734        0.9622989661
 H         -4.5533394245        1.9238458596        2.0027542427
 H         -5.6792225130        0.2927912795        3.4154836930
 H         -5.1687681233       -2.1124807177        3.1960565923
 H         -3.9599349642       -3.9038147342        2.1250662511
 H         -2.3201236056       -4.6951458880        0.4612096754
 H         -1.1342410470       -3.0645489127       -0.9607203512
 H         -1.5429002523       -0.6898000487       -0.7393869232
  70
       -106.38834939
 C          5.9747572745        0.7139321130        2.7410472897
 C          4.8381379178       -0.1920503205        2.2722384271
 C          5.2749612993       -1.6548279011        2.3368901442
 C          4.3091644174        0.1613366892        0.8671895996
 H          3.6902515263       -0.6800938963        0.5314575242
 C          5.4087560836        0.3651137965       -0.1776724080
 C          4.8117507941        0.5880898196       -1.5636535392
 C          3.8891763216        1.8062375923       -1.5740933426
 H          4.4816593290        2.6966488218       -1.3328229413
 C          3.2516872208        1.9979012386       -2.9473517028
 C          2.8094314126        1.6359988097       -0.5058380690
 C          3.4294199335        1.4235869762        0.8766820682
 H          4.0520445677        2.2910212674        1.1239087755
 O          2.4600530117        1.4473062291        1.9290966708
 C          1.4567811165        0.4872237006        1.9196824300
 N          0.3373660728        0.8705331308        1.0785512820
 C         -0.2113837025        2.1222940211        1.1256826151
 C         -1.1803584334        2.1545394513        0.1847388595
 N         -1.2023615315        0.9198096654       -0.4022490071
 C         -2.0744606677        0.6015639980       -1.5210526857
 H         -2.1195213847       -0.4933035543       -1.5895340879
 C         -1.4157800300        1.1108492237       -2.8030063043
 C         -3.4663247238        1.1294885251       -1.2434906437
 C         -4.0173561271        2.1315793950       -2.0003075343
 C         -5.3026117917        2.6269030636       -1.7368801383
 C         -6.0358709821        2.1181766262       -0.7057129727
 C         -5.5129566654        1.0874976731        0.1024287317
 C         -6.2660514996        0.5550366584        1.1696579596
 C         -5.7648816910       -0.4445578521        1.9532539262
 C         -4.4848616040       -0.9536906990        1.6952346917
 C         -3.7290621075       -0.4586091423        0.6689674544
 C         -4.2119842710        0.5774137571       -0.1616131860
 C         -0.2681941925        0.1099109929        0.1376558990
 Ni         0.1390133368       -1.9225020661       -0.2891700323
 C          0.3652269842       -2.6829204433        1.3145989011
 O          0.4609975642       -3.1804583992        2.3373897842
 C         -1.2455975778       -2.7329805718       -1.0997020301
 O         -2.0313146531       -3.4060050335       -1.5822567636
 C          1.5353395906       -1.9005724038       -1.3966163136
 O          2.3748896362       -1.9129667901       -2.1718759379
 H          6.2094636092        0.4964298777        3.7807879258
 H          5.6918491896        1.7610189324        2.6722154432
 H          6.8737340810        0.5505888991        2.1521880618
 H          4.0027011332       -0.0598255908        2.9692648097
 H          6.1167973673       -1.8386229288        1.6734526957
 H          4.4605125260       -2.3168050442        2.0495227466
 H          5.5801773711       -1.9111268576        3.3488116016
 H          6.0588289102       -0.5105174045       -0.2002492328
 H          6.0147249301        1.2321724117        0.0903490033
 H          4.2455137205       -0.2948460548       -1.8651984495
 H          5.6147893473        0.7299993110       -2.2900741939
 H          2.6589818964        1.1251976761       -3.2139821141
 H          4.0167371523        2.1360136712       -3.7076736314
 H          2.6006803216        2.8696012352       -2.9515839138
 H          2.1916518461        0.7722106084       -0.7650085042
 H          2.1658169662        2.5194285834       -0.4810587547
 H          1.1053246995        0.4099428286        2.9576738230
 H          1.8034720357       -0.4974783153        1.5788014599
 H          0.1455852231        2.8653700187        1.8077738278
 H         -1.8530175909        2.9355441787       -0.1036297228
 H         -2.0324155460        0.8773586443       -3.6662029017
 H         -0.4556041582        0.6114496494       -2.9201789787
 H         -1.2396579019        2.1834091533       -2.7601975450
 H         -3.4683711608        2.5614900513       -2.8229397863
 H         -5.6996812046        3.4151641638       -2.3592196208
 H         -7.0261345265        2.4937757640       -0.4923002350
 H         -7.2526028626        0.9567175758        1.3526754044
 H         -6.3467892684       -0.8484849567        2.7684537056
 H         -4.0935482271       -1.7474589156        2.3144099863
 H         -2.7484704590       -0.8797359090        0.5043845934
  70
       -106.38826125
 C          5.9237982356        1.3627799037        0.7079730725
 C          5.5012434143        0.1112124986       -0.0603499520
 C          5.0893817204        0.4831496172       -1.4832662324
 C          4.4287450625       -0.6952578739        0.7068996128
 H          4.6567160198       -0.6058462641        1.7743625406
 C          4.4927368886       -2.1772586694        0.3233278583
 C          3.5474986842       -3.0166743363        1.1733976760
 C          2.1065739280       -2.5403209456        1.0128520818
 H          1.8057064477       -2.6771467801       -0.0316363123
 C          1.1644191561       -3.3430988733        1.9051187403
 C          2.0170910374       -1.0531635416        1.3481707436
 C          2.9851915752       -0.2058166700        0.5134098899
 H          2.7102197645       -0.2881985734       -0.5459206014
 O          2.9037611521        1.1677363649        0.9082144463
 C          2.0095053464        1.9619174033        0.2171469663
 N          0.6348436482        1.7895682165        0.6507307458
 C          0.2649503088        1.8948513025        1.9642533386
 C         -1.0646615467        1.6618743298        2.0100474553
 N         -1.4703594033        1.4242173776        0.7250369811
 C         -2.8648644207        1.1934856848        0.3816086109
 H         -2.8812087790        0.8285283470       -0.6525054930
 C         -3.6051340593        2.5303686292        0.4047860387
 C         -3.4343857568        0.1179074517        1.2843578801
 C         -4.3218820274        0.4205672537        2.2852826216
 C         -4.8472863119       -0.5723762724        3.1244302431
 C         -4.4822275150       -1.8757865990        2.9567758436
 C         -3.5729442812       -2.2381501179        1.9418341387
 C         -3.1993263285       -3.5856051336        1.7539528323
 C         -2.3238070967       -3.9413712739        0.7685584798
 C         -1.7781365190       -2.9551215997       -0.0655567038
 C         -2.1171041279       -1.6401882984        0.0935443046
 C         -3.0291605778       -1.2345380556        1.0933268221
 C         -0.4309281416        1.4992725992       -0.1316192210
 Ni        -0.3847025976        1.2229040567       -2.2254392749
 C          0.4570919422        2.6641315168       -2.8790393642
 O          0.9408312782        3.6032897497       -3.3101488727
 C          0.4392527565       -0.3525053550       -2.3739790777
 O          0.9267628960       -1.3858091637       -2.3997649701
 C         -2.0325708834        1.2061411226       -2.9443311812
 O         -2.9962270082        1.2279421934       -3.5560766023
 H          6.6901174872        1.9013695132        0.1542812671
 H          6.3302315121        1.0941682052        1.6806245032
 H          5.0740415415        2.0203781729        0.8610208150
 H          6.3813522240       -0.5400681850       -0.1328693388
 H          4.7125343911       -0.3813759237       -2.0246438864
 H          5.9498244776        0.8700396739       -2.0252866919
 H          4.3254346538        1.2562337010       -1.4768010546
 H          5.5151019684       -2.5382448822        0.4528122157
 H          4.2297305887       -2.2926825658       -0.7302794187
 H          3.8372931851       -2.9382876467        2.2240433089
 H          3.6238142062       -4.0667194468        0.8833879624
 H          0.1407747871       -2.9911157632        1.8006021362
 H          1.4567283582       -3.2451240355        2.9487414074
 H          1.1940566052       -4.3972688160        1.6394287554
 H          2.2495410616       -0.8984482528        2.4046033569
 H          0.9934444471       -0.7130704473        1.1762649156
 H          2.0283099111        1.7701356582       -0.8690394270
 H          2.3088252877        3.0006390351        0.4134126405
 H          0.9783250518        2.1065025121        2.7330290339
 H         -1.7430424189        1.6341440070        2.8373588440
 H         -4.6564721545        2.3817805379        0.1748155542
 H         -3.1731685038        3.1824220626       -0.3521387490
 H         -3.5120221160        3.0236296649        1.3695613583
 H         -4.6416067020        1.4385224584        2.4439064161
 H         -5.5442804641       -0.2906606826        3.8997856135
 H         -4.8843205629       -2.6496931481        3.5944556516
 H         -3.6259298168       -4.3327215479        2.4080101952
 H         -2.0442788646       -4.9748059605        0.6276791711
 H         -1.0816135044       -3.2403649172       -0.8398886118
 H         -1.6704925049       -0.9100854231       -0.5661539014
  70
       -106.38811531
 C          6.1148369555        2.0897523036        0.8215605083
 C          5.8626539844        0.5833102382        0.7745703253
 C          5.8963268811        0.0921089785       -0.6710218557
 C          4.5678946125        0.2000894455        1.5272829805
 H          4.4663138642        0.8876034735        2.3737632272
 C          4.6647272903       -1.2270764066        2.0761394951
 C          3.4512564529       -1.5873030936        2.9246443288
 C          2.1668098683       -1.4617021594        2.1100574920
 H          2.2138723803       -2.1643062968        1.2698538322
 C          0.9422380905       -1.7978391434        2.9551470580
 C          2.0582182812       -0.0476862141        1.5433097121
 C          3.2816251181        0.3172331907        0.6962761317
 H          3.3314892931       -0.3740821093       -0.1566226381
 O          3.1932745304        1.6541794686        0.1972032653
 C          2.3803575745        1.8616259444       -0.9037233099
 N          1.0032708461        2.1419124190       -0.5470103941
 C          0.6637143558        3.2392902684        0.1959597883
 C         -0.6786349477        3.2060008995        0.3481185258
 N         -1.1244807540        2.0937149098       -0.3122345382
 C         -2.5062506952        1.6574456022       -0.3918833494
 H         -2.6091773744        1.2064757343       -1.3862600333
 C         -3.4815303514        2.8275834846       -0.2677079536
 C         -2.8110408673        0.6052681896        0.6589742430
 C         -2.1525212586        0.6294778940        1.8621308822
 C         -2.4133476478       -0.3205875576        2.8581558973
 C         -3.3395117859       -1.2988205925        2.6431265445
 C         -4.0501527515       -1.3572147479        1.4269070635
 C         -5.0087470946       -2.3666513271        1.1995759225
 C         -5.6990144312       -2.4291225427        0.0234299132
 C         -5.4564625874       -1.4770129002       -0.9761945403
 C         -4.5341574514       -0.4858304180       -0.7865180442
 C         -3.7967767251       -0.3904885904        0.4145885567
 C         -0.0927208984        1.4151598754       -0.8631702317
 Ni        -0.2513982234       -0.4460903960       -1.8467988132
 C         -0.9902103345       -1.5370370506       -0.6361975628
 O         -1.3400077498       -2.3235756346        0.1129470278
 C         -1.2325146073       -0.1087904096       -3.3011790959
 O         -1.8461776259        0.1071739056       -4.2397577339
 C          1.3444126025       -1.1497472248       -2.2663136203
 O          2.2735721000       -1.7473394730       -2.5601486680
 H          6.2050066779        2.4300348079        1.8509371931
 H          5.2950077604        2.6240423319        0.3523661728
 H          7.0383004929        2.3321299530        0.2996227414
 H          6.6878630473        0.0957428116        1.3086772236
 H          5.1875650044        0.6449546508       -1.2821975188
 H          5.6646858662       -0.9685310967       -0.7327093190
 H          6.8897856417        0.2443327111       -1.0878309592
 H          5.5703625466       -1.3188331988        2.6794259611
 H          4.7454620090       -1.9311294729        1.2451100347
 H          3.3978881903       -0.9180902807        3.7869002021
 H          3.5536710247       -2.6078572057        3.2996263454
 H          1.0135559617       -2.8117383202        3.3422102173
 H          0.0331065976       -1.7197475922        2.3635900146
 H          0.8646589949       -1.1137386463        3.7981165230
 H          1.9640326775        0.6755611649        2.3573862724
 H          1.1589781248        0.0120309681        0.9242104245
 H          2.3742257381        1.0025385585       -1.5911577152
 H          2.7798289229        2.7446367970       -1.4219721882
 H          1.4003047443        3.9293095254        0.5513139029
 H         -1.3277516254        3.8830164291        0.8615962508
 H         -3.5028426843        3.2129719577        0.7492651653
 H         -4.4830631083        2.4834015506       -0.5118759432
 H         -3.2110123706        3.6281927795       -0.9533311961
 H         -1.4039047702        1.3842442761        2.0576046877
 H         -1.8703550150       -0.2706446495        3.7900602102
 H         -3.5417099350       -2.0438489004        3.3988470599
 H         -5.1825393837       -3.0942787640        1.9795286322
 H         -6.4288096205       -3.2069712068       -0.1459199163
 H         -6.0039030515       -1.5323892680       -1.9058177575
 H         -4.3735766087        0.2279967402       -1.5795592591
  70
       -106.38810877
 C          6.1457717511        1.9628657351        0.7755920967
 C          5.8371670050        0.4687438837        0.6884998120
 C          5.7960452504        0.0272805187       -0.7729242447
 C          4.5603453452        0.1049437183        1.4805665201
 H          4.5177817205        0.7652024524        2.3533475679
 C          4.6276084817       -1.3433937356        1.9757872387
 C          3.4360092177       -1.6924356199        2.8591399334
 C          2.1263897257       -1.4942570335        2.1011261375
 H          2.1170211567       -2.1660813017        1.2348387776
 C          0.9241975346       -1.8215226651        2.9810408921
 C          2.0457916870       -0.0572160548        1.5903569451
 C          3.2470745777        0.2963985281        0.7074632662
 H          3.2382134218       -0.3647978590       -0.1700464067
 O          3.1836397083        1.6531758006        0.2603442190
 C          2.3757412716        1.9181614721       -0.8314666353
 N          0.9973952124        2.1847939542       -0.4695771273
 C          0.6521202683        3.2593664842        0.3035663527
 C         -0.6904754494        3.2171771209        0.4512609619
 N         -1.1307422246        2.1223371797       -0.2411431094
 C         -2.5107873265        1.6833945693       -0.3364201542
 H         -2.6093112120        1.2610584173       -1.3433897401
 C         -3.4921517146        2.8445999548       -0.1819282143
 C         -2.8123306842        0.6007589485        0.6838857039
 C         -2.1752407872        0.6126170006        1.8987716381
 C         -2.4313056272       -0.3650806926        2.8689140230
 C         -3.3292941291       -1.3601907260        2.6147595974
 C         -4.0173453663       -1.4071027780        1.3851588823
 C         -4.9466238273       -2.4339980196        1.1177012925
 C         -5.6167389199       -2.4842108786       -0.0706090202
 C         -5.3842042344       -1.5006382401       -1.0417752521
 C         -4.4899256306       -0.4921784570       -0.8131624612
 C         -3.7714614449       -0.4103633039        0.4003651732
 C         -0.0953291559        1.4635008392       -0.8091887761
 Ni        -0.2448059582       -0.3734211389       -1.8395119888
 C         -0.9296636134       -1.4969277287       -0.6281769407
 O         -1.2554209424       -2.2906705393        0.1241468495
 C         -1.2760738097       -0.0357287101       -3.2589664941
 O         -1.9206451863        0.1675537387       -4.1795738397
 C          1.3503938968       -1.0287938169       -2.3343503625
 O          2.2787018887       -1.5951063015       -2.6870946428
 H          5.3271034211        2.5421171673        0.3607983329
 H          7.0548000172        2.1911544014        0.2228533656
 H          6.2912860037        2.2630069680        1.8110904378
 H          6.6646341241       -0.0657856239        1.1717602335
 H          5.0876880425        0.6281860787       -1.3374529470
 H          5.5197278379       -1.0207170419       -0.8610032420
 H          6.7782758282        0.1551235136       -1.2232167602
 H          5.5522044824       -1.4875827128        2.5387401357
 H          4.6509045707       -2.0196328965        1.1184496987
 H          3.4395491815       -1.0532490830        3.7454740910
 H          3.5168757727       -2.7287234796        3.1941291187
 H          0.9796582734       -2.8487908629        3.3339925684
 H         -0.0029504093       -1.6995129642        2.4260382694
 H          0.8975852902       -1.1623967887        3.8468072215
 H          2.0102424763        0.6382185009        2.4327521272
 H          1.1260536080        0.0572809239        1.0108100076
 H          2.3694320631        1.0938480261       -1.5604390778
 H          2.7808816773        2.8242152134       -1.3031312218
 H          1.3851030112        3.9419034176        0.6802007381
 H         -1.3434328473        3.8777034527        0.9811546894
 H         -4.4910758275        2.5015342359       -0.4383788734
 H         -3.2244650027        3.6653913984       -0.8444028388
 H         -3.5180886302        3.2014716024        0.8452833707
 H         -1.4472653653        1.3794161412        2.1236231014
 H         -1.9067006028       -0.3230732879        3.8117363581
 H         -3.5260716300       -2.1274334819        3.3493944878
 H         -5.1141337108       -3.1849022249        1.8766870084
 H         -6.3236799163       -3.2756930748       -0.2709178892
 H         -5.9172729725       -1.5450567660       -1.9802865685
 H         -4.3379479616        0.2469448735       -1.5844408822
  70
       -106.38788747
 C          2.4494127087        1.8836417372       -1.6720182566
 C          3.3920845165        2.2701302263       -0.5335107957
 C          4.3345890209        3.3791299306       -0.9990115964
 C          4.1815580817        1.0791299616        0.0467996470
 H          4.9638734383        1.4956146488        0.6911538325
 C          4.8388288522        0.2030050853       -1.0213152540
 C          5.6737696395       -0.9070563714       -0.3914101415
 C          4.8032873451       -1.7960874085        0.4946152328
 H          4.0184552999       -2.2443504572       -0.1260855099
 C          5.6186772263       -2.9158823187        1.1332507675
 C          4.1392025907       -0.9315566153        1.5634119327
 C          3.3050700099        0.1880742537        0.9381574554
 H          2.5018649918       -0.2520308548        0.3299214476
 O          2.7232534230        0.9797123290        1.9846919573
 C          1.4112549860        0.6677890602        2.3097784525
 N          0.4780810366        1.2471593074        1.3643724139
 C          0.2689746490        2.5981336316        1.3110001017
 C         -0.5520314400        2.8246923022        0.2636298369
 N         -0.8285190496        1.6057909633       -0.2977069060
 C         -1.6442155292        1.3976239046       -1.4859977569
 H         -0.9963507864        0.8784830445       -2.2065193952
 C         -2.0916013339        2.7098721065       -2.1307287838
 C         -2.8547202977        0.5076866565       -1.2592516410
 C         -3.0803230731       -0.4826043185       -2.1865338318
 C         -4.2008935423       -1.3184231207       -2.1204565901
 C         -5.1044682218       -1.1629832874       -1.1099575043
 C         -4.9256659039       -0.1555864098       -0.1405780679
 C         -5.8626819567        0.0062587314        0.9013785893
 C         -5.7103229024        0.9833871446        1.8421736698
 C         -4.6083947486        1.8458073419        1.7704987529
 C         -3.6806912731        1.7127544850        0.7752008619
 C         -3.7950512515        0.7079891623       -0.2112666016
 C         -0.1853300929        0.6172237013        0.3664277445
 Ni        -0.2340121253       -1.4459462494       -0.0751523940
 C          0.8923009316       -2.4553191979        0.9007539845
 O          1.5173010083       -3.2660382413        1.4095498353
 C         -1.9034475513       -1.9185591357        0.3705979300
 O         -2.9318363191       -2.2509273439        0.7336715781
 C          0.2242362696       -1.5499578374       -1.7942651670
 O          0.5831874429       -1.6411857287       -2.8762680512
 H          3.0084460574        1.6337516131       -2.5703013301
 H          1.7929235743        2.7203076669       -1.9063776736
 H          1.8293624832        1.0309964268       -1.4028708776
 H          2.7906608387        2.6724107870        0.2891414402
 H          3.7620892282        4.2380321269       -1.3432300415
 H          4.9596010293        3.0392532443       -1.8213720784
 H          4.9802824808        3.7027368023       -0.1859614213
 H          5.4730917749        0.8183909584       -1.6609338750
 H          4.0666938913       -0.2518552932       -1.6440027085
 H          6.4740216967       -0.4704856905        0.2108306788
 H          6.1362345753       -1.5081120342       -1.1773279518
 H          6.4016801434       -2.5030977642        1.7660790428
 H          6.0845256871       -3.5324248377        0.3678356984
 H          4.9813685196       -3.5506848142        1.7442913742
 H          4.9015355774       -0.4779302954        2.2007507065
 H          3.4994149954       -1.5464294709        2.2004665585
 H          1.2241015129        1.1075194581        3.2962240849
 H          1.2271680700       -0.4155255043        2.3460877471
 H          0.7219200970        3.2704403641        2.0097726638
 H         -0.9427422193        3.7497597305       -0.1037033711
 H         -2.7756122864        3.2582021401       -1.4876864170
 H         -2.6181641982        2.4746978848       -3.0525827714
 H         -1.2366156619        3.3356435247       -2.3783278092
 H         -2.3776290546       -0.6259348785       -2.9956515135
 H         -4.3323457050       -2.0870192521       -2.8673607505
 H         -5.9685831903       -1.8070508795       -1.0354139412
 H         -6.7073999218       -0.6667180202        0.9391850175
 H         -6.4300975910        1.0991878004        2.6389663023
 H         -4.4924832970        2.6228671002        2.5125069375
 H         -2.8479865012        2.3952720620        0.7581063980
  70
       -106.38788683
 C          2.4441185659        1.8727416080       -1.6769231204
 C          3.3855087203        2.2663080485       -0.5397855368
 C          4.3230853978        3.3780887937       -1.0086071997
 C          4.1801954886        1.0802486539        0.0435157145
 H          4.9609562000        1.5017818870        0.6864789434
 C          4.8408134100        0.2042190168       -1.0225831263
 C          5.6810720819       -0.9002633541       -0.3900213373
 C          4.8148090724       -1.7911425490        0.4982696028
 H          4.0322421291       -2.2448885238       -0.1212849490
 C          5.6357737016       -2.9051706712        1.1398757194
 C          4.1464996138       -0.9272534651        1.5649635922
 C          3.3078274202        0.1879112177        0.9376959906
 H          2.5054277837       -0.2562444182        0.3313756845
 O          2.7246533175        0.9797972116        1.9833319702
 C          1.4132433413        0.6663816443        2.3093310089
 N          0.4788417332        1.2448875469        1.3645984083
 C          0.2691645687        2.5957784606        1.3109949345
 C         -0.5521333163        2.8217861837        0.2637342999
 N         -0.8283328528        1.6026465904       -0.2972272475
 C         -1.6436327178        1.3938664765       -1.4856809863
 H         -0.9960485525        0.8724529199       -2.2048071703
 C         -2.0882035767        2.7058226189       -2.1329457686
 C         -2.8556662815        0.5061427399       -1.2584140389
 C         -3.0812367294       -0.4862319229       -2.1834566286
 C         -4.2030365334       -1.3203713837       -2.1169200940
 C         -5.1081535543       -1.1608275901       -1.1084543607
 C         -4.9296077973       -0.1509589117       -0.1416107738
 C         -5.8685741899        0.0155839329        0.8978483145
 C         -5.7164240901        0.9950678675        1.8362252394
 C         -4.6125139278        1.8549594864        1.7647451454
 C         -3.6829414588        1.7173793264        0.7718133966
 C         -3.7973537324        0.7104474917       -0.2124264634
 C         -0.1846130056        0.6144905041        0.3669959894
 Ni        -0.2343947950       -1.4489690156       -0.0726472016
 C          0.8953566486       -2.4560198949        0.9016654344
 O          1.5247071255       -3.2638596401        1.4097096055
 C         -1.9040365905       -1.9185168360        0.3756612289
 O         -2.9334501404       -2.2462037869        0.7400820915
 C          0.2205334314       -1.5571086037       -1.7924479014
 O          0.5771666710       -1.6530550075       -2.8747784872
 H          1.7843439521        2.7061523486       -1.9136452275
 H          1.8274111310        1.0184869780       -1.4051436326
 H          3.0039526414        1.6224031917       -2.5745760877
 H          2.7826700416        2.6683380212        0.2819430323
 H          4.9491907244        3.0386806359       -1.8303230474
 H          4.9677193748        3.7066762939       -0.1967140748
 H          3.7467434609        4.2335814686       -1.3549090982
 H          5.4719754046        0.8207467694       -1.6641650320
 H          4.0704307775       -0.2558019497       -1.6436499626
 H          6.4793202103       -0.4584106888        0.2110313266
 H          6.1463072101       -1.5011046339       -1.1744657164
 H          6.1046753959       -3.5214219723        0.3760966657
 H          5.0017053679       -3.5415113898        1.7526762531
 H          6.4167567252       -2.4867818065        1.7715259869
 H          4.9066461973       -0.4692101960        2.2017616512
 H          3.5090223039       -1.5436274349        2.2029136833
 H          1.2262711433        1.1058420686        3.2959419548
 H          1.2303493518       -0.4171134653        2.3457462407
 H          0.7220436339        3.2683969156        2.0095136125
 H         -0.9430210807        3.7466748554       -0.1038845787
 H         -2.6135723731        2.4700572207       -3.0553264148
 H         -1.2319350254        3.3300604358       -2.3800105713
 H         -2.7725062382        3.2560620287       -1.4918533066
 H         -2.3776751218       -0.6324686034       -2.9912892459
 H         -4.3343838908       -2.0907228684       -2.8620325112
 H         -5.9733473789       -1.8034167711       -1.0336492718
 H         -6.7146206335       -0.6557178619        0.9357287365
 H         -6.4378105056        1.1145867541        2.6310057028
 H         -4.4966428986        2.6337694192        2.5049180021
 H         -2.8486528541        2.3979454272        0.7548878762
  70
       -106.38782615
 C          2.3992806149        1.8595781027        3.5341777181
 C          1.8176258643        1.2385762363        2.2648329145
 C          0.3921399879        0.7606823453        2.5289825825
 C          2.6727309814        0.0959788254        1.6764518212
 H          2.0435460795       -0.4341903145        0.9484096130
 C          3.1285680593       -0.9115030394        2.7343823524
 C          3.9537800338       -2.0383077230        2.1244857832
 C          5.2035604411       -1.4752145011        1.4517695281
 H          5.7955333818       -0.9400595667        2.2033696968
 C          6.0589014676       -2.5878514087        0.8532243157
 C          4.7743620991       -0.4880044596        0.3684174656
 C          3.9029314496        0.6386837549        0.9331764457
 H          4.5087940626        1.2308739455        1.6286250689
 O          3.5876346966        1.6025236436       -0.0794187448
 C          2.8182352032        1.2003889597       -1.1669390981
 N          1.4496018312        1.6731927501       -1.0805848026
 C          1.1582399516        3.0029547763       -0.9408955629
 C         -0.1870773630        3.1143309693       -0.9988599038
 N         -0.6830803248        1.8518388412       -1.1789484992
 C         -2.0861730580        1.5214569146       -1.3500267445
 H         -2.0837671583        0.5873824165       -1.9239192460
 C         -2.8198384596        2.5957780702       -2.1546911544
 C         -2.7911240355        1.2859623507       -0.0276941459
 C         -2.4575930342        2.0385317173        1.0686977641
 C         -3.0932956795        1.8565621601        2.3039434489
 C         -4.0659704726        0.9102185379        2.4379754607
 C         -4.4529205105        0.1211722800        1.3356294651
 C         -5.4630313663       -0.8544064311        1.4686553100
 C         -5.8522569462       -1.6143376923        0.4035879651
 C         -5.2457001002       -1.4213808129       -0.8450587418
 C         -4.2627121798       -0.4850951944       -1.0062925729
 C         -3.8230727963        0.3121275598        0.0743851881
 C          0.3200632267        0.9446202319       -1.2231271047
 Ni         0.0536645627       -1.1417594276       -1.4428047681
 C          1.5578703732       -2.0985870963       -1.2548723475
 O          2.4016174561       -2.8656531444       -1.1654586973
 C         -1.0745128941       -1.5942128751       -0.1257872258
 O         -1.7293148724       -1.9506015078        0.7372381812
 C         -0.5591337943       -1.3110602808       -3.1133513465
 O         -0.9042217346       -1.4104321433       -4.1972990420
 H          3.4380073121        2.1475069786        3.3930633217
 H          2.3346981085        1.1706713022        4.3724475697
 H          1.8353935814        2.7539789191        3.7918825914
 H          1.7749157713        2.0284741108        1.5071581126
 H         -0.0651653387        0.3865126012        1.6143268219
 H         -0.2179595198        1.5773725491        2.9065793046
 H          0.3795439495       -0.0372257796        3.2674898154
 H          2.2533408050       -1.3291778956        3.2338288792
 H          3.7388401331       -0.4043289158        3.4833918846
 H          3.3571086112       -2.5800221027        1.3877899569
 H          4.2401174841       -2.7459362659        2.9054796328
 H          6.3770226253       -3.2819131936        1.6277237816
 H          6.9448346016       -2.1766485575        0.3744844894
 H          5.4916078348       -3.1422749643        0.1088441595
 H          4.2250094310       -1.0413626121       -0.3950607611
 H          5.6498088084       -0.0425452368       -0.1101273710
 H          2.7785621853        0.1144714038       -1.3021153827
 H          3.2691992551        1.6554736442       -2.0618303171
 H          1.9275552973        3.7350609900       -0.8089822212
 H         -0.8059273592        3.9850938931       -0.9441873910
 H         -3.8015585470        2.2224319287       -2.4345329788
 H         -2.2670837734        2.8394313735       -3.0598319867
 H         -2.9631358997        3.4993110427       -1.5666086089
 H         -1.6787646744        2.7836070553        0.9976849867
 H         -2.8010040808        2.4691477285        3.1442139443
 H         -4.5567926995        0.7517723560        3.3872909247
 H         -5.9230669636       -0.9877225808        2.4375140855
 H         -6.6232720256       -2.3625636258        0.5130521393
 H         -5.5595956108       -2.0221232975       -1.6862299158
 H         -3.8236219660       -0.3654101124       -1.9847109237
  70
       -106.38782408
 C          2.4275000103        1.8915564065        3.5134234581
 C          1.8382859051        1.2578145680        2.2539027179
 C          0.4144705017        0.7824316061        2.5313034884
 C          2.6899262103        0.1094855276        1.6716910011
 H          2.0561174261       -0.4283800543        0.9534143654
 C          3.1534941370       -0.8867092148        2.7369599791
 C          3.9750381238       -2.0195017032        2.1331801711
 C          5.2197545886       -1.4630043117        1.4457165303
 H          5.8168617555       -0.9197528784        2.1873942046
 C          6.0713494934       -2.5815097949        0.8528035323
 C          4.7823096851       -0.4873924268        0.3551614708
 C          3.9148740238        0.6449698933        0.9146508542
 H          4.5254972013        1.2439957987        1.6000148330
 O          3.5925389693        1.5987079001       -0.1052116164
 C          2.8154410657        1.1857901668       -1.1831147840
 N          1.4481625382        1.6619560827       -1.0930351432
 C          1.1600740362        2.9931353811       -0.9601622165
 C         -0.1851532630        3.1071407300       -1.0153552143
 N         -0.6843271663        1.8448144548       -1.1876850911
 C         -2.0882254181        1.5168667939       -1.3570345642
 H         -2.0883816169        0.5828031998       -1.9310452074
 C         -2.8210572169        2.5927713322       -2.1603770074
 C         -2.7919006930        1.2821461357       -0.0339613653
 C         -2.4511255406        2.0290024624        1.0640792071
 C         -3.0854593166        1.8469641885        2.3000332018
 C         -4.0644241434        0.9069272771        2.4327986385
 C         -4.4591655597        0.1243489948        1.3285870293
 C         -5.4758810529       -0.8445431679        1.4601389921
 C         -5.8720998426       -1.5983415878        0.3932727910
 C         -5.2659054104       -1.4060039025       -0.8556524485
 C         -4.2765644148       -0.4761738085       -1.0154808630
 C         -3.8301519748        0.3149195468        0.0669052024
 C          0.3166723736        0.9350526517       -1.2284247931
 Ni         0.0437812305       -1.1524475086       -1.4251024663
 C          1.5456782040       -2.1104342165       -1.2256499694
 O          2.3880881847       -2.8776883282       -1.1258754695
 C         -1.0846977792       -1.5864092799       -0.1021802107
 O         -1.7391571424       -1.9316923083        0.7655974527
 C         -0.5732758128       -1.3403446956       -3.0919826149
 O         -0.9233695771       -1.4537819574       -4.1729197647
 H          2.3682450060        1.2110431581        4.3589128373
 H          1.8650680293        2.7884312957        3.7656771841
 H          3.4652804723        2.1781892565        3.3630141660
 H          1.7908936026        2.0401146004        1.4886752456
 H         -0.0482561995        0.3991787423        1.6231296474
 H         -0.1933323541        1.6028633079        2.9044934495
 H          0.4063847258       -0.0081143290        3.2777603625
 H          2.2819460730       -1.2995404543        3.2467684001
 H          3.7686513422       -0.3714803737        3.4764292845
 H          3.3735383336       -2.5693355314        1.4064985516
 H          4.2672749082       -2.7186228158        2.9196344872
 H          5.4990120594       -3.1440423229        0.1184322564
 H          6.3954478582       -3.2671918071        1.6322737898
 H          6.9535782640       -2.1749482116        0.3633675794
 H          4.2273717198       -1.0487583556       -0.3984072034
 H          5.6540684367       -0.0467915297       -0.1344835828
 H          2.7730609446        0.0985186235       -1.3060489289
 H          3.2612270930        1.6300736420       -2.0860470423
 H          1.9313917537        3.7242162239       -0.8343706674
 H         -0.8020816810        3.9793873958       -0.9629074548
 H         -3.8036950444        2.2211976095       -2.4393252519
 H         -2.2689912997        2.8362168485       -3.0659994058
 H         -2.9623604431        3.4960799666       -1.5714669805
 H         -1.6678873178        2.7695278687        0.9934913670
 H         -2.7871016253        2.4543599358        3.1419223518
 H         -4.5543000685        0.7485458527        3.3826179776
 H         -5.9353207084       -0.9777691220        2.4292935410
 H         -6.6482908488       -2.3413792029        0.5015576085
 H         -5.5850826177       -2.0021589544       -1.6981040215
 H         -3.8376689541       -0.3567995315       -1.9940244180
  70
       -106.38782105
 C          2.3561331582        1.8273101770        3.5510787909
 C          1.7961678924        1.2021632322        2.2741033632
 C          0.3780990668        0.6952251107        2.5240716748
 C          2.6771510867        0.0788059437        1.6868879397
 H          2.0622939681       -0.4600249679        0.9532318213
 C          3.1458835957       -0.9242177427        2.7435523901
 C          3.9941357887       -2.0339928301        2.1338602706
 C          5.2365127055       -1.4463961325        1.4684079235
 H          5.8157630228       -0.9034590128        2.2243318645
 C          6.1141639426       -2.5413739030        0.8696153720
 C          4.7941074308       -0.4628493763        0.3870466584
 C          3.9018124739        0.6466636923        0.9532909771
 H          4.4941648130        1.2446624875        1.6553757412
 O          3.5770659804        1.6106310148       -0.0559436054
 C          2.8181211244        1.2024083928       -1.1487950076
 N          1.4473799602        1.6700743873       -1.0713631131
 C          1.1512073219        2.9988272782       -0.9319220337
 C         -0.1942322756        3.1057519885       -0.9942986680
 N         -0.6854069643        1.8416250306       -1.1764475756
 C         -2.0871515934        1.5072850797       -1.3487377279
 H         -2.0816857164        0.5680534651       -1.9145405975
 C         -2.8192639884        2.5739983690       -2.1651612799
 C         -2.7966178026        1.2824322650       -0.0268760881
 C         -2.4567532713        2.0314487374        1.0699602039
 C         -3.0993865240        1.8594521398        2.3031272091
 C         -4.0858098305        0.9271418325        2.4346601487
 C         -4.4790391008        0.1417647653        1.3319209999
 C         -5.5033068809       -0.8192961334        1.4621108512
 C         -5.8981847992       -1.5758207967        0.3966938340
 C         -5.2825823585       -1.3944858512       -0.8492575122
 C         -4.2860085682       -0.4721814789       -1.0077523866
 C         -3.8412356371        0.3218853362        0.0731441181
 C          0.3208111307        0.9378173815       -1.2180410706
 Ni         0.0645138195       -1.1479456659       -1.4543326615
 C          1.5678638145       -2.0996285194       -1.2353799112
 O          2.4145245165       -2.8609370253       -1.1276812487
 C         -1.0926462997       -1.6158971706       -0.1676325669
 O         -1.7674493377       -1.9817764426        0.6758745951
 C         -0.5082143988       -1.2993749859       -3.1405610913
 O         -0.8267523045       -1.3790802655       -4.2342478902
 H          3.3901426493        2.1359291919        3.4192266676
 H          2.2986065874        1.1326428985        4.3850931831
 H          1.7731530188        2.7092262435        3.8093077976
 H          1.7443380533        1.9950061034        1.5200689202
 H          0.3755810590       -0.1088098173        3.2560194456
 H         -0.0652160383        0.3199527500        1.6028529989
 H         -0.2506158347        1.4967389119        2.9035233037
 H          2.2759661689       -1.3593566679        3.2373239508
 H          3.7432800009       -0.4087983606        3.4973298449
 H          3.4107818489       -2.5841705478        1.3928105043
 H          4.2897505228       -2.7387217658        2.9140265558
 H          5.5600803163       -3.1031900599        0.1208394913
 H          6.4414476698       -3.2324114617        1.6429928936
 H          6.9945929369       -2.1126012254        0.3961633734
 H          4.2564373654       -1.0222918711       -0.3804698584
 H          5.6633780834       -0.0006889229       -0.0868678156
 H          2.7842172963        0.1160547883       -1.2816357512
 H          3.2728694624        1.6574119239       -2.0418848389
 H          1.9177418093        3.7331802322       -0.7965284806
 H         -0.8163200315        3.9743271756       -0.9414439638
 H         -2.9648256292        3.4824486288       -1.5853012901
 H         -3.7999092115        2.1980308353       -2.4451336735
 H         -2.2634747949        2.8103017375       -3.0703892655
 H         -1.6677220400        2.7658984485        1.0015286946
 H         -2.8020199336        2.4693435633        3.1436234766
 H         -4.5830498185        0.7774547540        3.3820595311
 H         -5.9696115424       -0.9442736373        2.4290872138
 H         -6.6804507032       -2.3125993034        0.5038861225
 H         -5.6004994550       -1.9929269734       -1.6905547251
 H         -3.8394022704       -0.3617033380       -1.9838478482
  70
       -106.38781590
 C          2.4071895614        1.6881837833        3.6614128754
 C          1.8101795340        1.1612130795        2.3570449539
 C          0.3698846077        0.7140496965        2.5923710572
 C          2.6316838002        0.0298808506        1.7026633902
 H          1.9912512320       -0.4356854390        0.9406201961
 C          3.0498197111       -1.0537750678        2.6988911921
 C          3.8469583713       -2.1640269347        2.0249845365
 C          5.1186480362       -1.5967559619        1.3984529871
 H          5.7180500828       -1.1262596151        2.1865304713
 C          5.9479852178       -2.6945796346        0.7390130842
 C          4.7280999479       -0.5331059537        0.3744347777
 C          3.8810837304        0.5807639745        0.9984667510
 H          4.4972371880        1.1162420266        1.7299177239
 O          3.5957380281        1.6096043883        0.0420274736
 C          2.8274066370        1.2899418102       -1.0728288878
 N          1.4592021156        1.7596085409       -0.9609975467
 C          1.1686979814        3.0777656985       -0.7361300420
 C         -0.1758585108        3.1959531711       -0.7992496327
 N         -0.6723251790        1.9496527705       -1.0681286139
 C         -2.0739648452        1.6339294318       -1.2792439488
 H         -2.0649970839        0.7555533679       -1.9342749665
 C         -2.8062684723        2.7731819004       -1.9896127857
 C         -2.7849675785        1.2795488675        0.0129121548
 C         -2.4878413358        1.9662223114        1.1619542084
 C         -3.1225670253        1.6736339099        2.3760733602
 C         -4.0564704622        0.6816006439        2.4354925827
 C         -4.4068600025       -0.0416392501        1.2772544244
 C         -5.3767936377       -1.0642931282        1.3340570449
 C         -5.7315799072       -1.7608816036        0.2150361671
 C         -5.1315346201       -1.4526108431       -1.0134661924
 C         -4.1867480844       -0.4684919909       -1.1013538738
 C         -3.7803796055        0.2637446383        0.0368554213
 C          0.3297117444        1.0447552388       -1.1624501336
 Ni         0.0587119131       -1.0267161622       -1.4942361621
 C         -1.0237438015       -1.5485571969       -0.1657442141
 O         -1.6468552852       -1.9527011410        0.6997121933
 C         -0.6143102739       -1.1229729218       -3.1477838685
 O         -1.0019398576       -1.1916290480       -4.2197232080
 C          1.5669216034       -1.9923544692       -1.4170527199
 O          2.4076790659       -2.7678461317       -1.4107702139
 H          1.8705964251        2.5830902458        3.9705109102
 H          3.4547874543        1.9513780635        3.5390518221
 H          2.3185442889        0.9536372337        4.4576904182
 H          1.7937782479        1.9953569672        1.6472718747
 H          0.3298126127       -0.1211536534        3.2873628201
 H         -0.0958956483        0.4033384324        1.6587013150
 H         -0.2153238149        1.5284987966        3.0120957483
 H          2.1588411254       -1.4757017325        3.1658743628
 H          3.6685994495       -0.6122586540        3.4817104245
 H          3.2409996380       -2.6400647730        1.2512989458
 H          4.1054613640       -2.9277412324        2.7615833240
 H          5.3724860223       -3.1854007131       -0.0427759233
 H          6.2387272590       -3.4440212932        1.4715421210
 H          6.8498218861       -2.2803947550        0.2937096789
 H          4.1729539841       -1.0239204106       -0.4263912520
 H          5.6204138600       -0.0835602257       -0.0677715054
 H          2.7842638315        0.2166351587       -1.2859342948
 H          3.2845191835        1.8064050415       -1.9303573658
 H          1.9377953224        3.7981739568       -0.5495487672
 H         -0.7932908928        4.0628033723       -0.6921081548
 H         -3.7843326947        2.4217078876       -2.3082316819
 H         -2.2492249044        3.0988635105       -2.8658807149
 H         -2.9579568797        3.6199494746       -1.3242457312
 H         -1.7380118868        2.7437406036        1.1486028111
 H         -2.8594210915        2.2363741686        3.2596296854
 H         -4.5443945258        0.4362318037        3.3676613131
 H         -5.8338475273       -1.2853696730        2.2881627815
 H         -6.4713401223       -2.5460206819        0.2661687160
 H         -5.4200955091       -2.0017566434       -1.8978660709
 H         -3.7535241692       -0.2584109533       -2.0670571997
  70
       -106.38775668
 C          3.8920674569        3.5558272422       -0.2650983478
 C          3.7371449282        2.4427287698       -1.3003433758
 C          2.2748854152        2.3110288029       -1.7186663991
 C          4.3675524277        1.1169082967       -0.8195109994
 H          5.3211544809        1.3709153251       -0.3435507247
 C          4.6525737419        0.2034595703       -2.0195324107
 C          5.3959794335       -1.0658328122       -1.6198864901
 C          4.5986097470       -1.8488242786       -0.5804557095
 H          3.6336729149       -2.1330306356       -1.0175937212
 C          5.3311820787       -3.1156174924       -0.1506310371
 C          4.3365103218       -0.9380740542        0.6149489273
 C          3.5535407449        0.3142509041        0.2056283084
 H          2.5962752608        0.0103456694       -0.2430026837
 O          3.2922475486        1.1073358823        1.3722493266
 C          2.1797194072        0.7312319443        2.1115240476
 N          0.9599763852        1.3080600099        1.5808211943
 C          0.6420904318        2.6278543240        1.7623172318
 C         -0.4771774015        2.8628139478        1.0431939097
 N         -0.8099610366        1.6849587476        0.4312253942
 C         -1.9491112559        1.4886740896       -0.4452174139
 H         -1.6316735582        0.7156670253       -1.1569713315
 C         -2.2924082545        2.7662785059       -1.2118969358
 C         -3.1612838468        0.9853599641        0.3162675248
 C         -3.3314721757        1.3153753575        1.6363503291
 C         -4.4431609873        0.8716114038        2.3646722342
 C         -5.3899781016        0.0969194559        1.7616035901
 C         -5.2627725799       -0.2614015077        0.4039230860
 C         -6.2363044175       -1.0664931313       -0.2234750611
 C         -6.1148057423       -1.4234764985       -1.5355454353
 C         -5.0075478022       -0.9857456911       -2.2749489608
 C         -4.0479544680       -0.2021696853       -1.6967044039
 C         -4.1377068129        0.1872290995       -0.3416547213
 C          0.0664572262        0.7089084202        0.7580500501
 Ni        -0.0692748125       -1.2958460733        0.1135192986
 C          0.3699960699       -1.1734627502       -1.6090778572
 O          0.7457380531       -1.0462280587       -2.6815353583
 C          1.0328608367       -2.4124058168        0.9818765682
 O          1.6363365540       -3.2637736353        1.4475969705
 C         -1.7325587486       -1.8179495077        0.5580541675
 O         -2.7151028451       -2.2672631213        0.9218458699
 H          3.4706557444        4.4843739609       -0.6460374787
 H          4.9430837350        3.7232715994       -0.0412195464
 H          3.3862041564        3.2920237860        0.6573344462
 H          4.3064128528        2.7437154177       -2.1893991833
 H          1.6454133603        2.0924810168       -0.8626483105
 H          2.1438671894        1.5231302953       -2.4556996138
 H          1.9328869872        3.2457039710       -2.1597861337
 H          5.2434779979        0.7539452292       -2.7546499905
 H          3.7092442787       -0.0760541370       -2.4927240940
 H          6.3715743341       -0.8049017216       -1.2027617003
 H          5.5646836761       -1.6840513182       -2.5041420441
 H          5.5160212643       -3.7582063006       -1.0084515172
 H          4.7397288767       -3.6717546879        0.5730167874
 H          6.2874108130       -2.8664678919        0.3049562179
 H          5.2845514004       -0.6247792181        1.0584316074
 H          3.7805379054       -1.4836972131        1.3800185681
 H          2.3302177510        1.1211447418        3.1247907687
 H          2.0431343410       -0.3580117863        2.1494503081
 H          1.2350563863        3.2761966386        2.3733036221
 H         -1.0403684797        3.7640539342        0.9255458971
 H         -1.4002098496        3.1859887012       -1.6724755834
 H         -2.7443513997        3.5072923776       -0.5563254476
 H         -3.0116823040        2.5334984352       -1.9924480374
 H         -2.5952073970        1.9211436017        2.1454594061
 H         -4.5353721958        1.1469551672        3.4049136066
 H         -6.2488263560       -0.2568348347        2.3133665328
 H         -7.0816890722       -1.3994608624        0.3617204771
 H         -6.8615295182       -2.0438174753       -2.0087280168
 H         -4.9133534721       -1.2755961224       -3.3113650816
 H         -3.2076614438        0.1113374870       -2.2965452868
  70
       -106.38775134
 C          6.2995663558        0.9890664403        0.0979863097
 C          5.3860107142        1.5277039698        1.1972750604
 C          6.2276242807        1.9958174460        2.3837119438
 C          4.3019720568        0.5268542337        1.6482905788
 H          3.8285335769        0.9507237742        2.5409779759
 C          4.8502777872       -0.8575679749        1.9973633013
 C          3.7460287042       -1.7731824636        2.5147152593
 C          2.6477126717       -1.9271505918        1.4652652791
 H          3.0907287710       -2.3587970435        0.5602334485
 C          1.5385951112       -2.8546279543        1.9486881991
 C          2.0866180494       -0.5499945202        1.1159829847
 C          3.1909080317        0.3734471040        0.5982097957
 H          3.6121088904       -0.0580286081       -0.3226588432
 O          2.7012623011        1.6818077992        0.2986563787
 C          1.9227464071        1.8096798867       -0.8405495316
 N          0.5008197139        1.7427560209       -0.5608236321
 C         -0.1021325596        2.6487422061        0.2692298021
 C         -1.4224614911        2.3654640351        0.2591252994
 N         -1.5896617833        1.2926333857       -0.5720376597
 C         -2.9033290208        0.7800742454       -0.9325226496
 H         -2.7631690121       -0.2538648452       -1.2758847339
 C         -3.4223053706        1.5874941043       -2.1229931615
 C         -3.8072545505        0.7743624118        0.2828179857
 C         -4.8993039691        1.6005185591        0.3653606129
 C         -5.7427549788        1.5931718044        1.4855236907
 C         -5.4907796706        0.7514235534        2.5284067550
 C         -4.3798429029       -0.1161580975        2.4925066291
 C         -4.1168134242       -0.9946250329        3.5641874914
 C         -3.0461381726       -1.8409309424        3.5306027041
 C         -2.1892508744       -1.8344478832        2.4215475500
 C         -2.4116403469       -0.9891743030        1.3701536813
 C         -3.5161014940       -0.1084207759        1.3625595318
 C         -0.4077161400        0.8866975768       -1.0840974528
 Ni        -0.0761708436       -0.7271868771       -2.4156379879
 C         -1.1640238265       -2.0861371170       -1.9911102584
 O         -1.7443065201       -3.0472163951       -1.7817698499
 C         -0.4089244417        0.0525138982       -3.9858697625
 O         -0.6096193546        0.6122486766       -4.9602327817
 C          1.5922582558       -1.3692158074       -2.2722934799
 O          2.6000851177       -1.9063962232       -2.2394605313
 H          5.7251135314        0.6068983194       -0.7417892051
 H          6.9380286391        0.1942171726        0.4755800970
 H          6.9401282793        1.7878061315       -0.2699958379
 H          4.8520257382        2.3974443171        0.8013320813
 H          6.8054112751        1.1745941723        2.8012305037
 H          5.5956766237        2.4071263475        3.1674845016
 H          6.9237313959        2.7687708296        2.0658222052
 H          5.6299264261       -0.7619993975        2.7538990247
 H          5.2923964853       -1.3101372707        1.1084750924
 H          3.3169323286       -1.3553462996        3.4285911228
 H          4.1644136701       -2.7521429930        2.7585798904
 H          1.0755032635       -2.4521861278        2.8477261133
 H          1.9369843446       -3.8404683588        2.1782284457
 H          0.7761920010       -2.9629781041        1.1797375132
 H          1.6297050233       -0.0965210567        1.9992763615
 H          1.3086840116       -0.6589671396        0.3539203187
 H          2.1537860847        1.0476571105       -1.5995659141
 H          2.1317286498        2.8072101567       -1.2535011813
 H          0.4618732511        3.3944597083        0.7892312382
 H         -2.2430711552        2.8251931442        0.7698962287
 H         -4.4027616580        1.2303179215       -2.4247965150
 H         -2.7366798237        1.4565748073       -2.9579379169
 H         -3.4756334983        2.6485903157       -1.8891437690
 H         -5.1366045407        2.2775386534       -0.4394958235
 H         -6.5921004489        2.2597751414        1.5078277484
 H         -6.1361163917        0.7338576602        3.3946876084
 H         -4.7864221529       -0.9852001669        4.4124872311
 H         -2.8528484297       -2.5165492005        4.3507260050
 H         -1.3468408940       -2.5084765660        2.4003882446
 H         -1.7241089159       -1.0054261843        0.5382208515
  70
       -106.38774785
 C          6.2806807972        0.9801612864        0.4350544555
 C          5.3488626429        1.1746944728        1.6296312465
 C          6.1719917032        1.2954025111        2.9114155687
 C          4.2746614320        0.0754523944        1.7634031142
 H          3.7867438898        0.2231458756        2.7333412062
 C          4.8386996058       -1.3452485105        1.7118881765
 C          3.7424489593       -2.3814881905        1.9348891137
 C          2.6539798352       -2.2428513110        0.8729495807
 H          3.1084228204       -2.3968743143       -0.1127127526
 C          1.5538119193       -3.2807295795        1.0642409619
 C          2.0787946205       -0.8284633461        0.9207223912
 C          3.1762875099        0.2137306056        0.6979841677
 H          3.6127348654        0.0618904936       -0.3009970788
 O          2.6732477539        1.5489864378        0.7706263057
 C          1.9141783603        1.9885185150       -0.3025415959
 N          0.4880016745        1.8490801388       -0.0779952840
 C         -0.1359415406        2.5118618055        0.9443453130
 C         -1.4534808018        2.2351696022        0.8394931223
 N         -1.5981119575        1.4079924155       -0.2395235503
 C         -2.9013774192        0.9929649603       -0.7373271119
 H         -2.7439657442        0.0827760781       -1.3326435200
 C         -3.4177090878        2.0751729873       -1.6864451326
 C         -3.8192367633        0.6685053694        0.4235915091
 C         -4.9340563400        1.4237772394        0.6859085381
 C         -5.7904305989        1.1233211617        1.7548578917
 C         -5.5284055956        0.0586986260        2.5656645135
 C         -4.3943456805       -0.7479214961        2.3390573723
 C         -4.1201304019       -1.8547736780        3.1691684510
 C         -3.0269954344       -2.6425507439        2.9496000736
 C         -2.1585650453       -2.3465918171        1.8901706127
 C         -2.3919865279       -1.2762348042        1.0722094319
 C         -3.5184281463       -0.4449698062        1.2602126874
 C         -0.4049225761        1.1507808308       -0.8178073694
 Ni        -0.0516201670       -0.0863433143       -2.5032256149
 C          1.6540261829       -0.6349635569       -2.5852215056
 O          2.6864753120       -1.1028847029       -2.7280361596
 C         -1.0407479352       -1.5717318536       -2.3543250146
 O         -1.5563821503       -2.5904743605       -2.3381783428
 C         -0.4948212961        0.9973689668       -3.8514863807
 O         -0.7496592520        1.7308530202       -4.6879119928
 H          6.9262646351        0.1174784623        0.5799589184
 H          6.9137947359        1.8571552114        0.3176578718
 H          5.7198959691        0.8463225098       -0.4862934476
 H          4.8066348512        2.1153361610        1.4897724754
 H          6.7567349083        0.3954216061        3.0865794403
 H          5.5265602912        1.4607594281        3.7710147778
 H          6.8606074428        2.1339200386        2.8354153396
 H          5.6103946661       -1.4604069523        2.4738396124
 H          5.2945959215       -1.5221287651        0.7365402537
 H          3.3007958221       -2.2448121830        2.9249307481
 H          4.1716599506       -3.3850462374        1.8955732539
 H          1.9615747904       -4.2870765007        0.9990041429
 H          0.7909381241       -3.1691761403        0.2961890304
 H          1.0890035637       -3.1607733334        2.0410883673
 H          1.6083041376       -0.6472029907        1.8904180783
 H          1.3094405450       -0.7246894028        0.1489632944
 H          2.1616543553        1.4659430608       -1.2380351237
 H          2.1261496166        3.0611929627       -0.4197487652
 H          0.4131092505        3.1032660894        1.6467407641
 H         -2.2860082145        2.5465428560        1.4358170600
 H         -4.3858185590        1.7944238248       -2.0912583240
 H         -2.7169368589        2.1783160098       -2.5123895214
 H         -3.4959847413        3.0371723687       -1.1845173254
 H         -5.1804731239        2.2714828721        0.0670679384
 H         -6.6574414654        1.7446576237        1.9236234035
 H         -6.1829053223       -0.1843960226        3.3901243864
 H         -4.7993510107       -2.0677104504        3.9824331198
 H         -2.8250081892       -3.4927400576        3.5842759912
 H         -1.2983647070       -2.9752770971        1.7193893863
 H         -1.6958357707       -1.0741546043        0.2727452163
  70
       -106.38774426
 C          6.1934562862        1.4345503847       -0.3889297219
 C          5.3738575512        1.7262029514        0.8665985716
 C          6.3093649263        2.0713615094        2.0244979291
 C          4.4088968593        0.5870673783        1.2556558542
 H          4.0114192463        0.8307459227        2.2472632973
 C          5.0754460186       -0.7879090510        1.3210171369
 C          4.0927564198       -1.8543364521        1.7924436796
 C          2.8946732100       -1.9301441594        0.8487195872
 H          3.2574574603       -2.1848000256       -0.1539488687
 C          1.9054312573       -3.0027292991        1.2904862787
 C          2.2173267860       -0.5625636358        0.7809875127
 C          3.2010232383        0.5098521273        0.3092075717
 H          3.5451093053        0.2547522459       -0.7046928889
 O          2.6038821300        1.8071552609        0.2683275879
 C          1.7117256013        2.0510296922       -0.7640489398
 N          0.3292837895        1.8535722104       -0.3722615096
 C         -0.2422630335        2.6122053189        0.6134600248
 C         -1.5379830597        2.2394796928        0.6883681915
 N         -1.7215853066        1.2610659315       -0.2488102938
 C         -3.0302205612        0.6958852257       -0.5431328115
 H         -2.8596877803       -0.2764875815       -1.0262488001
 C         -3.7219773479        1.5989861297       -1.5651808164
 C         -3.8011072319        0.4780808097        0.7430291799
 C         -4.9454791461        1.1828713336        1.0183018078
 C         -5.6662956653        0.9802460611        2.2039220876
 C         -5.2380429936        0.0649789224        3.1195065537
 C         -4.0669783783       -0.6842169667        2.8843531853
 C         -3.6211826161       -1.6376268944        3.8233030439
 C         -2.4916542644       -2.3702126250        3.5970232578
 C         -1.7579417415       -2.1702231616        2.4198237124
 C         -2.1591902791       -1.2483480769        1.4933873513
 C         -3.3281920766       -0.4794236434        1.6863655090
 C         -0.5739375683        1.0022356038       -0.9123676916
 Ni        -0.2930443412       -0.4406141386       -2.4415937206
 C         -0.9921407342        0.3799513531       -3.8658196716
 O         -1.4078005751        0.9442776670       -4.7665838302
 C          1.4380335170       -0.8519273161       -2.6675616665
 O          2.4879855848       -1.2501358029       -2.8786938460
 C         -1.1025436639       -1.9620304317       -1.9559240306
 O         -1.5096634670       -3.0051241105       -1.7314079976
 H          6.9170497169        0.6436361983       -0.2076878019
 H          6.7396141460        2.3275172237       -0.6856665891
 H          5.5553844773        1.1412328642       -1.2184473305
 H          4.7475640597        2.6021156517        0.6693734629
 H          5.7423734991        2.3088282332        2.9216881811
 H          6.9188909626        2.9347913550        1.7675063010
 H          6.9775584226        1.2428586902        2.2473554135
 H          5.9269879440       -0.7497895048        2.0012867134
 H          5.4428090572       -1.0632725301        0.3312407110
 H          3.7441653470       -1.6157285501        2.8001445595
 H          4.5937637044       -2.8240273174        1.8325007434
 H          1.5369408779       -2.7853516183        2.2912971305
 H          2.3822663479       -3.9803035006        1.3050054722
 H          1.0603101625       -3.0434610406        0.6060935667
 H          1.8339304502       -0.2843273443        1.7659209344
 H          1.3685570265       -0.6131834108        0.0914271552
 H          1.9054834263        1.4248346493       -1.6469882230
 H          1.8285702545        3.1096504024       -1.0379152599
 H          0.3244197868        3.3306687296        1.1677796107
 H         -2.3303255318        2.5774896119        1.3236743586
 H         -4.6981889791        1.1998000222       -1.8251298331
 H         -3.1145571300        1.6349858282       -2.4671174695
 H         -3.8301580817        2.6134178838       -1.1873680429
 H         -5.3215002320        1.9131246623        0.3200475162
 H         -6.5625375602        1.5569021167        2.3784565523
 H         -5.7869862732       -0.1019780417        4.0349258761
 H         -4.1980275962       -1.7777481989        4.7264766106
 H         -2.1578880234       -3.1032538153        4.3165230242
 H         -0.8681835129       -2.7549937702        2.2445862982
 H         -1.5636835026       -1.1159660004        0.6032845583
  70
       -106.38774677
 C          6.2966960400        0.8822417755       -0.1562001936
 C          5.4428310370        1.5410987398        0.9254167626
 C          6.3449753684        2.1025052732        2.0236130842
 C          4.3646388885        0.6096854999        1.5173192938
 H          3.9398523538        1.1258393872        2.3856229913
 C          4.9059845801       -0.7459805413        1.9732514080
 C          3.8116068532       -1.5859256152        2.6230160179
 C          2.6670980141       -1.8174114018        1.6395266512
 H          3.0657299436       -2.3385306674        0.7615805701
 C          1.5662192468       -2.6769440155        2.2505309757
 C          2.1104992537       -0.4686468752        1.1873283915
 C          3.2030269299        0.3829473545        0.5374920038
 H          3.5708409646       -0.1372066236       -0.3605924770
 O          2.7189751745        1.6687441859        0.1464106127
 C          1.8827358176        1.7074088841       -0.9567128453
 N          0.4775591830        1.6434824491       -0.5981427184
 C         -0.0787102910        2.5345044650        0.2783213342
 C         -1.3973986488        2.2477149830        0.3369751738
 N         -1.6095597711        1.1880531916       -0.5011750569
 C         -2.9366723162        0.6701392011       -0.7997621129
 H         -2.8124661680       -0.3777546063       -1.1015058648
 C         -3.4866738629        1.4291992409       -2.0076494404
 C         -3.7997029027        0.7149630933        0.4425855298
 C         -4.8603098850        1.5783694556        0.5474602083
 C         -5.6606025183        1.6197399607        1.6981336399
 C         -5.3949420732        0.7910910899        2.7482939518
 C         -4.3153004123       -0.1140912206        2.6887335356
 C         -4.0389238620       -0.9790586578        3.7679882917
 C         -2.9994335191       -1.8620611368        3.7096407219
 C         -2.1896822458       -1.9095939759        2.5665539729
 C         -2.4246396163       -1.0784602573        1.5064666321
 C         -3.4969453327       -0.1584214693        1.5264831960
 C         -0.4578167753        0.7954972501       -1.0859898101
 Ni        -0.1351158530       -0.7297280017       -2.5102264912
 C         -1.5447534663       -1.8357802701       -2.6311687710
 O         -2.3328749200       -2.6430994521       -2.8074662760
 C          0.0979240442        0.2494560247       -3.9811373828
 O          0.2185538184        0.9447856416       -4.8782707930
 C          1.2775930284       -1.7136815537       -2.0148414842
 O          2.1407577040       -2.4209090739       -1.7709352478
 H          6.9328380258        1.6293121033       -0.6261486777
 H          5.6786230526        0.4344732634       -0.9300125677
 H          6.9385887002        0.1136631281        0.2672008834
 H          4.9054316259        2.3799960168        0.4717892413
 H          6.9282421420        1.3131381527        2.4918813374
 H          5.7560792516        2.5988513841        2.7915149428
 H          7.0378914178        2.8277631770        1.6030328138
 H          5.7201926268       -0.5943193427        2.6827222336
 H          5.3006503462       -1.2898235595        1.1136678716
 H          3.4294591799       -1.0748190133        3.5098969283
 H          4.2251591077       -2.5452267212        2.9416491358
 H          1.1239006456       -2.1747361073        3.1089179861
 H          1.9661371786       -3.6340025446        2.5782607576
 H          0.7862402715       -2.8644276667        1.5155685871
 H          1.7015497092        0.0728989972        2.0442295853
 H          1.2969056718       -0.6311902893        0.4749581725
 H          2.0854694481        0.8936953533       -1.6708096745
 H          2.0588386153        2.6747499452       -1.4490830148
 H          0.5129381902        3.2724850213        0.7782777191
 H         -2.1883764435        2.6979334548        0.9001163732
 H         -4.4815974723        1.0729760537       -2.2591573543
 H         -2.8290115568        1.2488660926       -2.8570531315
 H         -3.5181833901        2.5005452787       -1.8218573644
 H         -5.1032726465        2.2475334361       -0.2624299974
 H         -6.4866570860        2.3141130649        1.7391459494
 H         -6.0058160198        0.8128719737        3.6391286577
 H         -4.6727986537       -0.9295631342        4.6419370469
 H         -2.7951563161       -2.5267966961        4.5359478095
 H         -1.3738215329       -2.6148818871        2.5279917056
 H         -1.7752752453       -1.1382815015        0.6458878129
  70
       -106.38774626
 C          6.2348615181        1.2203916181       -0.3550792895
 C          5.4350709520        1.5872522738        0.8934709636
 C          6.3904875482        1.9476552727        2.0302912688
 C          4.4378709049        0.4955160314        1.3340641681
 H          4.0574419342        0.7902622291        2.3185547729
 C          5.0611434982       -0.8962497971        1.4493248883
 C          4.0485803214       -1.9122563109        1.9668071489
 C          2.8460671492       -1.9864037750        1.0291569177
 H          3.2000488615       -2.2848010381        0.0357141929
 C          1.8250768987       -3.0137264249        1.5047601251
 C          2.2080070251       -0.6029813719        0.9174976831
 C          3.2181678024        0.4243066910        0.4023568624
 H          3.5395849509        0.1294061743       -0.6086775425
 O          2.6594271120        1.7370892820        0.3320599872
 C          1.7427565083        1.9675506580       -0.6800081798
 N          0.3715097171        1.7549296329       -0.2537287004
 C         -0.1492006177        2.4040172280        0.8321462821
 C         -1.4485164768        2.0434120480        0.9121389026
 N         -1.6845388990        1.1818332795       -0.1234286715
 C         -3.0106891131        0.6730212071       -0.4412986261
 H         -2.8715138804       -0.2761514420       -0.9744456615
 C         -3.6774545029        1.6471526187       -1.4129994673
 C         -3.7786128024        0.4013716505        0.8341831175
 C         -4.8584324967        1.1654284271        1.1969580991
 C         -5.5705414711        0.9137214853        2.3783896040
 C         -5.1969569991       -0.1091741828        3.1994755981
 C         -4.0932955633       -0.9228626568        2.8702950499
 C         -3.7056341403       -1.9869960351        3.7109271418
 C         -2.6428183655       -2.7815366203        3.3903831542
 C         -1.9205197736       -2.5370446030        2.2143248319
 C         -2.2641139649       -1.5078027707        1.3822328679
 C         -3.3639318073       -0.6705778463        1.6757707000
 C         -0.5665657958        0.9860962842       -0.8545017890
 Ni        -0.2956583223       -0.1733115424       -2.5983888633
 C         -0.1961065632        1.1127490747       -3.8283668989
 O         -0.1595196996        1.9908339246       -4.5567861652
 C          1.1791516201       -1.1741249122       -2.4186857927
 O          2.0810078931       -1.8743382115       -2.3891503075
 C         -1.6755253921       -1.2884325802       -2.8772915005
 O         -2.4495039496       -2.0705884633       -3.1826567499
 H          5.5811623113        0.9155552505       -1.1681372401
 H          6.9345752678        0.4144788277       -0.1478378254
 H          6.8065230490        2.0831840155       -0.6904187190
 H          4.8352919270        2.4742848845        0.6659469197
 H          7.0343356206        1.1078088541        2.2808161485
 H          5.8387402346        2.2379115261        2.9214801343
 H          7.0244953571        2.7807014008        1.7350991470
 H          5.9178220715       -0.8581291683        2.1230788022
 H          5.4134073070       -1.2213289386        0.4692060753
 H          3.7119901410       -1.6244262257        2.9656532044
 H          4.5197353391       -2.8946501779        2.0424796765
 H          1.4263566021       -2.7315382008        2.4774253639
 H          2.2834418825       -3.9964675975        1.5909513620
 H          1.0023524580       -3.0796960968        0.7959257260
 H          1.8418298175       -0.2805253050        1.8956329356
 H          1.3518489895       -0.6508497817        0.2389102781
 H          1.9218253447        1.3373993297       -1.5654564654
 H          1.8459645835        3.0257589594       -0.9606777912
 H          0.4512906711        3.0452176216        1.4428046750
 H         -2.2107207836        2.3187946983        1.6112121824
 H         -4.6749083408        1.3029986729       -1.6711958038
 H         -3.0795584878        1.6906002212       -2.3224845335
 H         -3.7338075903        2.6492190121       -0.9934919709
 H         -5.1857307584        1.9815146630        0.5727738869
 H         -6.4155590658        1.5388598893        2.6260726677
 H         -5.7393060195       -0.3136781723        4.1112100486
 H         -4.2730663363       -2.1618507356        4.6139674416
 H         -2.3532592434       -3.5991400427        4.0338558845
 H         -1.0855196062       -3.1743289015        1.9670072461
 H         -1.6798025840       -1.3450720985        0.4889437727
  70
       -106.38767432
 C          3.2220643867        3.5880541757        1.0713279337
 C          3.4783284670        2.7995643100       -0.2121319832
 C          2.1765323560        2.6152881356       -0.9878451191
 C          4.2264316402        1.4770509022        0.0664757044
 H          4.9932141088        1.6951521536        0.8179787966
 C          4.9239521010        0.9854044833       -1.2091404802
 C          5.7851205319       -0.2477121648       -0.9610242232
 C          4.9438900300       -1.3839648210       -0.3859571701
 H          4.1647763794       -1.6477881831       -1.1114796649
 C          5.7907681333       -2.6219616936       -0.1093388533
 C          4.2679565426       -0.8896715383        0.8893113175
 C          3.3736570227        0.3245910450        0.6160426883
 H          2.6087511963        0.0492762120       -0.1242440821
 O          2.7234652721        0.7170623370        1.8325297830
 C          1.5736106488        0.0076711716        2.1484647584
 N          0.4021135237        0.5457457322        1.4842803009
 C         -0.1750721556        1.7223281326        1.8845270107
 C         -1.1796677298        1.9775633172        1.0194622499
 N         -1.1916767900        0.9518587042        0.1158870717
 C         -2.1168470893        0.9160845013       -1.0061308073
 H         -2.1327040270       -0.1193428487       -1.3747511298
 C         -1.5528731500        1.7929836383       -2.1241898946
 C         -3.5065862545        1.2901738932       -0.5303868622
 C         -4.1348520593        2.4232175490       -0.9810303108
 C         -5.4196312728        2.7749656469       -0.5427310220
 C         -6.0777607600        1.9882185682        0.3557519227
 C         -5.4746429319        0.8138375929        0.8511763405
 C         -6.1496609551       -0.0066554772        1.7789706389
 C         -5.5718474778       -1.1460288939        2.2609183154
 C         -4.2887537811       -1.5090321124        1.8298516690
 C         -3.6079747734       -0.7341952954        0.9323212356
 C         -4.1721971331        0.4507965439        0.4100050693
 C         -0.2180420714        0.0553365343        0.3829352425
 Ni         0.2236855540       -1.6790058350       -0.7604087923
 C          1.0725938159       -0.9723547715       -2.1584569400
 O          1.6622398422       -0.4804621207       -3.0049129418
 C          1.2454992570       -2.8439407227        0.1399670718
 O          1.8545906663       -3.7029376808        0.5828390895
 C         -1.2989273391       -2.5569029345       -1.1419261753
 O         -2.1685476563       -3.2450856801       -1.4109506808
 H          4.1610067890        3.8204770304        1.5686307710
 H          2.6082924051        3.0123723628        1.7556406904
 H          2.7146563229        4.5234734516        0.8427514405
 H          4.1497450357        3.4027578765       -0.8368523496
 H          2.3390491746        2.0486459141       -1.9010555634
 H          1.7701308609        3.5868861517       -1.2627360717
 H          1.4361617043        2.1008309012       -0.3844324065
 H          5.5473737954        1.7887758777       -1.6072557208
 H          4.1717845580        0.7443534012       -1.9628744426
 H          6.5847618996       -0.0018405101       -0.2581738656
 H          6.2487103056       -0.5641087106       -1.8977959797
 H          6.2690571576       -2.9680610597       -1.0227913656
 H          5.1735491910       -3.4279673560        0.2809055737
 H          6.5655964164       -2.3975880485        0.6209053039
 H          5.0241776130       -0.6048840780        1.6245372939
 H          3.6720601962       -1.6937222464        1.3259215445
 H          1.4300076177        0.1111676965        3.2303833012
 H          1.6454920849       -1.0560754024        1.8855644039
 H          0.1797976606        2.2663597735        2.7347928925
 H         -1.8828524492        2.7833009484        0.9784886151
 H         -0.5813758202        1.4022052381       -2.4193066823
 H         -1.4180365870        2.8201214486       -1.7925609653
 H         -2.2081037268        1.7717135135       -2.9902593595
 H         -3.6501513454        3.0731060908       -1.6917240014
 H         -5.8768830303        3.6751585229       -0.9259537271
 H         -7.0677692260        2.2493954291        0.7004805195
 H         -7.1389730953        0.2875561202        2.0996072461
 H         -6.0948707633       -1.7707592652        2.9697475883
 H         -3.8350487895       -2.4120831782        2.2109364767
 H         -2.6215400489       -1.0475555044        0.6273864005
  70
       -106.38764989
 C          6.2672043365        1.0108131004       -0.4898092427
 C          5.5297011249        1.4300837005        0.7803869107
 C          6.5404713429        1.7667476037        1.8758574094
 C          4.5043873398        0.3884436677        1.2746434620
 H          4.1720099067        0.7146723804        2.2665858867
 C          5.0731779890       -1.0261409614        1.3929088140
 C          4.0377686390       -1.9904762347        1.9615272888
 C          2.8026504214       -2.0294061256        1.0652145009
 H          3.1112652711       -2.3561282269        0.0654741322
 C          1.7563126829       -3.0067966816        1.5881369023
 C          2.2175294097       -0.6229512849        0.9523423195
 C          3.2499376915        0.3552112267        0.3880300112
 H          3.5212426085        0.0356895242       -0.6302787623
 O          2.7425023063        1.6888475359        0.3216520293
 C          1.7956408766        1.9422584795       -0.6554307882
 N          0.4355095671        1.7705506312       -0.1760761352
 C         -0.0029357924        2.3752706000        0.9699149581
 C         -1.3160955409        2.0800895472        1.0843637404
 N         -1.6427884659        1.3031706009        0.0070585861
 C         -3.0109714566        0.9028715839       -0.2830614973
 H         -2.9565720591        0.0456604557       -0.9650240354
 C         -3.6944135665        2.0416662404       -1.0408445269
 C         -3.7003425582        0.4654024115        0.9912817797
 C         -4.6689509243        1.2370503651        1.5811919516
 C         -5.3112454741        0.8326156466        2.7600419820
 C         -4.9824338261       -0.3538267193        3.3469492299
 C         -3.9934415997       -1.1826793336        2.7783733135
 C         -3.6580098875       -2.4168414170        3.3733071739
 C         -2.7109707768       -3.2280298587        2.8177915181
 C         -2.0518613815       -2.8272787383        1.6476260496
 C         -2.3416396013       -1.6302193942        1.0539498628
 C         -3.3297385634       -0.7731797220        1.5889219767
 C         -0.5683895729        1.0949266856       -0.7827031390
 Ni        -0.4050973334       -0.0034273149       -2.5769963585
 C         -0.0825069751        1.2972111261       -3.7548681352
 O          0.0877460708        2.1793391419       -4.4587378129
 C          0.9028688399       -1.2041986214       -2.3572337038
 O          1.6978161006       -2.0208834674       -2.2819129436
 C         -1.9191959364       -0.8817743476       -2.9836778262
 O         -2.7872096421       -1.5049714391       -3.3864635958
 H          6.8621890502        1.8433017055       -0.8593333144
 H          5.5721152559        0.7223127631       -1.2739677218
 H          6.9393554048        0.1788738903       -0.2946219808
 H          4.9597633906        2.3382722339        0.5597687624
 H          7.1968631573        2.5681999543        1.5444773235
 H          7.1580550945        0.9045480182        2.1161992415
 H          6.0346223638        2.0926942062        2.7817783920
 H          5.9532842890       -1.0130306032        2.0367338613
 H          5.3779664283       -1.3812730589        0.4073159028
 H          3.7469926621       -1.6730663996        2.9657234497
 H          4.4704025515       -2.9902868864        2.0387122014
 H          1.3852670240       -2.6903443413        2.5609816071
 H          2.1799842578       -4.0037068676        1.6867484564
 H          0.9164568347       -3.0556725496        0.8997571229
 H          1.8987756793       -0.2722165111        1.9373123225
 H          1.3370836248       -0.6452650736        0.3046753769
 H          1.9226340362        1.3036006573       -1.5440974222
 H          1.9198369281        2.9959340920       -0.9451326714
 H          0.6579913251        2.9420499046        1.5917051525
 H         -2.0323484016        2.3466373192        1.8336577345
 H         -3.6586437450        2.9720927151       -0.4785417962
 H         -4.7282893665        1.7862241725       -1.2553468670
 H         -3.1712097020        2.1934015806       -1.9836253072
 H         -4.9616495197        2.1775893090        1.1418857119
 H         -6.0686658781        1.4700395964        3.1916574052
 H         -5.4747404299       -0.6787982125        4.2521061324
 H         -4.1735509410       -2.7088494801        4.2772026892
 H         -2.4635057737       -4.1764426002        3.2711112553
 H         -1.3090433992       -3.4791413269        1.2134402032
 H         -1.8008586800       -1.3494423953        0.1617844793
  70
       -106.38754487
 C          3.2024545283        2.5940198196       -2.5316611360
 C          3.1460072311        2.1636842054       -1.0655599297
 C          3.5055854275        3.3695382248       -0.1958152712
 C          4.0623300934        0.9647662208       -0.7221340136
 H          5.0404504903        1.3534925904       -0.4215005769
 C          4.2613390433       -0.0053083833       -1.8928967230
 C          5.1695088855       -1.1736351067       -1.5200312665
 C          4.6012344501       -1.9618670239       -0.3433683998
 H          3.6207606578       -2.3610842233       -0.6299504970
 C          5.5091518388       -3.1255733545        0.0405442491
 C          4.4089604974       -1.0066120991        0.8302591090
 C          3.4853883446        0.1503879554        0.4475711836
 H          2.5168875474       -0.2590407968        0.1202833994
 O          3.2696769694        0.9738296779        1.6031413044
 C          2.0964951694        0.7203976831        2.2991046662
 N          0.9495309673        1.3253935784        1.6525728655
 C          0.6974729652        2.6688804437        1.7301613294
 C         -0.3446324941        2.9195576731        0.9081477603
 N         -0.6970929414        1.7259460651        0.3394968785
 C         -1.7800503489        1.5332042777       -0.6067675706
 H         -1.4415487669        0.7276132182       -1.2702813944
 C         -2.0359889516        2.7915073731       -1.4362236242
 C         -3.0533219719        1.0900246470        0.0897345726
 C         -3.3070068794        1.4928593034        1.3759734979
 C         -4.4727898958        1.1036479109        2.0483889061
 C         -5.3893969670        0.3104558510        1.4228397358
 C         -5.1780485323       -0.1190044729        0.0966868887
 C         -6.1212712981       -0.9417844205       -0.5536539423
 C         -5.9191975813       -1.3664003274       -1.8353140986
 C         -4.7589519628       -0.9804771894       -2.5203598600
 C         -3.8264575251       -0.1820440438       -1.9186279380
 C         -3.9980206963        0.2749162350       -0.5929480701
 C          0.0904488176        0.7258827139        0.7942892202
 Ni        -0.1379581233       -1.3130119217        0.2875915875
 C         -1.8287899161       -1.7014758657        0.7650128077
 O         -2.8396852240       -2.0550915764        1.1556409303
 C          0.2701842124       -1.3580581505       -1.4466398092
 O          0.6063372578       -1.3559346895       -2.5396108628
 C          0.9358272495       -2.4020309632        1.2275499076
 O          1.5492679491       -3.2184199488        1.7401959206
 H          4.2219071675        2.8332323200       -2.8255502246
 H          2.5958202858        3.4879838158       -2.6664338534
 H          2.8154256264        1.8241944021       -3.1929471219
 H          2.1124751360        1.8662764377       -0.8516585906
 H          4.4731263620        3.7664651108       -0.4971810181
 H          3.5630482810        3.0859495553        0.8496954385
 H          2.7627399416        4.1575398098       -0.3083289748
 H          4.7050055889        0.5218876686       -2.7368681119
 H          3.2893001480       -0.3930169044       -2.2061258262
 H          6.1592395535       -0.7951137030       -1.2531450684
 H          5.2853746487       -1.8306173051       -2.3847393564
 H          5.6364442316       -3.8031843114       -0.8006519247
 H          5.0823650013       -3.6846731729        0.8699721879
 H          6.4895975101       -2.7606520789        0.3397496129
 H          5.3723177072       -0.5985803072        1.1434048214
 H          3.9804216333       -1.5379704553        1.6834708228
 H          2.2170641427        1.1762187233        3.2881338469
 H          1.8958531955       -0.3551520520        2.4073575284
 H          1.2771660850        3.3211724284        2.3491502608
 H         -0.8435662369        3.8407950046        0.6942395428
 H         -2.5048711515        3.5678923624       -0.8357426872
 H         -2.7130072905        2.5501466163       -2.2513621966
 H         -1.1056986414        3.1698585749       -1.8556069495
 H         -2.5955498714        2.1141624738        1.9016158036
 H         -4.6302993334        1.4341776636        3.0644359891
 H         -6.2886169676       -0.0035435469        1.9327242072
 H         -7.0090797783       -1.2331282536       -0.0106123424
 H         -6.6430711035       -2.0002054852       -2.3258567445
 H         -4.6021095999       -1.3224257874       -3.5330371465
 H         -2.9448468481        0.0920673624       -2.4770845452
  70
       -106.38737562
 C          2.9561328100        3.0330127068       -1.8153220774
 C          2.7762402771        2.3228696815       -0.4735312710
 C          2.6982063025        3.3814505296        0.6276160374
 C          3.8840415299        1.2930373008       -0.1438335577
 H          4.6690937897        1.8007788993        0.4254400572
 C          4.5187989549        0.6571872778       -1.3862048479
 C          5.6008122150       -0.3549207050       -1.0210630616
 C          5.0366912577       -1.4763432911       -0.1532872572
 H          4.2492641624       -1.9923838059       -0.7159217192
 C          6.1137516337       -2.4895624672        0.2201459528
 C          4.4133740702       -0.8559474020        1.0930851005
 C          3.3247712159        0.1515893929        0.7212521708
 H          2.5480603866       -0.3607333877        0.1328840074
 O          2.7313772205        0.6550580629        1.9269280241
 C          1.5441877741        0.0449799662        2.3052404976
 N          0.4121017157        0.5731792998        1.5707550434
 C         -0.1163268483        1.8046439790        1.8547311614
 C         -1.0601019767        2.0490008858        0.9212063793
 N         -1.0855945923        0.9616247674        0.0935066611
 C         -1.9428035326        0.8971553086       -1.0799743978
 H         -2.0056597089       -0.1611773853       -1.3726527417
 C         -1.2516163511        1.6523463676       -2.2160997163
 C         -3.3309743834        1.3955029551       -0.7285078121
 C         -3.8597929519        2.5131845978       -1.3226674506
 C         -5.1426630822        2.9798627495       -1.0016750241
 C         -5.9002392853        2.3246011332       -0.0765333809
 C         -5.4025898045        1.1711281527        0.5638273298
 C         -6.1808436265        0.4851901445        1.5195792184
 C         -5.7061137143       -0.6340097775        2.1411496445
 C         -4.4263879173       -1.1113710582        1.8276836660
 C         -3.6471115402       -0.4676117541        0.9070588770
 C         -4.1027710958        0.6919704473        0.2418413991
 C         -0.1799005515        0.0362856376        0.4757838219
 Ni         0.1736465820       -1.8264349503       -0.4909994983
 C         -1.3904172343       -2.6968310395       -0.6797930080
 O         -2.2863584463       -3.3894594723       -0.8178470333
 C          0.9545538485       -1.3301184024       -2.0140091339
 O          1.5140941032       -0.9889209067       -2.9501287549
 C          1.2427912544       -2.8939336711        0.4770315050
 O          1.9040036312       -3.6799583682        0.9764275644
 H          3.9172753842        3.5399923086       -1.8598128030
 H          2.1751082700        3.7825253585       -1.9307941115
 H          2.8824342150        2.3424107655       -2.6504524351
 H          1.8216124146        1.7853126195       -0.5153777126
 H          3.5788978214        4.0198341159        0.5896386419
 H          2.6558163545        2.9145219525        1.6060588046
 H          1.8165325867        4.0064569493        0.4962064324
 H          4.9646242561        1.4325112039       -2.0085391302
 H          3.7440720901        0.1563654970       -1.9705802788
 H          6.4037195510        0.1492114061       -0.4777559388
 H          6.0274239032       -0.7727794197       -1.9354825332
 H          5.6930299798       -3.2880234799        0.8269712945
 H          6.9079852686       -2.0085345063        0.7873357466
 H          6.5484558956       -2.9306333281       -0.6739728281
 H          5.1791917981       -0.3430891003        1.6788208917
 H          3.9779535331       -1.6338981840        1.7251894480
 H          1.4019183297        0.2727143127        3.3677148146
 H          1.5664880733       -1.0441636276        2.1601680307
 H          0.2252132262        2.3903326377        2.6821290520
 H         -1.7148603904        2.8848181594        0.7859355730
 H         -0.2843364150        1.1923706249       -2.4068470593
 H         -1.0843796554        2.6946522598       -1.9530147623
 H         -1.8419986479        1.5956580089       -3.1260824939
 H         -3.2960417966        3.0617775508       -2.0598375576
 H         -5.5187256239        3.8630810245       -1.4964565780
 H         -6.8896803790        2.6752449684        0.1788323697
 H         -7.1661191741        0.8662312034        1.7479711910
 H         -6.3080922180       -1.1555917804        2.8704203161
 H         -4.0541854866       -1.9984660822        2.3187245088
 H         -2.6670649365       -0.8651382325        0.6947068478
  70
       -106.38736544
 C          4.9742591797       -1.9996060201       -1.5192605758
 C          4.3986561036       -0.7239549934       -0.9025002377
 C          5.4503145573        0.3802963522       -1.0270987045
 C          3.9520773347       -0.8857842929        0.5700349648
 H          4.8149452746       -0.6876238133        1.2143364535
 C          3.4157667194       -2.2866954859        0.8869661236
 C          3.0096911383       -2.4241433279        2.3508751465
 C          1.9257636903       -1.4161993497        2.7197989261
 H          1.0389271172       -1.6147067037        2.1069240143
 C          1.5451146184       -1.5301873391        4.1931661240
 C          2.4318142942       -0.0139725146        2.3986703478
 C          2.8418848057        0.1179947689        0.9300917546
 H          1.9706248494       -0.0956680011        0.2932543540
 O          3.2516030520        1.4771227403        0.7157608120
 C          2.4748933951        2.2058892914       -0.1728913750
 N          1.1234518476        2.3958585075        0.3088131544
 C          0.8443759819        3.1513708690        1.4155195171
 C         -0.4848451795        3.0439830849        1.6349173424
 N         -0.9841246361        2.2296937429        0.6556048151
 C         -2.3694075752        1.8121810779        0.5221198273
 H         -2.5966975060        1.8929301236       -0.5467058558
 C         -3.3263381508        2.7109282589        1.3021790171
 C         -2.5323270008        0.3673833013        0.9601008685
 C         -1.7964495764       -0.1018913124        2.0192294968
 C         -1.9039849220       -1.4287895872        2.4543840598
 C         -2.7466606936       -2.2899157579        1.8139943859
 C         -3.5397531596       -1.8478305330        0.7356965510
 C         -4.4210729732       -2.7313786302        0.0780455563
 C         -5.2069136120       -2.3032995991       -0.9529000684
 C         -5.1509340065       -0.9630363030       -1.3595832133
 C         -4.3036662976       -0.0831865006       -0.7458896458
 C         -3.4563141340       -0.4938152523        0.3072452593
 C          0.0009783239        1.8114846569       -0.1718293103
 Ni        -0.2132385296        0.4282664328       -1.7564228992
 C         -0.3762237996       -1.1096137497       -0.8698331285
 O         -0.4509431521       -2.0889049247       -0.2873184951
 C         -1.6643708251        0.8504298912       -2.7198484200
 O         -2.5316437193        1.0277799436       -3.4410199433
 C          1.1690604287        0.4777254841       -2.9036211388
 O          1.9263791609        0.4392071970       -3.7583610482
 H          4.2225427842       -2.7782635109       -1.6110661500
 H          5.8054393961       -2.3754195153       -0.9263426785
 H          5.3457768929       -1.7764967791       -2.5173921284
 H          3.5171385915       -0.4460021876       -1.4914929665
 H          5.6401874805        0.6054079050       -2.0746010503
 H          6.3843463013        0.0527300173       -0.5741015810
 H          5.1291368081        1.2884664600       -0.5280205452
 H          4.1804418892       -3.0316054309        0.6706867701
 H          2.5509280248       -2.4914266274        0.2511827720
 H          3.8833904388       -2.2611583581        2.9868504562
 H          2.6485468832       -3.4387052037        2.5327619662
 H          1.1632843443       -2.5249071896        4.4128963229
 H          0.7809678986       -0.8001154304        4.4524663874
 H          2.4135995110       -1.3513637421        4.8239238458
 H          3.2985326635        0.2221881382        3.0199650426
 H          1.6568064574        0.7251850587        2.6172396728
 H          2.4058072737        1.7272219679       -1.1610882741
 H          2.9627828605        3.1831951748       -0.2674574823
 H          1.6075305552        3.6837488448        1.9443170121
 H         -1.0893026842        3.4850087415        2.3986660616
 H         -3.1984894155        2.5809006231        2.3746617235
 H         -4.3479183326        2.4340363502        1.0541117701
 H         -3.1772574858        3.7568110669        1.0409596179
 H         -1.1027869661        0.5530442663        2.5286169940
 H         -1.3065320486       -1.7622242646        3.2891286469
 H         -2.8221300506       -3.3218894392        2.1246396195
 H         -4.4604976853       -3.7589789367        0.4106256074
 H         -5.8759676966       -2.9861429264       -1.4553500214
 H         -5.7848775302       -0.6262664213       -2.1667671507
 H         -4.2976464798        0.9438018889       -1.0773300097
  70
       -106.38734737
 C          2.1463755513        2.9921061522       -2.5079176094
 C          3.4756166598        2.3607188852       -2.0991329315
 C          4.5967967731        2.8960535340       -2.9887331358
 C          3.4548188309        0.8183699685       -2.0978381472
 H          4.4887930382        0.4908752036       -1.9421243989
 C          2.9417343892        0.2056206004       -3.4011513208
 C          3.0478939086       -1.3150713678       -3.3724702281
 C          2.2463890151       -1.8873166089       -2.2052587781
 H          1.1936923439       -1.6070497651       -2.3316426110
 C          2.3425709439       -3.4091366537       -2.1615204631
 C          2.7515748926       -1.2770583801       -0.8992112350
 C          2.6425656101        0.2491115625       -0.9239483338
 H          1.5827018746        0.5250483991       -1.0312859485
 O          3.1660691624        0.8352970728        0.2734246965
 C          2.3901539306        0.6938760257        1.4158737756
 N          1.1455550546        1.4305604150        1.3190081641
 C          1.1297215728        2.7582933190        0.9882185273
 C         -0.1675605910        3.1037983368        0.8562009235
 N         -0.9104049299        1.9786605198        1.1046798065
 C         -2.3661808266        2.0157907904        1.0208708210
 H         -2.6080752914        2.8568856732        0.3534313217
 C         -2.9148902730        2.3478366228        2.4087737570
 C         -2.9275899567        0.7574978969        0.3840420329
 C         -3.9425411479        0.0497400452        0.9779796730
 C         -4.4508247448       -1.1263736408        0.4082254396
 C         -3.9340192543       -1.6028463395       -0.7598414449
 C         -2.9274844203       -0.8846936921       -1.4368054285
 C         -2.4072718445       -1.3563938044       -2.6601707069
 C         -1.4674571844       -0.6437649355       -3.3475950901
 C         -1.0335122381        0.5902060522       -2.8455639725
 C         -1.4984625348        1.0607565562       -1.6491264418
 C         -2.4356859309        0.3305587732       -0.8844134578
 C         -0.1128231849        0.9314724846        1.4086071468
 Ni        -0.5514775273       -1.0246918879        2.0696152090
 C         -0.5700870237       -1.9784217162        0.5664160183
 O         -0.6052652601       -2.5837948534       -0.4010187946
 C          0.6659794467       -1.4622008109        3.3171976232
 O          1.3321702426       -1.7802827700        4.1893122342
 C         -2.1131540015       -1.1301157009        2.9452087160
 O         -3.0055413792       -1.4121878922        3.5997858002
 H          1.3237396322        2.5890357644       -1.9230338793
 H          1.9449698625        2.8220463969       -3.5628651378
 H          2.1820632286        4.0674531772       -2.3434738522
 H          3.6975013617        2.6606334011       -1.0701003271
 H          4.6586651956        3.9787009095       -2.9015618873
 H          4.4176668888        2.6531901738       -4.0334284973
 H          5.5555518461        2.4749783157       -2.6957817236
 H          3.5171703464        0.5958225119       -4.2416493210
 H          1.8959991921        0.4785538788       -3.5459938320
 H          4.0951098699       -1.6093152751       -3.2700849620
 H          2.6758278023       -1.7273016081       -4.3130279341
 H          1.9787528082       -3.8402346185       -3.0913835101
 H          1.7451631445       -3.8056760085       -1.3442800137
 H          3.3746664921       -3.7224221850       -2.0174108826
 H          3.7968505253       -1.5510000903       -0.7379277898
 H          2.1664125021       -1.6763606448       -0.0676169107
 H          2.9947915467        1.1029212240        2.2345082224
 H          2.1373787523       -0.3540658372        1.6330440786
 H          2.0312852185        3.3210847946        0.8658608153
 H         -0.6155607457        4.0437043179        0.6040081832
 H         -2.4405240419        3.2579633478        2.7726259649
 H         -2.6898791807        1.5443811205        3.1059148777
 H         -3.9875374585        2.5136733491        2.3720512984
 H         -4.3688297938        0.3798935647        1.9112533320
 H         -5.2394425150       -1.6579531204        0.9198841260
 H         -4.2922870861       -2.5269852624       -1.1898084375
 H         -2.7740223951       -2.2972953165       -3.0445996851
 H         -1.0693557412       -1.0115245899       -4.2819333233
 H         -0.3302477016        1.1789546128       -3.4168510076
 H         -1.1525312832        2.0239539521       -1.3070036314
  70
       -106.38732513
 C          4.9442992690       -0.0951081739        2.7383026863
 C          5.6071203736       -0.0277997502        1.3627981404
 C          6.4861052518        1.2184869474        1.2831441137
 C          4.5856965116       -0.1336433981        0.2068958600
 H          3.8296792642       -0.8696116707        0.5008854472
 C          5.2731489078       -0.6675006905       -1.0565208640
 C          4.2876361375       -0.8764447401       -2.2001464990
 C          3.5897781972        0.4339483714       -2.5529892803
 H          4.3459486917        1.1617289755       -2.8707170167
 C          2.5876250172        0.2395308990       -3.6865313116
 C          2.8871223752        0.9604515351       -1.3045668923
 C          3.8710489413        1.1805134482       -0.1532119334
 H          4.6206553576        1.9129696287       -0.4719065076
 O          3.2594773183        1.8372884953        0.9646837070
 C          2.1152298713        1.2716592283        1.5136891484
 N          0.9047015749        1.7095520326        0.8442749560
 C          0.6041539680        3.0355799477        0.6984153322
 C         -0.5581871967        3.0977621740        0.0113264130
 N         -0.9341343424        1.8083406775       -0.2482574139
 C         -2.1400700509        1.4011898286       -0.9471231371
 H         -1.8377224862        0.5598441480       -1.5810000742
 C         -2.6992012436        2.5141447195       -1.8315805295
 C         -3.1988427073        0.9290868623        0.0323285764
 C         -3.2947584647        1.5276879011        1.2633250142
 C         -4.2532162416        1.1230595806        2.2008300026
 C         -5.1208632728        0.1146708900        1.8974842021
 C         -5.0732631348       -0.5170780019        0.6380041796
 C         -5.9693384758       -1.5588517750        0.3193813888
 C         -5.9279555773       -2.1744914439       -0.8984280164
 C         -4.9869370847       -1.7646319777       -1.8529931352
 C         -4.1046750540       -0.7580524257       -1.5750781907
 C         -4.1079075380       -0.1050833767       -0.3223564687
 C         -0.0388354184        0.9339791242        0.2649472129
 Ni        -0.2224091581       -1.1713268094        0.2292508824
 C         -0.4380442609       -1.6291065973       -1.4809643883
 O         -0.5565780215       -1.9786416660       -2.5629440358
 C          1.1853715962       -2.0305665510        0.9352911841
 O          1.9800729187       -2.7370251075        1.3562789903
 C         -1.6499367657       -1.4652868609        1.2703782415
 O         -2.5024361853       -1.7012903731        1.9895936669
 H          4.2852802055       -0.9577192253        2.8123510366
 H          4.3696350758        0.8056178412        2.9310900466
 H          5.7050578389       -0.1840105657        3.5112102603
 H          6.2581875568       -0.9064581331        1.2737766772
 H          7.2647072653        1.1663021467        2.0412523064
 H          5.8944581661        2.1120132545        1.4639112187
 H          6.9670352387        1.3021248039        0.3116604718
 H          5.7609846310       -1.6157905402       -0.8215143209
 H          6.0468033901        0.0348802483       -1.3743820783
 H          3.5363022928       -1.6137234795       -1.9068599678
 H          4.8154272883       -1.2661694702       -3.0730601266
 H          2.1042847703        1.1812158916       -3.9382323049
 H          1.8196807207       -0.4725769544       -3.3925100008
 H          3.0850682476       -0.1403682015       -4.5758661387
 H          2.1248876543        0.2316828401       -1.0092817585
 H          2.3875453016        1.9070975075       -1.5280925060
 H          2.0716388867        1.6219009599        2.5540186579
 H          2.1220099150        0.1754592674        1.5024912812
 H          1.2446527559        3.8032650590        1.0798554460
 H         -1.1235872934        3.9495952362       -0.3015206832
 H         -1.9271445054        2.9122574986       -2.4870811157
 H         -3.1168681999        3.3188234470       -1.2304388406
 H         -3.4999539401        2.1083450506       -2.4445426732
 H         -2.6115234373        2.3205530666        1.5347186556
 H         -4.2888379763        1.6112053831        3.1635491035
 H         -5.8562337662       -0.2166029647        2.6162470778
 H         -6.6903485665       -1.8618056051        1.0652909197
 H         -6.6136433628       -2.9749091556       -1.1341113403
 H         -4.9606530522       -2.2531005823       -2.8161622570
 H         -3.3979271936       -0.4667348860       -2.3367020636
  70
       -106.38709838
 C          4.6775129990       -0.6038140718        2.7453934437
 C          5.4139094700        0.1225262634        1.6201155306
 C          5.9324320845        1.4629434691        2.1364185034
 C          4.5612742467        0.2475176936        0.3363067932
 H          4.0083334442       -0.6910299541        0.2160282256
 C          5.4724506823        0.4062990825       -0.8878853601
 C          4.6838436272        0.4391715146       -2.1917911021
 C          3.6754240486        1.5849501651       -2.1866280634
 H          4.2199796820        2.5328462159       -2.1031144677
 C          2.8526377227        1.6015707371       -3.4716415509
 C          2.7603347975        1.4346389981       -0.9734918353
 C          3.5547735824        1.4110547641        0.3350352837
 H          4.1072231349        2.3529501279        0.4213781622
 O          2.7041350700        1.4492611618        1.4873100453
 C          1.7073467149        0.4895084351        1.5999549086
 N          0.4979512876        0.8674429730        0.8894797759
 C         -0.0374133446        2.1223048726        0.9819421998
 C         -1.1259796734        2.1369897780        0.1818934457
 N         -1.2299877074        0.8890231421       -0.3674629271
 C         -2.2620327707        0.5462191261       -1.3326407869
 H         -2.3051105525       -0.5493865145       -1.3779739291
 C         -1.8226488770        1.0457481936       -2.7085397050
 C         -3.5980035346        1.0632847873       -0.8411726618
 C         -4.2636460585        2.0685681529       -1.4943957663
 C         -5.4908490025        2.5596305321       -1.0258505074
 C         -6.0478757060        2.0455058771        0.1078821255
 C         -5.4021858062        1.0103949492        0.8153012614
 C         -5.9721270888        0.4721490402        1.9879856975
 C         -5.3516524416       -0.5325467071        2.6736318551
 C         -4.1335615460       -1.0440560748        2.2055590390
 C         -3.5548254383       -0.5437125216        1.0723774086
 C         -4.1620494024        0.5013816220        0.3407828732
 C         -0.2291444092        0.0893640827        0.0551609953
 Ni         0.0958222588       -1.9699912916       -0.2957156037
 C         -1.0933046158       -2.6666461429       -1.4489661431
 O         -1.7372276788       -3.2588343698       -2.1827103276
 C          1.7005236517       -2.2098208005       -1.0476672654
 O          2.6637912769       -2.4741216119       -1.6026287947
 C         -0.1152399690       -2.5864694010        1.3660904097
 O         -0.2980254602       -2.8885904153        2.4514265935
 H          5.3666763014       -0.8179552000        3.5597140686
 H          4.2633992180       -1.5478359549        2.3967052046
 H          3.8727391388        0.0110352875        3.1364500525
 H          6.2806806857       -0.4935031835        1.3495436164
 H          6.4574150186        2.0111227073        1.3580050856
 H          6.6268721240        1.2947667072        2.9567774881
 H          5.1105865518        2.0706981942        2.5055854803
 H          6.1796994705       -0.4251720714       -0.9152552657
 H          6.0479790564        1.3298019342       -0.7938173750
 H          4.1542308578       -0.5063694784       -2.3228153441
 H          5.3713875679        0.5534884043       -3.0324499559
 H          3.4999007551        1.7101731236       -4.3386732676
 H          2.1447024908        2.4277068137       -3.4648187355
 H          2.2950657301        0.6727407555       -3.5749001620
 H          2.1928067299        0.5064375911       -1.0804287878
 H          2.0499266510        2.2652162933       -0.9411795719
 H          1.4700125614        0.4234273024        2.6708898821
 H          2.0102593461       -0.5023556512        1.2368536060
 H          0.4095157901        2.8793041255        1.5919671300
 H         -1.8312388804        2.9140381213       -0.0287289230
 H         -2.5671855745        0.7954227361       -3.4588714723
 H         -0.8869001306        0.5564326203       -2.9728757893
 H         -1.6560050492        2.1206545697       -2.7063471855
 H         -3.8532106807        2.5044335680       -2.3914418663
 H         -5.9834711178        3.3503436758       -1.5721617565
 H         -6.9901336077        2.4202039642        0.4807368947
 H         -6.9150216189        0.8733839928        2.3316806644
 H         -5.7932908035       -0.9401755192        3.5709233205
 H         -3.6497720021       -1.8439532857        2.7465588690
 H         -2.6184584719       -0.9695154977        0.7426486498
  70
       -106.38695686
 C          4.4505689744       -0.1356482473        3.1784738716
 C          5.2512501650        0.3312439613        1.9632032374
 C          5.8121438376        1.7262324787        2.2310878219
 C          4.4459496662        0.2375925657        0.6464640222
 H          3.8485291756       -0.6804656814        0.6855416320
 C          5.4040345032        0.1063872398       -0.5452784035
 C          4.6626528235       -0.0740867347       -1.8648046623
 C          3.7287455861        1.1052995556       -2.1212862531
 H          4.3261485867        2.0232754757       -2.1732183274
 C          2.9722163311        0.9398008961       -3.4357406033
 C          2.7576281123        1.2147347232       -0.9486897705
 C          3.5015768632        1.4214530094        0.3731218029
 H          4.0980659626        2.3368823447        0.2954932481
 O          2.6132611793        1.7304639115        1.4543381987
 C          1.5841445021        0.8409245508        1.7350930876
 N          0.4135738868        1.0608083490        0.9068885803
 C         -0.1668935298        2.2946950816        0.7950102729
 C         -1.1976094779        2.1612012270       -0.0679209329
 N         -1.2224028286        0.8494046543       -0.4508687279
 C         -2.1664481514        0.3372845499       -1.4317337879
 H         -2.1833374415       -0.7566037080       -1.3162713346
 C         -1.6200075142        0.6488339427       -2.8256569902
 C         -3.5511653438        0.8856399705       -1.1474579243
 C         -4.2015571858        1.6866794332       -2.0514073917
 C         -5.4811511714        2.1991541855       -1.7931661993
 C         -6.1126016091        1.9108568832       -0.6195624722
 C         -5.4874544155        1.0917596248        0.3429701075
 C         -6.1347363123        0.7848571383        1.5580981840
 C         -5.5365138554       -0.0111358718        2.4923780341
 C         -4.2601750751       -0.5336180829        2.2436821708
 C         -3.6061387206       -0.2526218463        1.0764371410
 C         -4.1910261129        0.5666200513        0.0858101895
 C         -0.2291940239        0.1507719982        0.1392309977
 Ni         0.1844625501       -1.9191165689       -0.1316355601
 C         -1.2872011621       -2.8468050996        0.3057151370
 O         -2.1338492052       -3.5512748027        0.6026071782
 C          0.6612795412       -2.0640064195       -1.8435463825
 O          1.0238627368       -2.1920602453       -2.9194011365
 C          1.4948352130       -2.4935787795        0.9485423425
 O          2.2864221418       -3.0224241889        1.5808414695
 H          4.0115153470       -1.1158538732        3.0047029498
 H          3.6593468690        0.5704078751        3.4116133265
 H          5.1047540926       -0.2089588541        4.0448937352
 H          6.0981029413       -0.3572605245        1.8504255499
 H          6.3852351014        2.0922858546        1.3827625414
 H          6.4721745470        1.6953133436        3.0953721793
 H          5.0067159683        2.4245897912        2.4425649768
 H          6.0606757520       -0.7503632978       -0.3799037850
 H          6.0309192868        0.9986168414       -0.6066956789
 H          4.0756696741       -0.9952758215       -1.8323165363
 H          5.3827230084       -0.1660406026       -2.6804863113
 H          2.3813069165        0.0271129743       -3.4215694842
 H          3.6667333552        0.8822939506       -4.2705850287
 H          2.3024862864        1.7809383969       -3.6026302013
 H          2.1691722367        0.2931304947       -0.9009208177
 H          2.0732632139        2.0527622328       -1.1058846423
 H          1.3020923131        1.0258711324        2.7806194356
 H          1.8768614888       -0.2089421708        1.6197368047
 H          0.2130892812        3.1430292597        1.3249249709
 H         -1.9109785605        2.8745888033       -0.4255551155
 H         -2.2703903012        0.2363444981       -3.5915660196
 H         -0.6376536774        0.1924357272       -2.9269927175
 H         -1.5120870326        1.7207665999       -2.9765645337
 H         -3.7400246667        1.9400631265       -2.9921120699
 H         -5.9556344689        2.8240092705       -2.5352818773
 H         -7.0977345668        2.3013673299       -0.4093908345
 H         -7.1197773817        1.1940717073        1.7323389021
 H         -6.0385335599       -0.2435927445        3.4198488070
 H         -3.7906788320       -1.1661259872        2.9826756722
 H         -2.6247302777       -0.6724359776        0.9219537247
  70
       -106.38688309
 C          5.6396690837        0.9029328319       -1.4734388146
 C          4.9164705245       -0.4230569368       -1.2412426997
 C          3.8611721433       -0.6450533714       -2.3220826108
 C          4.3725913956       -0.5435576455        0.1998307310
 H          5.1434720385       -0.1427000931        0.8675251275
 C          4.1445339100       -2.0180586360        0.5551463106
 C          3.7628212051       -2.2004792784        2.0184029602
 C          2.4844675772       -1.4309291805        2.3366129640
 H          1.6686342109       -1.8366057198        1.7277236279
 C          2.1175971961       -1.5668081356        3.8120522725
 C          2.6808436871        0.0360945986        1.9664082665
 C          3.0782364481        0.2307862563        0.4973136953
 H          2.2710074002       -0.1342153848       -0.1508661843
 O          3.2657095491        1.6357488877        0.2715310745
 C          2.2623069353        2.2827752429       -0.4295713352
 N          1.0062822511        2.3376717030        0.2901662958
 C          0.8740356485        3.0009745364        1.4800297116
 C         -0.3948762078        2.7980103367        1.8989896123
 N         -1.0072315004        2.0231565860        0.9519920241
 C         -2.3773424975        1.5399378532        1.0043887083
 H         -2.8002407872        1.7458579204        0.0140892811
 C         -3.2090060822        2.2640191079        2.0609567006
 C         -2.4044719972        0.0422183107        1.2556418357
 C         -1.4495644636       -0.5261376385        2.0603268383
 C         -1.4247095537       -1.9049325875        2.3061544138
 C         -2.3602000563       -2.7161968089        1.7337087180
 C         -3.3799229682       -2.1743466891        0.9250994236
 C         -4.3630304010       -3.0056604319        0.3486527623
 C         -5.3706003110       -2.4824204229       -0.4095240010
 C         -5.4412367777       -1.0972011142       -0.6115025851
 C         -4.4989543311       -0.2657210201       -0.0734678633
 C         -3.4269920982       -0.7713776439        0.6951577411
 C         -0.1509285459        1.7245586752       -0.0522313106
 Ni        -0.5268365183        0.4673332072       -1.7058036971
 C         -2.2207637812        0.6192951397       -2.2759246024
 O         -3.2258984602        0.6265871406       -2.8170903813
 C          0.4643865470        0.9449574230       -3.1254475951
 O          0.9636202637        1.2022184163       -4.1203737011
 C         -0.1914385268       -1.1226738955       -0.9813975261
 O          0.0164765773       -2.1157843475       -0.4566978900
 H          6.0537266093        0.9302822096       -2.4793824949
 H          6.4557637127        1.0212148555       -0.7640346284
 H          4.9607840084        1.7410574569       -1.3536479296
 H          5.6632409848       -1.2207479434       -1.3466192070
 H          3.1675004969        0.1895380374       -2.3709789663
 H          3.2940457058       -1.5554016004       -2.1444237520
 H          4.3427367750       -0.7330035386       -3.2937873064
 H          5.0554241192       -2.5821459372        0.3442572898
 H          3.3484507855       -2.4242671134       -0.0720838322
 H          4.5719605221       -1.8359533020        2.6560297308
 H          3.6205910467       -3.2620230976        2.2319400628
 H          2.9211361882       -1.1844440848        4.4385382662
 H          1.9526529324       -2.6108368147        4.0696789071
 H          1.2131009441       -1.0071899845        4.0411684271
 H          3.4673298697        0.4713863360        2.5879185099
 H          1.7604226202        0.5895179002        2.1635756596
 H          2.0498647530        1.8036434268       -1.3981086640
 H          2.6240870207        3.3054676050       -0.5935184217
 H          1.6870361327        3.5401105385        1.9201326102
 H         -0.8851761988        3.1474393915        2.7823247816
 H         -4.2431340835        1.9399776673        1.9758452569
 H         -3.1711225590        3.3419789055        1.9163917573
 H         -2.8656786933        2.0171400582        3.0633564644
 H         -0.6835742299        0.0914595292        2.5089241801
 H         -0.6526602746       -2.3161067371        2.9384088484
 H         -2.3384556486       -3.7841909147        1.8954521552
 H         -4.3021080274       -4.0703993717        0.5242031332
 H         -6.1183502945       -3.1249767776       -0.8503673215
 H         -6.2489805140       -0.6868945761       -1.1996775846
 H         -4.5907798746        0.7965409990       -0.2415717373
  70
       -106.38676638
 C          4.8196140200        0.1143459202        2.8520884340
 C          5.4717606926        0.6389635097        1.5732226757
 C          5.9096389053        2.0867267865        1.7831134762
 C          4.5736964225        0.4416227393        0.3301923502
 H          4.0858411946       -0.5331380546        0.4322396934
 C          5.4309119339        0.3951262299       -0.9409219702
 C          4.5961505374        0.1068641067       -2.1830829542
 C          3.5243200565        1.1766798091       -2.3720898746
 H          4.0157154686        2.1467910737       -2.5112663097
 C          2.6590439731        0.8813834453       -3.5937601438
 C          2.6582783076        1.2332087602       -1.1164193320
 C          3.4866980227        1.5134930234        0.1398019779
 H          3.9722049792        2.4885981639        0.0240522142
 O          2.6668461418        1.7136832442        1.2988063892
 C          1.7123015883        0.7519023351        1.6065265812
 N          0.4646439485        0.9834742300        0.9018176255
 C         -0.1440113076        2.2086791379        0.9168808615
 C         -1.2383827704        2.1067734685        0.1320979165
 N         -1.2722875654        0.8212262139       -0.3321292783
 C         -2.2804128491        0.3617591080       -1.2757782025
 H         -2.2903179884       -0.7360096452       -1.2255848265
 C         -1.8340531884        0.7638460711       -2.6818713182
 C         -3.6416785968        0.8807061632       -0.8578469580
 C         -4.3357120481        1.7802910321       -1.6260892549
 C         -5.5879151219        2.2716855274       -1.2290320162
 C         -6.1448500370        1.8648472278       -0.0524935501
 C         -5.4725819678        0.9392601953        0.7719642310
 C         -6.0403877473        0.5071151152        1.9887871760
 C         -5.3940116403       -0.3940018264        2.7856514370
 C         -4.1493679177       -0.9036604555        2.3910341454
 C         -3.5722812241       -0.5022911708        1.2186527451
 C         -4.2064012015        0.4319812421        0.3709543520
 C         -0.2205421732        0.1103977932        0.1280910178
 Ni         0.1814537638       -1.9509462719       -0.1885696321
 C         -0.3197670889       -2.3395548433       -1.8624521033
 O         -0.5416653562       -2.6458608824       -2.9398780292
 C          1.9160662574       -2.3827260305       -0.0553977170
 O          2.9591494013       -2.8495538668       -0.0325797013
 C         -0.7238046810       -2.7398263766        1.1336472256
 O         -1.2429546206       -3.2423476796        2.0167870547
 H          5.5399642557        0.1280850038        3.6674689394
 H          4.4751531216       -0.9097316578        2.7225818706
 H          3.9758656017        0.7366015738        3.1342143448
 H          6.3715070569        0.0362883315        1.3966541154
 H          5.0594545627        2.7035190438        2.0621026454
 H          6.3659773305        2.4963278002        0.8852880277
 H          6.6427505574        2.1344310029        2.5855098527
 H          6.1916796703       -0.3800531561       -0.8286320097
 H          5.9449227679        1.3503255568       -1.0684150628
 H          4.1155095238       -0.8691303484       -2.0833762318
 H          5.2446194881        0.0700571686       -3.0609039274
 H          1.9092590788        1.6577690455       -3.7310262657
 H          2.1479325315       -0.0717232866       -3.4707593527
 H          3.2692143790        0.8293971047       -4.4923613042
 H          2.1423382371        0.2733961532       -1.0177566654
 H          1.9026778336        2.0165258053       -1.2225477161
 H          1.5195691782        0.8488681980        2.6837236005
 H          2.0350475564       -0.2746509973        1.3912398322
 H          0.2632609319        3.0301253866        1.4683384785
 H         -1.9904758011        2.8253440175       -0.1201468090
 H         -2.5422735514        0.4055930881       -3.4235652931
 H         -0.8636874431        0.3146319501       -2.8846886473
 H         -1.7306156834        1.8433035983       -2.7687300518
 H         -3.9303645353        2.1313042665       -2.5615479366
 H         -6.1003815943        2.9775398735       -1.8658363529
 H         -7.1066350874        2.2411957240        0.2645921372
 H         -7.0031964732        0.9053495090        2.2761541461
 H         -5.8351661291       -0.7209943420        3.7155855318
 H         -3.6449589498       -1.6227062267        3.0196011889
 H         -2.6157147070       -0.9179316667        0.9425327240
  70
       -106.38671177
 C          5.6742770879       -0.3898545650       -0.6563179952
 C          5.3641665931        0.4287029874        0.5956417425
 C          6.6105583219        0.5168807769        1.4753180168
 C          4.1562670196       -0.0981804565        1.3981755284
 H          4.1398401001        0.4491653710        2.3473012519
 C          4.2248358764       -1.5952990685        1.6989959059
 C          3.0481201608       -2.0337718080        2.5630930694
 C          1.7282711923       -1.7427213935        1.8527717528
 H          1.7142742640       -2.2933816418        0.9048691627
 C          0.5362768099       -2.1926839152        2.6901526062
 C          1.6372580593       -0.2505915430        1.5386578020
 C          2.8262596981        0.2141854373        0.6938912173
 H          2.7912797062       -0.3021952567       -0.2757973883
 O          2.7814465636        1.6258477794        0.4661536525
 C          2.0836004723        2.0616391223       -0.6460278715
 N          0.6691229177        2.2567351090       -0.3945181085
 C          0.2257472030        3.2679374831        0.4122777030
 C         -1.1218871210        3.1880593496        0.4325451635
 N         -1.4699165440        2.1227047259       -0.3564159580
 C         -2.8348554195        1.7090324066       -0.6522558163
 H         -2.9124603471        1.7038841829       -1.7485124114
 C         -3.8767457488        2.6930474345       -0.1191041532
 C         -3.1761711306        0.3052798996       -0.1800967928
 C         -3.8121103543       -0.5151367156       -1.0822359378
 C         -4.2460670734       -1.8004504050       -0.7379839547
 C         -4.0477356724       -2.2669199350        0.5286987621
 C         -3.4197458241       -1.4583160859        1.4972760206
 C         -3.2417421425       -1.9312234387        2.8146143929
 C         -2.6515794430       -1.1550563008        3.7699515064
 C         -2.2043706216        0.1300958697        3.4361467689
 C         -2.3571136433        0.6153675002        2.1672038789
 C         -2.9721181004       -0.1507217983        1.1518376169
 C         -0.3684305703        1.5363247994       -0.8810792733
 Ni        -0.3121535832       -0.1506253886       -2.1422554564
 C         -0.8328267448       -1.4829706982       -1.0733818752
 O         -1.1003933809       -2.3544636221       -0.3870850976
 C         -1.3987886143        0.2430158174       -3.5042965390
 O         -2.0516760618        0.4822702619       -4.4109394714
 C          1.3320943634       -0.5268126095       -2.7660217992
 O          2.2943505656       -0.9355819181       -3.2298672292
 H          6.4324428135        0.1186216161       -1.2483414053
 H          4.7921459159       -0.5148751546       -1.2788997830
 H          6.0570944854       -1.3730565756       -0.3941450179
 H          5.1042476242        1.4457889109        0.2833363392
 H          6.9321826700       -0.4709359325        1.7967365613
 H          6.4178029725        1.1218250047        2.3583522770
 H          7.4278656310        0.9726952003        0.9208621552
 H          5.1606214483       -1.8237060234        2.2106796796
 H          4.2015954299       -2.1578393731        0.7643965430
 H          3.0708159248       -1.5010951496        3.5167848307
 H          3.1249891125       -3.1024983720        2.7747506493
 H          0.4999667257       -1.6440740377        3.6291379848
 H          0.6082711766       -3.2545235284        2.9143993293
 H         -0.3942349917       -2.0178772079        2.1564966868
 H          1.6192256543        0.3257550087        2.4667346172
 H          0.7079730287       -0.0524825997        0.9979206115
 H          2.1772551111        1.3689833981       -1.4952042861
 H          2.5114580611        3.0361820770       -0.9167043213
 H          0.9007057587        3.9422004685        0.8967146109
 H         -1.8311554889        3.8098257622        0.9364944592
 H         -4.8565679918        2.3735420586       -0.4658976774
 H         -3.6934122631        3.6975832348       -0.4949887716
 H         -3.8966229607        2.7044893698        0.9678544188
 H         -3.9905876744       -0.1642089535       -2.0890607750
 H         -4.7301260524       -2.4126969600       -1.4840339621
 H         -4.3713583508       -3.2580560675        0.8114554492
 H         -3.5863127689       -2.9276323508        3.0514521658
 H         -2.5216395502       -1.5236823965        4.7765163700
 H         -1.7317868950        0.7416611571        4.1912032107
 H         -1.9933011355        1.6053686977        1.9518323730
  70
       -106.38669508
 C          5.1403246474        2.8244930300        1.7908912017
 C          5.5199478397        1.4712872175        1.1912718189
 C          5.8514038275        1.6310370264       -0.2907580755
 C          4.4371229525        0.4038566832        1.4686865782
 H          4.0103815631        0.6194284508        2.4540192070
 C          5.0581081331       -0.9968872188        1.5090415967
 C          4.0332255060       -2.0626318167        1.8804641503
 C          2.8691988259       -2.0557797085        0.8933988911
 H          3.2604839434       -2.2740849519       -0.1069851595
 C          1.8303412924       -3.1140566607        1.2464262647
 C          2.2397850796       -0.6644503834        0.8709676102
 C          3.2727967073        0.3905686028        0.4674596955
 H          3.6547192370        0.1375351882       -0.5329344212
 O          2.7087169100        1.7016284211        0.4152310442
 C          1.8370927948        1.9635085568       -0.6293230505
 N          0.4460772939        1.7865222485       -0.2567952507
 C         -0.1095718068        2.5002272979        0.7703329789
 C         -1.4178545419        2.1677368496        0.8101001855
 N         -1.6247478392        1.2581855305       -0.1897318716
 C         -2.9494433274        0.7647336704       -0.5356177879
 H         -2.8101075791       -0.1781780660       -1.0812025129
 C         -3.5931371760        1.7580385766       -1.5037955999
 C         -3.7423745612        0.4882257293        0.7247664975
 C         -4.8413058243        1.2389130938        1.0573738300
 C         -5.5819100435        0.9812606902        2.2198524931
 C         -5.2195566788       -0.0360845891        3.0525686216
 C         -4.0966880896       -0.8356180499        2.7556902370
 C         -3.7202629330       -1.8943548858        3.6082158302
 C         -2.6380269944       -2.6752830932        3.3207121103
 C         -1.8826801236       -2.4197447859        2.1681211100
 C         -2.2157975904       -1.3956288000        1.3257357638
 C         -3.3364693254       -0.5746471517        1.5823098100
 C         -0.4792465936        1.0024352779       -0.8575823738
 Ni        -0.2102949078       -0.3179466030       -2.4911286745
 C         -0.6404187490        0.7502829322       -3.8535800661
 O         -0.9140153598        1.4919396153       -4.6769271914
 C          1.4695657431       -0.9432676273       -2.5541468385
 O          2.4847951678       -1.4541908587       -2.6701409680
 C         -1.2641707165       -1.7542817401       -2.2947623226
 O         -1.8252908973       -2.7482543542       -2.2591416277
 H          4.2148050038        3.1834371069        1.3525824693
 H          5.9261712513        3.5527604726        1.6012358605
 H          5.0044223379        2.7411798442        2.8670535451
 H          6.4302865181        1.1300079169        1.6999511607
 H          6.0812660036        0.6720168780       -0.7489449104
 H          6.7202021327        2.2757831185       -0.4058424924
 H          5.0204598286        2.0873908874       -0.8223147450
 H          5.8722279953       -1.0067290138        2.2367104643
 H          5.4835160348       -1.2325962338        0.5311168188
 H          3.6531971980       -1.8699735587        2.8866755380
 H          4.5104586662       -3.0449011717        1.8856065273
 H          1.4180328996       -2.9228970167        2.2354091276
 H          2.2781864503       -4.1053706804        1.2454418195
 H          1.0197124146       -3.1026498374        0.5204350173
 H          1.8390007640       -0.4171194314        1.8572063087
 H          1.4087083027       -0.6569426912        0.1594562884
 H          2.0326651316        1.3387114503       -1.5135482430
 H          1.9743696105        3.0217330026       -0.8971974466
 H          0.4754767751        3.1617018506        1.3743386144
 H         -2.2049181642        2.4913463960        1.4592561076
 H         -2.9809217130        1.8150612591       -2.4018597850
 H         -3.6537041406        2.7533388345       -1.0688705962
 H         -4.5867685140        1.4221590139       -1.7863623046
 H         -5.1640510450        2.0489720493        0.4231716640
 H         -6.4406862553        1.5969160850        2.4428265734
 H         -5.7850772849       -0.2466317080        3.9487094493
 H         -4.3122888903       -2.0761789593        4.4939440963
 H         -2.3578454000       -3.4891012408        3.9731125510
 H         -1.0302650126       -3.0429640970        1.9456963767
 H         -1.6034957420       -1.2226769860        0.4536987584
  70
       -106.38668529
 C          5.0899623454        2.8454859374        1.8203245667
 C          5.4861705042        1.5079730422        1.1966932276
 C          5.8141631742        1.6976164367       -0.2826079507
 C          4.4171608324        0.4223965537        1.4564155883
 H          3.9895930767        0.6147127326        2.4461512035
 C          5.0553036469       -0.9711726094        1.4696916193
 C          4.0444555653       -2.0555260847        1.8251027136
 C          2.8757429059       -2.0457616656        0.8433748389
 H          3.2637913021       -2.2444642420       -0.1624149728
 C          1.8520998955       -3.1219732879        1.1867928438
 C          2.2311435983       -0.6611140351        0.8447022260
 C          3.2518927157        0.4113802783        0.4562799954
 H          3.6370127621        0.1768047936       -0.5472467318
 O          2.6723165711        1.7163160590        0.4218299757
 C          1.8183912050        1.9920506853       -0.6343459539
 N          0.4209301625        1.8143276309       -0.2889873841
 C         -0.1630647958        2.5553708944        0.7027782735
 C         -1.4680085669        2.2090446984        0.7288538561
 N         -1.6446447151        1.2638054835       -0.2430059151
 C         -2.9552010725        0.7340400965       -0.5897469912
 H         -2.7899146230       -0.2257018680       -1.0991307351
 C         -3.6023875779        1.6819548136       -1.6002401087
 C         -3.7634718969        0.4906071826        0.6685006554
 C         -4.9017194919        1.2078813998        0.9366873855
 C         -5.6561299778        0.9825130060        2.0970475980
 C         -5.2675159077        0.0322050164        2.9944610293
 C         -4.1043934244       -0.7312230440        2.7655274531
 C         -3.6993922393       -1.7205419820        3.6856627257
 C         -2.5778352866       -2.4669896757        3.4649318623
 C         -1.8117802802       -2.2459650506        2.3123659038
 C         -2.1731402803       -1.2894169707        1.4048683691
 C         -3.3321416882       -0.5042753829        1.5929124183
 C         -0.4838532851        1.0000347987       -0.8810665335
 Ni        -0.1875646725       -0.3970679863       -2.4489487463
 C         -0.8123134021        0.4958344014       -3.8638989671
 O         -1.1820553833        1.1086942568       -4.7529092840
 C          1.5390121383       -0.8505633420       -2.6254487453
 O          2.5848598350       -1.2715090170       -2.8107445215
 C         -1.0566702715       -1.9108707760       -2.0499980911
 O         -1.5007487791       -2.9490383207       -1.8792803801
 H          4.9581248376        2.7418564956        2.8952192132
 H          4.1583183461        3.1991253384        1.3907514956
 H          5.8653224733        3.5875609669        1.6412524203
 H          6.4013107599        1.1693913992        1.6985351009
 H          6.6748055822        2.3549962966       -0.3871428425
 H          4.9771444336        2.1527236788       -0.8056404426
 H          6.0554531181        0.7496415365       -0.7575805054
 H          5.8718158476       -0.9844647210        2.1946332923
 H          5.4803623858       -1.1841370969        0.4864033331
 H          3.6662603150       -1.8851242145        2.8360368787
 H          4.5332132783       -3.0320445890        1.8111285942
 H          1.4600358005       -2.9618165425        2.1894067675
 H          2.3076251325       -4.1090621685        1.1500690964
 H          1.0259582504       -3.0987386540        0.4787822957
 H          1.8289072956       -0.4335058002        1.8350154137
 H          1.3995754008       -0.6510964086        0.1332102284
 H          2.0285167979        1.3765269352       -1.5211690410
 H          1.9611338057        3.0529885574       -0.8883012187
 H          0.4019075216        3.2439408977        1.2954902155
 H         -2.2712273054        2.5449752699        1.3514519471
 H         -4.5785953309        1.3101936084       -1.8981047653
 H         -2.9705299026        1.7340901865       -2.4844748676
 H         -3.7017000038        2.6860142154       -1.1933909007
 H         -5.2464691468        1.9661489846        0.2522624161
 H         -6.5461367058        1.5701091136        2.2669408806
 H         -5.8423080503       -0.1520332013        3.8904860009
 H         -4.3012297734       -1.8770989287        4.5696096562
 H         -2.2754376218       -3.2273719923        4.1697853473
 H         -0.9287860831       -2.8420121473        2.1407426745
 H         -1.5534985818       -1.1423211826        0.5337298262
  70
       -106.38668484
 C          5.1616894503        2.1760437726        2.5289726208
 C          5.4592770224        0.8073646933        1.9182445255
 C          5.9652443530        0.9728109433        0.4870436366
 C          4.2460571956       -0.1429845425        2.0366027655
 H          3.7387748637        0.0906130744        2.9787430168
 C          4.7075156539       -1.6035909756        2.0885133719
 C          3.5411596403       -2.5607461238        2.3066470323
 C          2.5023487286       -2.4004052884        1.2002860632
 H          2.9791222496       -2.6313356449        0.2408095109
 C          1.3253680748       -3.3496249733        1.3940334105
 C          2.0276653346       -0.9491800789        1.1655866884
 C          3.2032354051       -0.0001705754        0.9183305240
 H          3.6618811675       -0.2611829704       -0.0474789148
 O          2.7873893412        1.3648367031        0.8648694247
 C          2.0592546842        1.7489619909       -0.2484820348
 N          0.6257130472        1.6734049890       -0.0326806373
 C          0.0266435979        2.3089067519        1.0203345272
 C         -1.3020926394        2.1031619849        0.8910034858
 N         -1.4775845230        1.3456359400       -0.2339886709
 C         -2.7916278597        1.0233307353       -0.7700818102
 H         -2.6786565152        0.1130801620       -1.3726454571
 C         -3.2113332706        2.1466438492       -1.7185248687
 C         -3.7534011032        0.7362503100        0.3625616461
 C         -4.7895106159        1.5859046559        0.6555618855
 C         -5.6808298128        1.3200648340        1.7048988776
 C         -5.5311597067        0.1967085193        2.4636779424
 C         -4.4813405482       -0.7076772721        2.2019010444
 C         -4.3250254652       -1.8753168892        2.9774973865
 C         -3.3150237130       -2.7571107929        2.7205463108
 C         -2.4153285109       -2.5002307445        1.6769177141
 C         -2.5328897878       -1.3727797747        0.9122080341
 C         -3.5712127034       -0.4422391308        1.1418433572
 C         -0.2932489210        1.0637054792       -0.8173410347
 Ni         0.0948455923       -0.0089181816       -2.5945742971
 C          1.4534293443       -1.1454180837       -2.3241678333
 O          2.2840619151       -1.9258867407       -2.2493457759
 C         -1.3227021022       -0.9863371849       -3.1037344420
 O         -2.1103985338       -1.6876491858       -3.5416554867
 C          0.4428514970        1.3399319497       -3.7062852287
 O          0.6355564423        2.2598211093       -4.3540385763
 H          4.3337133583        2.6475458874        2.0096588196
 H          6.0365721913        2.8185243091        2.4539296313
 H          4.9000439541        2.0769609817        3.5803010091
 H          6.2675328157        0.3539739212        2.5056827930
 H          5.2501881057        1.5326872637       -0.1100213384
 H          6.1412181887        0.0081198058        0.0169765273
 H          6.9045628100        1.5217595875        0.4903914484
 H          5.4306729130       -1.7217618295        2.8980910578
 H          5.2111616752       -1.8577111824        1.1532909608
 H          3.0738980691       -2.3549161404        3.2727044117
 H          3.9086943175       -3.5889313147        2.3252307422
 H          1.6675819524       -4.3817638293        1.4233949060
 H          0.6203873848       -3.2448934865        0.5719628536
 H          0.8095131014       -3.1296316868        2.3268594622
 H          1.5482210763       -0.6886451295        2.1126177999
 H          1.2859488148       -0.8302506079        0.3710847687
 H          2.2983325683        1.1495660516       -1.1410098020
 H          2.3119751923        2.8021600304       -0.4416189882
 H          0.5982318434        2.8317165290        1.7583216587
 H         -2.1233731144        2.4220372099        1.4986948598
 H         -4.1935450810        1.9438862089       -2.1358572021
 H         -2.4918097906        2.1961115259       -2.5346900482
 H         -3.2209326994        3.1098063861       -1.2130048218
 H         -4.9419766569        2.4829177960        0.0768370588
 H         -6.4839558441        2.0148366002        1.9011042163
 H         -6.2131004752       -0.0195151671        3.2732652028
 H         -5.0273689107       -2.0585173537        3.7782403159
 H         -3.2028363592       -3.6530327040        3.3131214322
 H         -1.6235721825       -3.2059926293        1.4779082003
 H         -1.8161320046       -1.2046612391        0.1222959598
  70
       -106.38649214
 C          7.0982673415       -0.0275973006        0.9345214731
 C          5.7953958446        0.6710217075        0.5436836490
 C          6.0219439596        2.1820302679        0.6151868402
 C          4.5760930197        0.2679379720        1.4100366416
 H          4.4913949868        0.9838900534        2.2337218837
 C          4.6776783315       -1.1397397386        2.0060507742
 C          3.4710095944       -1.4652420936        2.8802455722
 C          2.1766443198       -1.3890803788        2.0768709369
 H          2.2207967180       -2.1276650894        1.2680303215
 C          0.9640187878       -1.6967723997        2.9494217724
 C          2.0534864517       -0.0024070733        1.4510127770
 C          3.2738590814        0.3387855174        0.5920457749
 H          3.3404252105       -0.3869100272       -0.2341405084
 O          3.1635020821        1.6486144976        0.0308233671
 C          2.3426539409        1.7931269770       -1.0754635319
 N          0.9708803844        2.1013091612       -0.7215237769
 C          0.6476374525        3.2400288697       -0.0355516653
 C         -0.6924128005        3.2230698697        0.1376514843
 N         -1.1535116379        2.0787451986       -0.4538697990
 C         -2.5379542660        1.6448312899       -0.4852420149
 H         -2.6615140281        1.1430636796       -1.4526947843
 C         -3.5066356942        2.8241552307       -0.4033273651
 C         -2.8257161742        0.6496151525        0.6244196007
 C         -2.1363253810        0.7257219441        1.8079630249
 C         -2.3804732052       -0.1715099957        2.8558424906
 C         -3.3219212333       -1.1483592218        2.7132762459
 C         -4.0644950605       -1.2583517188        1.5199149108
 C         -5.0392858485       -2.2663475871        1.3674381344
 C         -5.7598249897       -2.3792257840        0.2134106102
 C         -5.5319818661       -1.4817220169       -0.8388054228
 C         -4.5946243161       -0.4933710006       -0.7220943794
 C         -3.8269521556       -0.3461888041        0.4545384711
 C         -0.1333975880        1.3648559903       -0.9813895054
 Ni        -0.3188351032       -0.5412177544       -1.8688477847
 C         -1.0564691946       -1.5680364590       -0.6024159078
 O         -1.4034703001       -2.3189412419        0.1836964537
 C         -1.3062486567       -0.2602318260       -3.3308364125
 O         -1.9214949574       -0.0766943716       -4.2752397411
 C          1.2650326994       -1.2829081446       -2.2653670632
 O          2.1839814979       -1.9066190024       -2.5358737446
 H          7.9075432325        0.3544370992        0.3154589696
 H          7.0429030325       -1.1019022974        0.7847820034
 H          7.3480515018        0.1727892992        1.9741013603
 H          5.5731403164        0.4031882001       -0.4952502571
 H          6.3344972464        2.4648707713        1.6187163644
 H          5.1108603412        2.7173120155        0.3708987667
 H          6.8018487156        2.4813160625       -0.0819919065
 H          5.5786414145       -1.2189042450        2.6131408273
 H          4.7445547850       -1.8716944702        1.1978818286
 H          3.4213470457       -0.7567573935        3.7108388332
 H          3.5860472971       -2.4660950465        3.3020285221
 H          0.8926040420       -0.9794795184        3.7648858150
 H          1.0453606821       -2.6938075388        3.3762704206
 H          0.0476121112       -1.6469392602        2.3660826450
 H          1.9527196346        0.7541224450        2.2333762257
 H          1.1542996975        0.0238306758        0.8293050397
 H          2.3286747651        0.8946352132       -1.7095207998
 H          2.7420958999        2.6412102372       -1.6486632746
 H          1.3927461773        3.9443703878        0.2704461286
 H         -1.3303346236        3.9309648826        0.6226795566
 H         -4.5140088295        2.4725107486       -0.6098108845
 H         -3.2467167318        3.5868779122       -1.1347108198
 H         -3.5066939451        3.2618116287        0.5925016520
 H         -1.3758053981        1.4809998562        1.9472541944
 H         -1.8126399045       -0.0822135445        3.7698179850
 H         -3.5120457665       -1.8528827129        3.5098723884
 H         -5.2010367876       -2.9519407035        2.1870540435
 H         -6.5022114492       -3.1555665663        0.1016582953
 H         -6.1029131841       -1.5773860527       -1.7508645663
 H         -4.4454437499        0.1771324570       -1.5542061442
  70
       -106.38647857
 C          0.5831731406       -1.7103154756        2.1525549497
 C          1.2794286956       -2.1016035360        0.8497842882
 C          0.8965387178       -3.5311799875        0.4734268469
 C          2.8139663533       -1.9435575935        0.8869491726
 H          3.2085756536       -2.4502431295        0.0001285188
 C          3.4612055655       -2.5527584807        2.1318123016
 C          4.9810549195       -2.4405826455        2.0787024070
 C          5.4078181583       -0.9767972106        1.9890336355
 H          5.0410475683       -0.4523969352        2.8800070911
 C          6.9270384069       -0.8449251545        1.9366329215
 C          4.7678454104       -0.3475131663        0.7538305460
 C          3.2409067306       -0.4737268865        0.7693674525
 H          2.8354691332        0.0847681646        1.6233348646
 O          2.7148940631        0.0529114698       -0.4514802009
 C          2.3802355416        1.3987248610       -0.4552272975
 N          1.0786383739        1.6442627723        0.1348424513
 C          0.8831986872        1.9181425140        1.4627343686
 C         -0.4523594680        1.9765033582        1.6564914567
 N         -1.0375570077        1.7361376934        0.4443147372
 C         -2.4792708983        1.7754196524        0.2596304564
 H         -2.6780046022        1.4110629601       -0.7548071153
 C         -2.9496213153        3.2287667253        0.3161101344
 C         -3.1344023801        0.8410660815        1.2570918735
 C         -3.7657744060        1.3241424482        2.3749057868
 C         -4.3683600666        0.4666487879        3.3062523754
 C         -4.3443015078       -0.8828686392        3.1105013263
 C         -3.7112330991       -1.4288584609        1.9750719314
 C         -3.7000574420       -2.8225691728        1.7560302356
 C         -3.1036149716       -3.3554470226        0.6493455647
 C         -2.4716600424       -2.5101951164       -0.2737400450
 C         -2.4480818900       -1.1568468711       -0.0800808362
 C         -3.0816149855       -0.5653723663        1.0357230835
 C         -0.1091162840        1.5311688857       -0.5097431589
 Ni        -0.3154618043        1.1777556049       -2.5737704504
 C          0.4278880912        2.6066175348       -3.3469852953
 O          0.8482149000        3.5450325299       -3.8442861764
 C          0.5546844251       -0.3809013537       -2.7575638523
 O          1.0693844702       -1.3937548340       -2.8351109239
 C         -2.0166087189        1.0563547488       -3.1381898628
 O         -3.0210500764        0.9866123969       -3.6791911671
 H          0.7904037886       -2.4342288606        2.9369896444
 H         -0.4935437193       -1.6826402410        1.9966758816
 H          0.8951018817       -0.7261287505        2.4949996382
 H          0.9138640834       -1.4388728423        0.0580582054
 H         -0.1855487874       -3.6275389739        0.4403213798
 H          1.2765698402       -4.2422229687        1.2035891512
 H          1.2968916163       -3.7902670231       -0.5036396272
 H          3.1765835190       -3.6021373789        2.2142056292
 H          3.1014994404       -2.0342614566        3.0225713949
 H          5.3595674071       -2.9798594718        1.2078466520
 H          5.4149981829       -2.8977588797        2.9706726646
 H          7.2215592926        0.2009039868        1.8844781341
 H          7.3212759307       -1.3558549812        1.0610842856
 H          7.3785122664       -1.2849746480        2.8228462579
 H          5.1365070882       -0.8439427626       -0.1459276101
 H          5.0449000822        0.7081031142        0.6852680635
 H          2.3382628840        1.6976571347       -1.5100469113
 H          3.1174868481        2.0150498118        0.0808709453
 H          1.6930368465        2.0736147395        2.1463747955
 H         -1.0224745104        2.1521538060        2.5450717904
 H         -4.0312468008        3.2751569376        0.2251096994
 H         -2.5073909540        3.7719677802       -0.5167843931
 H         -2.6447451887        3.7174179909        1.2384826930
 H         -3.8199629134        2.3863178219        2.5564610035
 H         -4.8542045705        0.8893000870        4.1733202684
 H         -4.8125985191       -1.5531238224        3.8167641500
 H         -4.1830428650       -3.4603452860        2.4827182925
 H         -3.1097466978       -4.4225213603        0.4816091167
 H         -1.9978837887       -2.9326415990       -1.1475160615
 H         -1.9250557018       -0.5462241186       -0.8019943065
  70
       -106.38641448
 C          3.9499909054       -0.0640666275       -2.0934334694
 C          4.5857249401       -0.1750306378       -0.7089939904
 C          6.0637011666       -0.5384103388       -0.8494199768
 C          3.8600028701       -1.1684429629        0.2209160152
 H          4.5198495608       -1.3467931205        1.0776731851
 C          3.5491333622       -2.5087962136       -0.4443940662
 C          2.9552408628       -3.4853848788        0.5625527737
 C          1.6568055864       -2.9353059719        1.1491363812
 H          0.9265065219       -2.8159405501        0.3407544032
 C          1.0863772332       -3.8983411951        2.1855683746
 C          1.9114638977       -1.5647656073        1.7749850780
 C          2.5570629719       -0.5848711543        0.7920480252
 H          1.8539789944       -0.3729985943       -0.0238197717
 O          2.8445703233        0.6335598064        1.4964008407
 C          2.2161668067        1.7749682312        1.0293428753
 N          0.8088486352        1.8179743836        1.3764352381
 C          0.3879777165        1.9444699624        2.6716530069
 C         -0.9623041241        1.9197524557        2.6462394358
 N         -1.3345258882        1.7674516256        1.3364710938
 C         -2.7054202988        1.6959222916        0.8477333943
 H         -2.7829961554        2.4686213545        0.0698621085
 C         -3.7397845462        2.0226853890        1.9243104358
 C         -3.0283929339        0.3670614158        0.1828920043
 C         -3.6149290415        0.4125902921       -1.0594666385
 C         -3.9714735200       -0.7484507170       -1.7554899550
 C         -3.7490423119       -1.9715147598       -1.1939501274
 C         -3.1912873009       -2.0725506731        0.0961887738
 C         -3.0177867924       -3.3353243509        0.7008045291
 C         -2.5284949123       -3.4498243696        1.9695164382
 C         -2.1697774400       -2.2945438828        2.6774664271
 C         -2.2989501836       -1.0584061816        2.1083905543
 C         -2.8226587440       -0.8944701875        0.8067079333
 C         -0.2457595692        1.7146470829        0.5347992179
 Ni        -0.1985489655        1.5402415729       -1.5598174185
 C         -0.4271895683       -0.2238091363       -1.6759174889
 O         -0.5802916281       -1.3530601893       -1.5966168755
 C         -1.4801372993        2.5647071796       -2.2846538104
 O         -2.1668572678        3.2548275001       -2.8822711989
 C          1.2876998666        2.2657425233       -2.2748608043
 O          2.0863469994        2.8180886116       -2.8770528792
 H          4.3708859260        0.7850092202       -2.6283091835
 H          2.8726929926        0.0784925058       -2.0285996059
 H          4.1418043741       -0.9591351810       -2.6800476057
 H          4.5363788964        0.8056815189       -0.2225853332
 H          6.1824897616       -1.5107354357       -1.3216500550
 H          6.5486262670       -0.5654429244        0.1238249423
 H          6.5729459074        0.1998829547       -1.4648541726
 H          4.4615317316       -2.9297906258       -0.8688393797
 H          2.8340460590       -2.3590605947       -1.2548014460
 H          3.6706193222       -3.6591096931        1.3701606076
 H          2.7599925923       -4.4439052609        0.0768466039
 H          1.7984964410       -4.0499684606        2.9945057381
 H          0.8729463741       -4.8628760161        1.7305997297
 H          0.1648573302       -3.5041940508        2.6037275037
 H          2.5793470478       -1.6684946230        2.6332348885
 H          0.9685306777       -1.1426681354        2.1329442519
 H          2.2861227709        1.8771862936       -0.0638021188
 H          2.7206524982        2.6193502022        1.5149596598
 H          1.0779861973        2.0342989452        3.4845974900
 H         -1.6583313231        2.0143033334        3.4530335343
 H         -4.7198428073        2.0588364890        1.4545844372
 H         -3.5403784525        2.9944621561        2.3716348953
 H         -3.7721767082        1.2618106684        2.6997188573
 H         -3.8185070074        1.3689873676       -1.5194793332
 H         -4.4136905475       -0.6613544929       -2.7366511508
 H         -4.0079879909       -2.8787654949       -1.7202526263
 H         -3.2955453837       -4.2148636019        0.1377847114
 H         -2.4140861793       -4.4192326386        2.4316389105
 H         -1.7894940804       -2.3830092911        3.6857718211
 H         -1.9988012781       -0.1986989973        2.6827217110
  70
       -106.38638808
 C          3.2375373497        3.4751600834        1.4391432895
 C          3.7059516149        2.7278010534        0.1915642554
 C          2.5517010098        2.5601629610       -0.7944178906
 C          4.4063112405        1.3990293846        0.5557217352
 H          4.9854246478        1.5763508135        1.4683216112
 C          5.3761640959        0.9922882926       -0.5604183255
 C          6.1843697211       -0.2463506394       -0.1949702677
 C          5.2543501938       -1.4240636727        0.0796978633
 H          4.6846241249       -1.6362983047       -0.8309140390
 C          6.0384731234       -2.6748422502        0.4647057194
 C          4.2801805110       -1.0360336798        1.1887305137
 C          3.4674570814        0.2190461879        0.8464778456
 H          2.8406552014        0.0219051067       -0.0325778543
 O          2.6243932868        0.5429078644        1.9611308715
 C          1.4389064309       -0.1730146935        2.0534854581
 N          0.3617108877        0.4726038004        1.3259797074
 C         -0.1214017680        1.7019216538        1.6886381655
 C         -1.0520039394        2.0391909753        0.7703544949
 N         -1.1183607050        1.0059883083       -0.1230910403
 C         -1.9808521675        1.0470494468       -1.2929146887
 H         -2.0684002907        0.0169471038       -1.6614138205
 C         -1.2816044784        1.8637406183       -2.3791086005
 C         -3.3554633610        1.5354208000       -0.8857682163
 C         -3.8466497779        2.7392526963       -1.3218181371
 C         -5.1138944631        3.1976482046       -0.9338573200
 C         -5.8887561612        2.4475937680       -0.0990893903
 C         -5.4279742313        1.2028713576        0.3774700486
 C         -6.2243544501        0.4208896507        1.2400071904
 C         -5.7836352857       -0.7861239137        1.7018548126
 C         -4.5235967266       -1.2605439092        1.3125794555
 C         -3.7271669120       -0.5263988191        0.4781713329
 C         -4.1462528672        0.7289938065       -0.0165171356
 C         -0.2499227378        0.0262027500        0.2022674516
 Ni         0.0053431414       -1.8741174176       -0.6929820103
 C         -0.2601393315       -2.9797101621        0.6842121894
 O         -0.4956481379       -3.6554542493        1.5739160033
 C         -1.2008348308       -2.2206077125       -1.9803727435
 O         -1.8680379467       -2.6238812391       -2.8145381593
 C          1.6042360337       -1.8561567358       -1.4892824402
 O          2.5588481601       -1.8611077524       -2.1165505821
 H          4.0874304677        3.7390614311        2.0646205524
 H          2.5666571505        2.8536312228        2.0217226330
 H          2.7203646111        4.3910127104        1.1595683929
 H          4.4647597406        3.3517851921       -0.2975254053
 H          1.7123440395        2.0540100395       -0.3287960233
 H          2.8604761427        1.9927065135       -1.6691486658
 H          2.2095167633        3.5371921879       -1.1304455976
 H          6.0554056615        1.8233454496       -0.7616585558
 H          4.8138168798        0.7933126296       -1.4752494745
 H          6.7846693409       -0.0435312226        0.6950950791
 H          6.8670792844       -0.4935043223       -1.0105823083
 H          6.6131879176       -2.4997611440        1.3719558793
 H          6.7273362776       -2.9514469040       -0.3301219499
 H          5.3650422231       -3.5106349031        0.6407840304
 H          4.8320145812       -0.8410070432        2.1114986804
 H          3.5974014677       -1.8676964130        1.3803729524
 H          1.1683115190       -0.2008490827        3.1164084399
 H          1.5297531010       -1.1980479104        1.6675261153
 H          0.2385538542        2.2193876518        2.5530374128
 H         -1.6713752351        2.9078074088        0.6856745661
 H         -1.0614320675        2.8728977670       -2.0381092768
 H         -1.8950290753        1.9079364833       -3.2745104999
 H         -0.3409046045        1.3760974739       -2.6283852655
 H         -3.2627938792        3.3625303042       -1.9803340765
 H         -5.4635644529        4.1505880223       -1.3025751306
 H         -6.8651941447        2.7924602818        0.2089566829
 H         -7.1952445993        0.7995204798        1.5266506700
 H         -6.3985791228       -1.3804339726        2.3613749073
 H         -4.1806437021       -2.2183781142        1.6752401586
 H         -2.7644715250       -0.9308248859        0.2011379939
  70
       -106.38626965
 C          6.0196496774        0.7356456544       -1.6581034018
 C          5.0398162691        0.3094524174       -0.5666488826
 C          5.6746798141       -0.7681456478        0.3112608601
 C          3.6753451904       -0.1571133221       -1.1139750686
 H          3.1439158077       -0.6511821660       -0.2917614596
 C          3.7773079114       -1.1736342122       -2.2528833123
 C          2.3939892596       -1.6710290998       -2.6591583525
 C          1.5190503123       -0.5081538455       -3.1231846244
 H          2.0004981211       -0.0345363292       -3.9875840755
 C          0.1346847526       -0.9911515690       -3.5418280060
 C          1.4194173345        0.5218896755       -1.9986147477
 C          2.8090901095        1.0200731719       -1.5970747052
 H          3.2868452097        1.4804268470       -2.4696281371
 O          2.7612312426        2.1146026641       -0.6763765386
 C          2.1820322499        1.9013897062        0.5685064138
 N          0.7528425103        2.1522676498        0.5674698748
 C          0.2577716740        3.3422639932        0.1118665528
 C         -1.0812903108        3.2812325569        0.2607720365
 N         -1.3705325904        2.0545977144        0.7989974629
 C         -2.7427998223        1.7125024861        1.1577615485
 H         -3.3812412894        2.4111984156        0.5982482589
 C         -2.9412518122        2.0093145790        2.6446201620
 C         -3.1366679844        0.3162708343        0.7134588086
 C         -3.5244284831       -0.6419677424        1.6165608751
 C         -3.9577000974       -1.9098679626        1.2026450621
 C         -4.0192093798       -2.2155396436       -0.1247372599
 C         -3.6530741467       -1.2587366906       -1.0937694082
 C         -3.7376648593       -1.5596934358       -2.4689999156
 C         -3.4089756802       -0.6317489627       -3.4146599508
 C         -2.9728388397        0.6385107086       -3.0152247246
 C         -2.8653603738        0.9553988790       -1.6894720719
 C         -3.2025746699        0.0257548929       -0.6808250496
 C         -0.2405607001        1.3391697277        1.0031636709
 Ni         0.0207516505       -0.6202794198        1.7754484572
 C         -0.5995955726       -1.6597003429        0.4695724024
 O         -0.9591837389       -2.3408670204       -0.3729909024
 C          1.7293251254       -1.0126694352        2.1859489042
 O          2.7146204767       -1.4514141616        2.5676784064
 C         -0.8362776382       -0.7716210876        3.3388168524
 O         -1.2577201760       -1.0020701107        4.3752649181
 H          6.3322763505       -0.1159628971       -2.2569826352
 H          6.9068141819        1.1705170320       -1.2026958259
 H          5.5757473774        1.4829121297       -2.3104949340
 H          4.8466235524        1.1853891905        0.0633980436
 H          6.5958038789       -0.3960673893        0.7541454811
 H          5.9149642892       -1.6532725569       -0.2730379776
 H          5.0044257508       -1.0602301874        1.1164823113
 H          4.3893489991       -2.0184951103       -1.9343766507
 H          4.2558349332       -0.7133441605       -3.1188642238
 H          1.9148310489       -2.1640218223       -1.8099582924
 H          2.4880064981       -2.4058874357       -3.4615246903
 H         -0.3811538092       -1.4522605966       -2.7031578202
 H          0.2128927520       -1.7247859396       -4.3410417908
 H         -0.4706607075       -0.1598418406       -3.8944719810
 H          0.9311052536        0.0589784384       -1.1355488788
 H          0.8084152361        1.3702976786       -2.3179696186
 H          2.6522384013        2.6255715053        1.2486066147
 H          2.3434250032        0.8886934602        0.9529924649
 H          0.8992759314        4.1033337785       -0.2806195005
 H         -1.8392106628        4.0040052740        0.0345633850
 H         -2.7192387007        3.0586240406        2.8328996049
 H         -2.2673969075        1.4080152462        3.2485242203
 H         -3.9689079490        1.8161722977        2.9386248974
 H         -3.5184479498       -0.4331223824        2.6737813260
 H         -4.2419840844       -2.6363888851        1.9494884115
 H         -4.3515914573       -3.1889250271       -0.4553662531
 H         -4.0731584553       -2.5452431072       -2.7585330414
 H         -3.4796880874       -0.8673688367       -4.4661173404
 H         -2.7196477179        1.3738620494       -3.7658939580
 H         -2.5163173218        1.9405837358       -1.4245221346
  70
       -106.38619370
 C          4.4685785716        3.2112464652        1.2940105285
 C          3.1138985274        2.8964169941        0.6615048941
 C          2.1028480722        3.9691115173        1.0615370991
 C          2.5908014969        1.4791737113        0.9817251854
 H          1.5283765839        1.4431592896        0.7134897487
 C          2.7107473877        1.1088581208        2.4611351997
 C          2.1602943274       -0.2869167622        2.7300343063
 C          2.9339189981       -1.3210334134        1.9153639765
 H          3.9939290689       -1.2624367295        2.1907632800
 C          2.4373929570       -2.7359401340        2.1939746636
 C          2.7913278994       -0.9813696783        0.4326178874
 C          3.3233210595        0.4180465780        0.1363105257
 H          4.3902239281        0.4492595185        0.3913570317
 O          3.3299051734        0.7579422157       -1.2599996801
 C          2.3289987181        0.2909688069       -2.1000299006
 N          1.0364324240        0.9186148465       -1.8963020260
 C          0.8706734220        2.2732884818       -1.9835450887
 C         -0.4373446958        2.5218222285       -1.7577724723
 N         -1.0426556196        1.3111383791       -1.5437571379
 C         -2.4688521298        1.1169252481       -1.3142826130
 H         -2.8265991431        0.4951921832       -2.1473014610
 C         -3.2587180883        2.4259666581       -1.3465619962
 C         -2.7845666340        0.3636069302       -0.0330361916
 C         -3.7120872404       -0.6485625240       -0.1143454953
 C         -4.1189527392       -1.3722648268        1.0124368676
 C         -3.5806395040       -1.0869094890        2.2334771779
 C         -2.6409014746       -0.0458961790        2.3739389577
 C         -2.0956700255        0.2592666949        3.6387171847
 C         -1.2162856839        1.2910826992        3.7971849363
 C         -0.8522236305        2.0656533048        2.6879589634
 C         -1.3438449928        1.7799566795        1.4449358299
 C         -2.2449508848        0.7127216371        1.2352605833
 C         -0.1424741294        0.3038387169       -1.6396951701
 Ni        -0.5601218259       -1.7634357408       -1.5860202538
 C         -1.9251187379       -1.9912094346       -2.7199821818
 O         -2.7586435047       -2.2108914177       -3.4696691256
 C          0.8054167430       -2.7878475874       -2.1625738147
 O          1.5375093623       -3.5967493495       -2.5016603935
 C         -0.9108486921       -2.1104589255        0.1275366530
 O         -1.0842669673       -2.3555795312        1.2292197020
 H          5.1988550121        2.4411931423        1.0610683242
 H          4.3862431082        3.3047985441        2.3739677109
 H          4.8414700115        4.1558651346        0.9032132022
 H          3.2458299512        2.9393185271       -0.4244280946
 H          1.9720133938        3.9901382633        2.1410066973
 H          1.1366205297        3.7866038510        0.5961752296
 H          2.4524162116        4.9505712029        0.7477639430
 H          2.1682361810        1.8381943797        3.0637528363
 H          3.7593503633        1.1315847874        2.7613252357
 H          1.1019880466       -0.3284757341        2.4605642854
 H          2.2421283662       -0.5152429912        3.7948184575
 H          2.5635962558       -2.9834549074        3.2455200167
 H          2.9907572897       -3.4608903913        1.6011675493
 H          1.3827234619       -2.8247856843        1.9463256396
 H          1.7298975795       -1.0415107292        0.1698922663
 H          3.3395848585       -1.7110105001       -0.1692082746
 H          2.1785772378       -0.7941579995       -2.0356688729
 H          2.6791007267        0.5433833537       -3.1099897520
 H          1.6859241012        2.9326133084       -2.1953646985
 H         -0.9567397395        3.4563844513       -1.7416824059
 H         -2.9711685707        3.0881426340       -0.5336369825
 H         -4.3132372055        2.1894791104       -1.2257802699
 H         -3.1329568950        2.9365324098       -2.2991239865
 H         -4.1468555198       -0.8984109437       -1.0721817826
 H         -4.8463253831       -2.1621528372        0.8992852231
 H         -3.8672055273       -1.6488745953        3.1104229228
 H         -2.3958729491       -0.3427189792        4.4843967677
 H         -0.8042340085        1.5204632996        4.7686952770
 H         -0.1772736908        2.8980177499        2.8190835309
 H         -1.0375332759        2.3970044586        0.6165298364
  70
       -106.38606205
 C          0.9210844682        0.9474890470        2.3158313342
 C          1.6470827281       -0.3702605715        2.0566177479
 C          1.2962021486       -1.3755903668        3.1506486535
 C          3.1746252986       -0.2213011521        1.9075758297
 H          3.6015825352       -1.2288751640        1.9493415315
 C          3.8170888298        0.6314774539        3.0024384039
 C          5.3324379166        0.6888637757        2.8432895030
 C          5.7052582374        1.2891497348        1.4892116660
 H          5.2960979909        2.3054981803        1.4348221914
 C          7.2193194465        1.3627976215        1.3140014073
 C          5.0739189973        0.4490245257        0.3813081353
 C          3.5526514702        0.3470764838        0.5319739548
 H          3.1014237164        1.3425985358        0.4143394565
 O          3.0329257397       -0.5392535442       -0.4631509036
 C          2.7057348318        0.0286874407       -1.6814284120
 N          1.4950495836        0.8270609328       -1.6377484765
 C          1.4828339653        2.1954966092       -1.6926534473
 C          0.1855485934        2.5761333795       -1.6740982719
 N         -0.5613570834        1.4323548268       -1.6054196768
 C         -2.0114983690        1.3675718263       -1.6126934845
 H         -2.2409940207        0.3898486937       -2.0532051576
 C         -2.6194852398        2.4667827864       -2.4845033334
 C         -2.5919311902        1.4256418752       -0.2125304579
 C         -1.9988148085        2.2135696067        0.7397605061
 C         -2.5043426923        2.2950581529        2.0442855179
 C         -3.6125304454        1.5799111579        2.3914602530
 C         -4.2670899006        0.7684989347        1.4421801220
 C         -5.4162492208        0.0312029095        1.7963424941
 C         -6.0592294064       -0.7519180929        0.8815845328
 C         -5.5767200428       -0.8235947793       -0.4323179727
 C         -4.4648152587       -0.1219208737       -0.8068735138
 C         -3.7655931252        0.6908714372        0.1131314007
 C          0.2332097870        0.3405506734       -1.5738379948
 Ni        -0.3921411482       -1.6399310877       -1.3016532631
 C          1.0539918527       -2.6601621635       -0.9601472670
 O          1.8933294917       -3.3809730572       -0.6893506501
 C         -1.3757597848       -1.5755151671        0.1890777891
 O         -1.9039127532       -1.5764007088        1.2015632224
 C         -1.2354113815       -2.1177687303       -2.8037508850
 O         -1.7639183611       -2.4416541533       -3.7644553930
 H         -0.1525427722        0.7889125941        2.2405481563
 H          1.1994288958        1.7053974901        1.5861548292
 H          1.1377122450        1.3262215683        3.3122044755
 H          1.2782909037       -0.7750692821        1.1059093691
 H          1.6296380006       -1.0272602666        4.1260806790
 H          1.7586723282       -2.3390905678        2.9494795859
 H          0.2186775578       -1.5176830225        3.1920790220
 H          3.5671907806        0.2154888335        3.9790607336
 H          3.4211617719        1.6476214379        2.9557339863
 H          5.7490741538       -0.3177858133        2.9180602963
 H          5.7645248992        1.2909432000        3.6456759902
 H          7.4756689582        1.8024994308        0.3525527373
 H          7.6546484927        0.3671767150        1.3623020351
 H          7.6645516568        1.9701058996        2.0987219931
 H          5.4818856153       -0.5633966151        0.4094502474
 H          5.3184687822        0.8769624852       -0.5949016673
 H          2.5406361437       -0.8110207238       -2.3671201252
 H          3.5079638503        0.6742964656       -2.0718667069
 H          2.3796212077        2.7781416286       -1.7556645391
 H         -0.2415960777        3.5559662086       -1.7185016141
 H         -3.6786231688        2.2656765653       -2.6227620339
 H         -2.1381833682        2.4919349277       -3.4601960479
 H         -2.5255079944        3.4416267915       -2.0111956950
 H         -1.1106957651        2.7797479620        0.4992620090
 H         -2.0012533765        2.9210637231        2.7664684319
 H         -4.0064440130        1.6236258888        3.3965644393
 H         -5.7764034389        0.0991955900        2.8131026351
 H         -6.9360775343       -1.3174268814        1.1603267137
 H         -6.0901352406       -1.4429457367       -1.1532064481
 H         -4.1260743221       -0.2022004467       -1.8280674629
  70
       -106.38605455
 C          0.8622542089        0.3202895742        2.5227780379
 C          1.6130106083       -0.8678215393        1.9265654825
 C          1.2529770884       -2.1398772016        2.6900925303
 C          3.1410421946       -0.6712198256        1.8628530166
 H          3.5812197343       -1.6468764856        1.6313693197
 C          3.7481791607       -0.1543930691        3.1678598357
 C          5.2657967503       -0.0453983876        3.0681878127
 C          5.6606992963        0.9119656044        1.9454925875
 H          5.2412047472        1.9008310746        2.1679684047
 C          7.1772636277        1.0391286306        1.8341918322
 C          5.0633037327        0.4126748317        0.6318379888
 C          3.5406323725        0.2629304090        0.7114532409
 H          3.0792657307        1.2484595802        0.8671539440
 O          3.0549003185       -0.3109151536       -0.5054155547
 C          2.7353252936        0.5754973930       -1.5181534798
 N          1.5009415688        1.3003683269       -1.2808083067
 C          1.4486633258        2.6260865273       -0.9410585559
 C          0.1403536327        2.9564515764       -0.8545300795
 N         -0.5730809044        1.8251629296       -1.1405963568
 C         -2.0199723411        1.7333913246       -1.2161299343
 H         -2.2071985304        0.9240441110       -1.9319329869
 C         -2.6393562637        3.0266878169       -1.7467013056
 C         -2.6381793646        1.3634759625        0.1185760030
 C         -2.0987858589        1.8554958928        1.2789665804
 C         -2.6393091295        1.5376438218        2.5322957754
 C         -3.7279284970        0.7204322652        2.6173773341
 C         -4.3281151314        0.2038502218        1.4508091944
 C         -5.4570577167       -0.6375866333        1.5347978077
 C         -6.0477633216       -1.1366198904        0.4098336781
 C         -5.5313625185       -0.8060743363       -0.8504869950
 C         -4.4376995902        0.0060873709       -0.9656023274
 C         -3.7916614210        0.5330395387        0.1749590733
 C          0.2531677109        0.7881622159       -1.3983082103
 Ni        -0.3177667484       -1.2022835183       -1.7129078594
 C         -1.3296380881       -1.5851808951       -0.2904710058
 O         -1.8741920501       -1.8880284472        0.6665392047
 C         -1.1204399513       -1.2576524321       -3.3091806573
 O         -1.6242345193       -1.3100867395       -4.3342595824
 C          1.1513504973       -2.2433534667       -1.6329899630
 O          2.0061503936       -2.9919327529       -1.5526901169
 H          1.1430929165        1.2530741382        2.0375332618
 H          1.0536934528        0.4107183521        3.5896970058
 H         -0.2070436294        0.1781329584        2.3819028151
 H          1.2709817971       -0.9961874570        0.8919713147
 H          1.7343822728       -3.0059756965        2.2419970523
 H          0.1770729267       -2.2969128201        2.6628299408
 H          1.5591419461       -2.0727504605        3.7320741074
 H          3.4825835302       -0.8283263260        3.9830491346
 H          3.3402493466        0.8318059678        3.3970978240
 H          5.6933742438       -1.0302520634        2.8687707973
 H          5.6726556566        0.3107443796        4.0172182358
 H          7.6227315773        0.0718887224        1.6125581127
 H          7.5985200204        1.4047482749        2.7678497279
 H          7.4492938572        1.7315023883        1.0404469716
 H          5.4832044813       -0.5644358786        0.3845728138
 H          5.3226163938        1.0987192757       -0.1793451910
 H          2.6078984629       -0.0350975731       -2.4201228063
 H          3.5259577687        1.3236899334       -1.6851265646
 H          2.3285817210        3.2221276649       -0.8063069231
 H         -0.3149018535        3.8978412809       -0.6286512904
 H         -2.5884348910        3.8206567402       -1.0049467175
 H         -3.6877257827        2.8512904834       -1.9737043555
 H         -2.1342355805        3.3490332951       -2.6551180875
 H         -1.2268230263        2.4924545327        1.2443247367
 H         -2.1785021414        1.9396380043        3.4226139265
 H         -4.1477502170        0.4567565682        3.5773332167
 H         -5.8441034659       -0.8808178450        2.5141659126
 H         -6.9091687581       -1.7841172302        0.4811784256
 H         -6.0037559428       -1.2012855363       -1.7379018681
 H         -4.0719337937        0.2387602399       -1.9535962359
  70
       -106.38581648
 C          3.5482479727        3.9860012455       -1.0504974966
 C          3.2338540009        2.9095932426       -0.0115826327
 C          3.2425783108        3.5581485723        1.3739417293
 C          4.2003264177        1.7002779449       -0.0315914698
 H          4.9858357450        1.8822038170        0.7084864706
 C          4.8713138153        1.4516981480       -1.3863536489
 C          5.8541206081        0.2866003249       -1.3142501072
 C          5.1500140190       -1.0003283389       -0.8942806251
 H          4.3929695682       -1.2421142303       -1.6479449014
 C          6.1292752226       -2.1659366331       -0.7987207231
 C          4.4506492779       -0.7685656047        0.4425676357
 C          3.4721353308        0.4059367167        0.3696062997
 H          2.6985182585        0.1932318255       -0.3841829320
 O          2.8395680727        0.5810363062        1.6436096905
 C          1.6782678707       -0.1515880937        1.8388924835
 N          0.5480105030        0.4370390429        1.1459486093
 C          0.1462597229        1.7255338654        1.3761179964
 C         -0.8871093647        1.9632857378        0.5400817043
 N         -1.0940766978        0.8133874213       -0.1712424182
 C         -2.1159138796        0.7106918147       -1.2013688990
 H         -2.2779420980       -0.3591226271       -1.3846843946
 C         -1.5698827734        1.3208208458       -2.4916746012
 C         -3.4060613378        1.3137969244       -0.6853548628
 C         -3.9250194165        2.4650094503       -1.2200806625
 C         -5.1085472571        3.0331769705       -0.7269605948
 C         -5.7690178719        2.4485230389        0.3131961946
 C         -5.2754794127        1.2636697312        0.8974103390
 C         -5.9528222535        0.6518200699        1.9728611780
 C         -5.4799141938       -0.4974387158        2.5386516504
 C         -4.3081581123       -1.0851273024        2.0425159212
 C         -3.6282638581       -0.5166006333        1.0014599660
 C         -4.0811176980        0.6768278707        0.3960329595
 C         -0.2105183028       -0.1420181714        0.1849072129
 Ni        -0.1157930062       -2.1666993607       -0.4111200329
 C         -1.2488943099       -2.5396627528       -1.7543615133
 O         -1.8738694212       -2.9378925616       -2.6231296476
 C          1.5133876272       -2.5308281269       -1.0570285128
 O          2.4738700894       -2.8639381889       -1.5765234459
 C         -0.5743353664       -2.9613365680        1.1193419705
 O         -0.9127798856       -3.3892532061        2.1219265923
 H          3.4448843114        3.6110935500       -2.0647859246
 H          4.5566533666        4.3707094564       -0.9168737475
 H          2.8538413700        4.8149847397       -0.9270207926
 H          2.2228135620        2.5391050550       -0.2182959892
 H          2.4574414066        4.3084912805        1.4498723473
 H          4.1987471587        4.0481658146        1.5473805741
 H          3.0968824960        2.8101133088        2.1468047261
 H          5.4116568520        2.3439805528       -1.7003998025
 H          4.1072220754        1.2336012373       -2.1365048042
 H          6.6409214533        0.5189049413       -0.5926132368
 H          6.3260731799        0.1480121282       -2.2893353784
 H          5.6086364718       -3.0797638915       -0.5224031529
 H          6.8909932322       -1.9634397098       -0.0485382357
 H          6.6222720963       -2.3281179823       -1.7544616915
 H          5.1900116588       -0.5516227039        1.2166916617
 H          3.9124915424       -1.6708996992        0.7428432067
 H          1.4837221137       -0.1317862793        2.9181220411
 H          1.7658345395       -1.1955359212        1.4989832486
 H          0.6308425240        2.3467757079        2.0991462307
 H         -1.4919094820        2.8356706133        0.4034726873
 H         -0.6877424133        0.7597962920       -2.7952137791
 H         -1.2811509699        2.3599035769       -2.3490349450
 H         -2.3095017271        1.2551590639       -3.2846141166
 H         -3.4292239580        2.9602998056       -2.0398523317
 H         -5.4846248590        3.9389804655       -1.1791310316
 H         -6.6785677382        2.8808474770        0.7044680947
 H         -6.8585501722        1.1141548704        2.3390305888
 H         -6.0032809769       -0.9607510088        3.3619060241
 H         -3.9416536998       -1.9984343530        2.4875601255
 H         -2.7327416513       -1.0043849035        0.6449248965
  70
       -106.38580139
 C          5.9326430144        2.7247203424        1.2087091080
 C          4.6357031105        2.0801347405        1.6933614729
 C          4.7676157851        1.6848820685        3.1635195445
 C          4.1889862032        0.8773023983        0.8380944536
 H          3.3986876922        0.3612428387        1.3937805644
 C          5.2958208699       -0.1452017930        0.5729725562
 C          4.7462822679       -1.3575295526       -0.1719987385
 C          4.1464423014       -0.9402010145       -1.5133212405
 H          4.9359522699       -0.4866264770       -2.1244182736
 C          3.5778667212       -2.1428349052       -2.2603821510
 C          3.0546356214        0.0997270756       -1.2682835777
 C          3.6026108648        1.3133345764       -0.5159598750
 H          4.3944315425        1.7772941267       -1.1154514876
 O          2.6506226104        2.3777168538       -0.4078569572
 C          1.4330589768        2.1152537108        0.2094254404
 N          0.4553192456        1.5844887866       -0.7216673995
 C          0.1771439365        2.2247567189       -1.8965640584
 C         -0.7232376079        1.4604289998       -2.5516208386
 N         -0.9797678591        0.3749814666       -1.7550744559
 C         -1.8719973844       -0.7241251267       -2.0977456653
 H         -1.2543933279       -1.6328285539       -2.0657296006
 C         -2.4421767159       -0.6024461544       -3.5113323226
 C         -3.0090967220       -0.9274183012       -1.1105126845
 C         -3.2485112640       -2.2160004848       -0.6939190652
 C         -4.3121685629       -2.5337834703        0.1583969106
 C         -5.1441418122       -1.5474308995        0.6017877562
 C         -4.9488852030       -0.2119854108        0.1955250024
 C         -5.8120202106        0.8060972681        0.6519988511
 C         -5.6429634005        2.1027729620        0.2606543431
 C         -4.5984926152        2.4300285650       -0.6140900075
 C         -3.7428694369        1.4670294655       -1.0718342483
 C         -3.8764662523        0.1154642947       -0.6829483272
 C         -0.2455111664        0.4324835759       -0.6195350864
 Ni        -0.2108884195       -0.9762071481        0.9490460526
 C          1.0104012462       -0.6911803720        2.2393146488
 O          1.6419958501       -0.6976901824        3.1931469397
 C         -1.8084428374       -0.7563202057        1.7242325436
 O         -2.7886498808       -0.5628135300        2.2733759700
 C          0.1177601611       -2.5270062982        0.1349703719
 O          0.3937215533       -3.5142476938       -0.3720810820
 H          5.8671695860        2.9898355799        0.1567986706
 H          6.7784240203        2.0572862558        1.3531495446
 H          6.1217288337        3.6347391323        1.7741173898
 H          3.8425263350        2.8328878774        1.6166688672
 H          5.5680280368        0.9616140195        3.3006083716
 H          3.8429641607        1.2474827219        3.5335706792
 H          4.9962548326        2.5596085222        3.7682319480
 H          5.7302198478       -0.4668810182        1.5203224006
 H          6.0852566873        0.3107784874       -0.0268000002
 H          3.9731218790       -1.8402259876        0.4309033812
 H          5.5454202853       -2.0839815375       -0.3339510330
 H          2.7871940589       -2.6098489943       -1.6773754504
 H          4.3538890128       -2.8833139751       -2.4398147680
 H          3.1636583210       -1.8391331845       -3.2195466435
 H          2.2588234101       -0.3686056972       -0.6792274099
 H          2.6285675797        0.4281719538       -2.2202410113
 H          1.0674152373        3.0834447691        0.5774744727
 H          1.5083023178        1.4146895026        1.0498329710
 H          0.6535510283        3.1452732696       -2.1622521577
 H         -1.1803843103        1.6177927245       -3.5053348142
 H         -3.0280653294       -1.4942989392       -3.7205685621
 H         -1.6462715198       -0.5376672698       -4.2504012570
 H         -3.1010011822        0.2574872286       -3.6033549850
 H         -2.6031244477       -3.0147991732       -1.0321548724
 H         -4.4566475346       -3.5591561488        0.4643982764
 H         -5.9631047860       -1.7719901386        1.2695988717
 H         -6.6131507278        0.5345254845        1.3245525514
 H         -6.3057890731        2.8774659265        0.6168615050
 H         -4.4693703932        3.4561851660       -0.9273685881
 H         -2.9523465693        1.7618796670       -1.7409622476
  70
       -106.38578723
 C          3.3668016625        3.7027667426       -1.2408399171
 C          3.0595876237        2.7656313428       -0.0728210375
 C          2.9673124846        3.6001796771        1.2058639820
 C          4.0875605551        1.6243897433        0.1194829133
 H          4.8279686413        1.9550187691        0.8546371057
 C          4.8309946392        1.2252744470       -1.1595734716
 C          5.8684846775        0.1404381522       -0.8845654660
 C          5.2141034325       -1.1127694212       -0.3102865755
 H          4.5052198193       -1.5019411659       -1.0492723099
 C          6.2470858716       -2.1946499342       -0.0114791465
 C          4.4442850361       -0.7334316735        0.9520569818
 C          3.4096762603        0.3590976693        0.6729864406
 H          2.6868311564       -0.0008474963       -0.0750238909
 O          2.7069398806        0.6619083214        1.8856834873
 C          1.5294894608       -0.0444420475        2.0864912067
 N          0.4431975952        0.4931198106        1.2910293401
 C         -0.0109496624        1.7738557710        1.4598971680
 C         -0.9501141679        1.9799952396        0.5122377267
 N         -1.0510164820        0.8192089603       -0.2041277577
 C         -1.9374745428        0.6880082837       -1.3506405186
 H         -2.0935606870       -0.3862881933       -1.5141326426
 C         -1.2207998883        1.2453483211       -2.5801988881
 C         -3.2732697446        1.3249068444       -1.0279231024
 C         -3.7057807456        2.4556007177       -1.6721235711
 C         -4.9343272346        3.0536971282       -1.3561898276
 C         -5.7277928913        2.5208115468       -0.3832328672
 C         -5.3274122046        1.3585897696        0.3079008092
 C         -6.1410810168        0.7987021164        1.3149894502
 C         -5.7573016240       -0.3289852841        1.9825558650
 C         -4.5412584271       -0.9474544816        1.6610669869
 C         -3.7302281890       -0.4290079648        0.6902970783
 C         -4.0879989566        0.7412340017       -0.0150520658
 C         -0.1906195430       -0.1124601509        0.2582365307
 Ni        -0.0432723695       -2.1521155432       -0.2826444495
 C          1.6533607353       -2.7148774664       -0.4117919458
 O          2.6552251155       -3.2343227027       -0.5846654476
 C         -0.9290584812       -2.8877405042        1.0785458547
 O         -1.5012623542       -3.2904528249        1.9811292245
 C         -0.7575083238       -2.4228835067       -1.9064732508
 O         -1.1107308276       -2.7145858820       -2.9527178728
 H          3.3297808396        3.1846948178       -2.1949495802
 H          4.3470036677        4.1591589645       -1.1242495861
 H          2.6262267858        4.5001649382       -1.2630690822
 H          2.0811201287        2.3111774398       -0.2669196111
 H          3.8839726748        4.1707540013        1.3424312212
 H          2.8317596428        2.9589175316        2.0708886319
 H          2.1357348046        4.3001692843        1.1466225410
 H          5.3380915437        2.0936353497       -1.5787499263
 H          4.1133661071        0.8595148605       -1.8981124073
 H          6.6091753565        0.5171598304       -0.1750678313
 H          6.3900740578       -0.1070223515       -1.8117221162
 H          6.9619886456       -1.8444848569        0.7303579148
 H          6.7912930656       -2.4613629826       -0.9146367910
 H          5.7620158450       -3.0885955331        0.3731253530
 H          5.1358751650       -0.3648888434        1.7128904614
 H          3.9401229151       -1.6116674905        1.3623137752
 H          1.2813544038        0.0698153243        3.1483114231
 H          1.6233869569       -1.1138611251        1.8414583008
 H          0.3754914195        2.4138551158        2.2244145504
 H         -1.5554407683        2.8366341903        0.2994964137
 H         -1.8504974033        1.1539046970       -3.4605674872
 H         -0.3118366162        0.6691672068       -2.7446141322
 H         -0.9424171463        2.2874696151       -2.4384200315
 H         -3.1045412356        2.9112820097       -2.4427716034
 H         -5.2386647034        3.9417097602       -1.8901677794
 H         -6.6730113359        2.9775029472       -0.1278918588
 H         -7.0789154797        1.2836121453        1.5462346896
 H         -6.3848421518       -0.7519485758        2.7530042547
 H         -4.2457273319       -1.8443733831        2.1851633655
 H         -2.8047808921       -0.9376696499        0.4647535683
  70
       -106.38577422
 C          1.2583639515        1.7949269500       -2.3254097601
 C          2.7426703092        1.9608517692       -2.0123895601
 C          3.4464652948        2.6429873479       -3.1845600147
 C          3.4416934654        0.6407550078       -1.6352047943
 H          4.5159361825        0.8527779496       -1.5883617255
 C          3.2095949230       -0.4968026953       -2.6314513572
 C          4.0207236145       -1.7321595581       -2.2509688798
 C          3.6551673990       -2.2147349484       -0.8479297512
 H          2.5928188288       -2.4869735088       -0.8375640030
 C          4.4750772312       -3.4379734549       -0.4500129222
 C          3.8673258995       -1.0728719544        0.1437209819
 C          3.0273850772        0.1452382950       -0.2436753851
 H          1.9655269823       -0.1397266467       -0.2574334241
 O          3.2114333838        1.1988022453        0.7101449529
 C          2.3272304565        1.1826033587        1.7764752331
 N          1.0232162054        1.7190981529        1.4298263473
 C          0.8664254147        3.0464399671        1.1359910253
 C         -0.4506015930        3.2397632253        0.9220727443
 N         -1.0684885065        2.0264916562        1.0822566795
 C         -2.5276050579        1.9563770399        1.1229238374
 H         -2.8847505050        2.8382766974        0.5717952294
 C         -2.9501547174        2.1223295869        2.5844856664
 C         -3.1038854274        0.7387751747        0.4269275260
 C         -3.8967032181       -0.1593747696        1.0975771996
 C         -4.4577439882       -1.2707254619        0.4525842484
 C         -4.2373197582       -1.4772320672       -0.8768254515
 C         -3.4729280089       -0.5567912806       -1.6220742026
 C         -3.2729573314       -0.7414022993       -3.0056570371
 C         -2.5634807772        0.1641549388       -3.7409012917
 C         -2.0278802263        1.2974838905       -3.1156768696
 C         -2.1857603956        1.4934822077       -1.7715616227
 C         -2.9037711130        0.5751597332       -0.9745978601
 C         -0.1667006248        1.0665666721        1.3940391562
 Ni        -0.4149287775       -1.0283474272        1.4985554988
 C         -1.7257979396       -1.4194884421        2.6555989078
 O         -2.4431850904       -1.8022012087        3.4572413848
 C         -0.5969962819       -1.4075726916       -0.2337260618
 O         -0.5496992469       -1.6243964881       -1.3543159775
 C          0.9810096346       -1.9542097961        2.1563836073
 O          1.6825833190       -2.7532066656        2.5775959939
 H          1.1158060516        1.2528444710       -3.2566780417
 H          0.7934910965        2.7737786498       -2.4277077374
 H          0.7400573885        1.2568331396       -1.5357455720
 H          2.8386137763        2.6163327463       -1.1400582558
 H          3.3628730613        2.0464350229       -4.0898163767
 H          4.5012372038        2.7938881502       -2.9666522426
 H          2.9954216490        3.6139393747       -3.3784702185
 H          3.4913730888       -0.1729369993       -3.6342148835
 H          2.1505320935       -0.7601611074       -2.6437465417
 H          5.0869289357       -1.4946572724       -2.2821546429
 H          3.8347149475       -2.5290713351       -2.9742089334
 H          4.1898753874       -3.7824897356        0.5413101040
 H          5.5362451299       -3.1975049556       -0.4384631858
 H          4.3142423137       -4.2505454697       -1.1548738956
 H          4.9197772590       -0.7807763561        0.1578747929
 H          3.6019575290       -1.3991725709        1.1512156666
 H          2.7670492774        1.8273185946        2.5473434110
 H          2.1720376533        0.1738080662        2.1852854205
 H          1.6972334687        3.7199181428        1.1033951930
 H         -0.9905361620        4.1318034498        0.6761182184
 H         -2.5717352104        1.2986107192        3.1849036181
 H         -4.0319837902        2.1715097973        2.6680114219
 H         -2.5328352869        3.0486649433        2.9766451045
 H         -4.1108464619       -0.0279154988        2.1453862732
 H         -5.0590666709       -1.9609169799        1.0256882070
 H         -4.6530265085       -2.3373330355       -1.3817005483
 H         -3.6993109572       -1.6175866738       -3.4731709944
 H         -2.4157880931        0.0182866470       -4.8007877244
 H         -1.4834707720        2.0204181199       -3.7050013119
 H         -1.7533051928        2.3744241995       -1.3239605316
  70
       -106.38575769
 C          1.1955334882        1.7775612786       -2.3119794344
 C          2.6854071246        1.9524386007       -2.0320808379
 C          3.3612917748        2.6247256777       -3.2261657562
 C          3.3981262253        0.6397248670       -1.6552299239
 H          4.4719159537        0.8577338850       -1.6304578539
 C          3.1537322610       -0.5089356170       -2.6357093543
 C          3.9780984643       -1.7364827904       -2.2581223498
 C          3.6429251961       -2.2061415514       -0.8431222469
 H          2.5824806464       -2.4839878781       -0.8088949052
 C          4.4772433950       -3.4207176378       -0.4486949434
 C          3.8679789714       -1.0526160087        0.1320955460
 C          3.0117923017        0.1551607082       -0.2518868425
 H          1.9523520507       -0.1390118469       -0.2454388556
 O          3.2020535046        1.2191336399        0.6890792731
 C          2.3339152401        1.2060600380        1.7687572363
 N          1.0198687234        1.7267912194        1.4363034738
 C          0.8435865365        3.0519776815        1.1438803531
 C         -0.4772869919        3.2279617923        0.9384476475
 N         -1.0779052238        2.0066621657        1.1014335961
 C         -2.5356395238        1.9108465934        1.1402775586
 H         -2.9080311524        2.8012502165        0.6139016007
 C         -2.9643399997        2.0289501190        2.6044532386
 C         -3.0866355225        0.7028096330        0.4075958074
 C         -3.8419947145       -0.2434609163        1.0547719727
 C         -4.3777551965       -1.3474614589        0.3764376856
 C         -4.1710424986       -1.4974525152       -0.9627476722
 C         -3.4458857660       -0.5269593298       -1.6833877626
 C         -3.2625715543       -0.6532510792       -3.0757626673
 C         -2.5922308380        0.3003941208       -3.7865009981
 C         -2.0789598405        1.4239782788       -3.1261042069
 C         -2.2203566048        1.5637342707       -1.7731108794
 C         -2.9004532864        0.5963711134       -1.0014366325
 C         -0.1616082896        1.0587845182        1.4080622786
 Ni        -0.3851242677       -1.0388526987        1.5345728742
 C         -1.6703612593       -1.4393017972        2.7167899703
 O         -2.3704238318       -1.8307815501        3.5296261258
 C         -0.5992196964       -1.4323646808       -0.1904834143
 O         -0.5845163797       -1.6496479610       -1.3116674508
 C          1.0307942104       -1.9424344978        2.1820479740
 O          1.7428315367       -2.7304531917        2.6063914536
 H          0.7253969838        2.7537420972       -2.4139988321
 H          0.6954616737        1.2459046896       -1.5063560777
 H          1.0342190137        1.2258766707       -3.2345334344
 H          2.7967130577        2.6177524703       -1.1689961097
 H          3.2597239316        2.0187388518       -4.1232703857
 H          4.4200928963        2.7810153960       -3.0330017542
 H          2.9029525118        3.5922685378       -3.4199544222
 H          3.4154769410       -0.1938595412       -3.6466487905
 H          2.0958936754       -0.7773220759       -2.6261552157
 H          5.0423045680       -1.4942912845       -2.3128451565
 H          3.7818369984       -2.5418336884       -2.9692161668
 H          5.5370864793       -3.1744940139       -0.4603170263
 H          4.3072184180       -4.2414939622       -1.1417965864
 H          4.2132640475       -3.7563536388        0.5515181619
 H          4.9185432001       -0.7537111204        0.1217148560
 H          3.6253381545       -1.3696001078        1.1482310868
 H          2.7791037965        1.8627439742        2.5262082127
 H          2.1945405930        0.2000579875        2.1900087949
 H          1.6650566983        3.7365518661        1.1061406014
 H         -1.0303160278        4.1134397815        0.6978511895
 H         -2.5631934645        1.2025289225        3.1859127921
 H         -4.0472912637        2.0447093336        2.6866342957
 H         -2.5741700903        2.9571596038        3.0194442359
 H         -4.0476364230       -0.1549175909        2.1086880917
 H         -4.9491929634       -2.0767943051        0.9313534296
 H         -4.5680644608       -2.3505388016       -1.4939065910
 H         -3.6705942089       -1.5234777643       -3.5699824506
 H         -2.4581328281        0.1997138631       -4.8534447365
 H         -1.5648816457        2.1842479682       -3.6954411570
 H         -1.8046431232        2.4385293805       -1.2985506047
  70
       -106.38545642
 C          6.9058631067        0.1290488312        0.6003588661
 C          5.5532088059       -0.0146259235       -0.1012975411
 C          5.3283337238        1.2341806212       -0.9517380009
 C          4.4505965111       -0.3136521261        0.9443326095
 H          4.6272688368        0.3150373917        1.8227524786
 C          4.5501367794       -1.7922017531        1.3415379486
 C          3.5415273190       -2.1853302128        2.4106078128
 C          2.1248917264       -1.9689915643        1.8922158282
 H          1.9725536564       -2.5975061056        1.0080192747
 C          1.0871621458       -2.3418418648        2.9466701203
 C          1.9661365721       -0.5078999750        1.4864204336
 C          3.0147337921       -0.0141713715        0.4778047193
 H          2.8431920229       -0.4861307651       -0.5003658725
 O          2.8787821963        1.4057211201        0.3500800804
 C          1.9791809304        1.8693191039       -0.5895632299
 N          0.6065286762        1.8786365659       -0.1143749261
 C          0.2486722412        2.4669502834        1.0679824549
 C         -1.0823468616        2.2818619229        1.2037963928
 N         -1.5011342604        1.5896055085        0.1004138353
 C         -2.9008462517        1.2666965261       -0.1284134833
 H         -2.9300597655        0.5491804325       -0.9572665466
 C         -3.6273197260        2.5284776427       -0.5934124296
 C         -3.4741241255        0.6040545158        1.1079285484
 C         -4.3432855773        1.2671631372        1.9361682008
 C         -4.8722341171        0.6582134378        3.0831385547
 C         -4.5292760643       -0.6234391746        3.3993770833
 C         -3.6392603638       -1.3476436297        2.5799209988
 C         -3.2882550095       -2.6776392058        2.8935934861
 C         -2.4313629968       -3.3844412090        2.0997408303
 C         -1.8821474078       -2.7802126859        0.9596579115
 C         -2.1997911734       -1.4915858815        0.6307469654
 C         -3.0920475562       -0.7324434570        1.4201782429
 C         -0.4682858950        1.3307011020       -0.7279652643
 Ni        -0.4343369483        0.2862939526       -2.5627507497
 C         -2.0833077809       -0.0081178239       -3.2163205240
 O         -3.0470248865       -0.2239240781       -3.7891106694
 C          0.3982181102        1.3794313041       -3.7137139539
 O          0.8755078191        2.0944594759       -4.4640301309
 C          0.3960504243       -1.2238065024       -2.0992122022
 O          0.8872561838       -2.1830006522       -1.7193479720
 H          7.6983450078        0.2505742974       -0.1346698477
 H          7.1440321027       -0.7400288918        1.2070928876
 H          6.9005101666        1.0063758170        1.2437783914
 H          5.6052176568       -0.8728636487       -0.7820777459
 H          5.1697956546        2.1051944160       -0.3225908569
 H          4.4742458529        1.1206470737       -1.6125798412
 H          6.2060319680        1.4084419356       -1.5718830240
 H          5.5568723062       -2.0054050159        1.7009156461
 H          4.3789880032       -2.4051852746        0.4527185506
 H          3.6973372793       -1.5810462375        3.3071803498
 H          3.6838376897       -3.2332507776        2.6830212991
 H          1.1731240634       -3.3936294666        3.2097121949
 H          0.0801377884       -2.1604400221        2.5785047435
 H          1.2342584431       -1.7506332641        3.8484047727
 H          2.0444331693        0.1225569496        2.3761756365
 H          0.9700890742       -0.3643315443        1.0610575720
 H          1.9945989388        1.2732085031       -1.5173567955
 H          2.2750683873        2.9036114769       -0.8125177330
 H          0.9701226144        2.9425638410        1.6987863213
 H         -1.7537207669        2.5694773656        1.9860425445
 H         -4.6825251210        2.3197111197       -0.7458996445
 H         -3.1970545628        2.8510074219       -1.5397187227
 H         -3.5189367003        3.3404942777        0.1218481584
 H         -4.6458179752        2.2787055279        1.7150121859
 H         -5.5545180761        1.2160792225        3.7073444213
 H         -4.9342178911       -1.1041069600        4.2781470196
 H         -3.7175066262       -3.1271236298        3.7777086287
 H         -2.1695046789       -4.4034028938        2.3429386500
 H         -1.2006903927       -3.3409278181        0.3370738763
 H         -1.7509048265       -1.0604412646       -0.2526858197
  70
       -106.38543957
 C          6.3183759906       -0.7673590425        2.4972124020
 C          5.5186920445        0.4108953569        1.9326395264
 C          4.8058081724        1.0966804324        3.0992295176
 C          4.5438523704       -0.0355589694        0.8165668509
 H          3.7510998844       -0.6380271727        1.2708085873
 C          5.2780994465       -0.9086315049       -0.2128721377
 C          4.4004900506       -1.3323441853       -1.3847409761
 C          3.8648055651       -0.1129767443       -2.1243971843
 H          4.7101386175        0.4800586734       -2.4927625866
 C          2.9905262513       -0.5158138140       -3.3073130307
 C          3.0658394707        0.7147859670       -1.1259500210
 C          3.9089311056        1.1589804919        0.0723845287
 H          4.7208172963        1.8068067080       -0.2821802572
 O          3.1579529655        2.0489520238        0.9087661947
 C          1.9512292594        1.5995034814        1.4335725099
 N          0.8291401264        1.9042409239        0.5661982743
 C          0.5723180909        3.1814422740        0.1505968973
 C         -0.5081092336        3.1173208531       -0.6589555288
 N         -0.8794130512        1.8021999914       -0.7203795391
 C         -2.0143660879        1.2753796346       -1.4574242575
 H         -1.6615615615        0.3387871386       -1.9036386104
 C         -2.4684179337        2.2160407708       -2.5719673152
 C         -3.1711103664        0.9760031269       -0.5215167500
 C         -3.3866022485        1.7872323490        0.5641067818
 C         -4.4368735756        1.5481403255        1.4590273982
 C         -5.2749870877        0.4899630640        1.2599576698
 C         -5.1054302410       -0.3590794497        0.1472799701
 C         -5.9708240817       -1.4528546327       -0.0638416075
 C         -5.8127719947       -2.2773672824       -1.1404032063
 C         -4.7814021184       -2.0331451055       -2.0576676623
 C         -3.9257154835       -0.9817731401       -1.8811483057
 C         -4.0473514851       -0.1153276470       -0.7720068528
 C         -0.0612093674        1.0356481317        0.0363941001
 Ni        -0.2834145224       -1.0412138930        0.3645380852
 C          1.0580967368       -1.7791420879        1.3000593460
 O          1.8123375024       -2.4196773640        1.8736083422
 C         -1.7920614158       -1.1222053929        1.3254341448
 O         -2.7096425287       -1.2039409175        1.9969751162
 C         -0.3909331230       -1.8138213898       -1.2397090737
 O         -0.4460994460       -2.3785280619       -2.2320210447
 H          7.0390193202       -1.1515285335        1.7814555806
 H          5.6504993629       -1.5734554457        2.7935139604
 H          6.8703127560       -0.4455283368        3.3777126396
 H          6.2239868527        1.1266111338        1.4940094933
 H          4.0426747048        0.4418715300        3.5157976527
 H          4.3423596888        2.0254442219        2.7864256191
 H          5.5224880833        1.3250365287        3.8856057751
 H          5.6442639327       -1.8091453418        0.2777954119
 H          6.1400993819       -0.3539767142       -0.5930581591
 H          3.5592577343       -1.9267656640       -1.0196524003
 H          4.9830573287       -1.9598544077       -2.0626486127
 H          3.5563962362       -1.1194155007       -4.0131318923
 H          2.6180335716        0.3641284971       -3.8275378686
 H          2.1381514487       -1.0980213712       -2.9636992014
 H          2.2263980229        0.1030563774       -0.7792713814
 H          2.6597499613        1.6070834742       -1.6105164603
 H          1.8066438034        2.1411107874        2.3784487136
 H          1.9351026089        0.5216066244        1.6318395691
 H          1.1834584078        4.0055681545        0.4543240477
 H         -1.0197842174        3.8979461306       -1.1804122925
 H         -3.2113240871        1.7072244847       -3.1809646195
 H         -1.6306912047        2.4962365088       -3.2075224283
 H         -2.9312206960        3.1117257906       -2.1634505271
 H         -2.7287794154        2.6242564245        0.7535326658
 H         -4.5663007394        2.2028526779        2.3081349303
 H         -6.0800559430        0.2850338422        1.9506021809
 H         -6.7632698507       -1.6256996704        0.6504271621
 H         -6.4754941648       -3.1163282416       -1.2931112340
 H         -4.6638287075       -2.6858675236       -2.9103755505
 H         -3.1479764896       -0.8214124539       -2.6118120602
  70
       -106.38542914
 C          6.8372146139       -0.1430284924        0.4301811003
 C          5.4471703165       -0.2044061916       -0.2075074839
 C          5.2571110138        1.0579587184       -1.0461815937
 C          4.3790026017       -0.4403167696        0.8886755549
 H          4.6349813146        0.1729876761        1.7584187254
 C          4.4080558115       -1.9237502495        1.2789594922
 C          3.4363726699       -2.2571436451        2.4011243933
 C          2.0100064092       -1.9557276948        1.9577199344
 H          1.7714295366       -2.5768509880        1.0874855401
 C          1.0094941761       -2.2591496514        3.0690515353
 C          1.9175081396       -0.4891079630        1.5515786634
 C          2.9426374712       -0.0533959436        0.4925958206
 H          2.6959927390       -0.5080197856       -0.4770841270
 O          2.8815195914        1.3736304739        0.3784316409
 C          1.9930795879        1.8939695336       -0.5423591257
 N          0.6209098730        1.9140640353       -0.0675822479
 C          0.2710512554        2.4714642408        1.1322404846
 C         -1.0581546635        2.2785631346        1.2743670867
 N         -1.4841390006        1.6132169218        0.1571185934
 C         -2.8822597661        1.2747811887       -0.0585878303
 H         -2.9145896053        0.5898815763       -0.9144976973
 C         -3.6413186659        2.5394512395       -0.4586129098
 C         -3.4176887271        0.5522961693        1.1615843352
 C         -4.2793628432        1.1663345434        2.0342565754
 C         -4.7729065015        0.5028891596        3.1667156211
 C         -4.4020941803       -0.7842469971        3.4235840760
 C         -3.5185569281       -1.4595668576        2.5567271211
 C         -3.1395152855       -2.7950375621        2.8086036243
 C         -2.2876928020       -3.4543562351        1.9695184874
 C         -1.7725527766       -2.7952404553        0.8443050283
 C         -2.1189049410       -1.5004762663        0.5742415980
 C         -3.0067220348       -0.7888794470        1.4115982109
 C         -0.4577938705        1.3799523500       -0.6867006556
 Ni        -0.4456803185        0.4204861800       -2.5686728453
 C         -2.1042250855        0.1832895088       -3.2209716926
 O         -3.0770561049        0.0134935445       -3.7938239932
 C          0.3925379732        1.5585508877       -3.6715622201
 O          0.8732676308        2.3013301730       -4.3920433280
 C          0.3680947573       -1.1226148473       -2.1933639061
 O          0.8486789694       -2.1083601750       -1.8722264908
 H          7.6005299928       -0.0693649382       -0.3411704419
 H          7.0504883445       -1.0250853263        1.0273906742
 H          6.9146991779        0.7327896592        1.0710084475
 H          5.4162650261       -1.0623277786       -0.8899436058
 H          5.1736040168        1.9343891101       -0.4101782618
 H          4.3715704688        0.9938242961       -1.6712113513
 H          6.1162884518        1.1853880451       -1.7025501438
 H          5.4175809983       -2.2002757120        1.5830408005
 H          4.1512972458       -2.5214331533        0.4004215565
 H          3.6756334773       -1.6638690519        3.2865683223
 H          3.5297456484       -3.3118941939        2.6682543887
 H         -0.0023534699       -2.0142110962        2.7552474340
 H          1.2438953899       -1.6771301263        3.9581778740
 H          1.0414325842       -3.3137807955        3.3325110510
 H          2.0740648505        0.1374361256        2.4337013207
 H          0.9116227902       -0.2917810881        1.1744694529
 H          1.9943093735        1.3333203080       -1.4923134922
 H          2.3150261331        2.9279711089       -0.7250073945
 H          0.9960544056        2.9326754515        1.7696287124
 H         -1.7234629563        2.5438172609        2.0695740718
 H         -4.6952641315        2.3161636059       -0.5988101215
 H         -3.2364377727        2.9076880008       -1.3994107702
 H         -3.5341477201        3.3246919805        0.2860665255
 H         -4.6034860179        2.1804748109        1.8606441241
 H         -5.4503509921        1.0234341484        3.8273481491
 H         -4.7797851850       -1.3067720670        4.2905011989
 H         -3.5422857750       -3.2868349871        3.6825820848
 H         -2.0037379196       -4.4773799599        2.1662481589
 H         -1.0936459969       -3.3177330802        0.1869319259
 H         -1.6968915563       -1.0266813666       -0.3004559956
  70
       -106.38539715
 C          5.7995250241        2.0538646538        0.7031394046
 C          5.6085932475        0.6299948425        0.1822618306
 C          5.5004195186        0.6401767337       -1.3410101705
 C          4.4248326040       -0.0772885696        0.8811756407
 H          4.3907332100        0.2859076843        1.9138041867
 C          4.6440398070       -1.5931821102        0.9117708192
 C          3.5484783084       -2.3038300659        1.6969476073
 C          2.1762485965       -2.0166795549        1.0932915699
 H          2.1594945449       -2.3952458764        0.0645447925
 C          1.0729637002       -2.7112794397        1.8841195594
 C          1.9449187736       -0.5075474988        1.0498152946
 C          3.0484312997        0.2040359335        0.2603882947
 H          3.0284057707       -0.1695043405       -0.7736190613
 O          2.8491470070        1.6191252678        0.2388203292
 C          1.9240314085        2.1075246967       -0.6674377476
 N          0.5855371561        2.2013262258       -0.1181354925
 C          0.3115385589        3.0244909546        0.9385292751
 C         -1.0080101519        2.9000980496        1.1966808121
 N         -1.5074960090        1.9977165627        0.2941178539
 C         -2.9056071763        1.6036849470        0.1875439145
 H         -3.1992824402        1.8239221628       -0.8483918417
 C         -3.8176558137        2.4136817876        1.1095734603
 C         -3.1512343495        0.1203996302        0.4095111011
 C         -3.9632716543       -0.5168120331       -0.4993743944
 C         -4.3244024814       -1.8613336773       -0.3558785646
 C         -3.8701735018       -2.5752628504        0.7144591399
 C         -3.0512899166       -1.9640179737        1.6851671072
 C         -2.6050505941       -2.6962595049        2.8055079929
 C         -1.8293206620       -2.1143164069        3.7659942418
 C         -1.4603111010       -0.7690992449        3.6342691993
 C         -1.8699007165       -0.0344054027        2.5566834499
 C         -2.6806390192       -0.5956975989        1.5449492271
 C         -0.5303518875        1.5575672686       -0.5326020052
 Ni        -0.7239011284        0.1620564541       -2.1007099618
 C         -2.0376976705        0.8045678739       -3.1248953405
 O         -2.8506582341        1.2138522711       -3.8155841519
 C          0.7760250292       -0.0379813160       -3.0737500940
 O          1.6305203898       -0.3230744962       -3.7779105434
 C         -1.0587849164       -1.3843816681       -1.2739632778
 O         -1.2071781256       -2.3989645545       -0.7729948417
 H          6.6467353604        2.5241720643        0.2081561550
 H          5.9908400439        2.0462553038        1.7740433258
 H          4.9096498452        2.6461783408        0.5161904560
 H          6.5090204005        0.0609470335        0.4457041257
 H          4.7032207719        1.3035814285       -1.6662529592
 H          5.3107062533       -0.3576090706       -1.7294471641
 H          6.4326375750        0.9978661448       -1.7733001162
 H          5.6140422801       -1.8066233338        1.3658117533
 H          4.6629131986       -1.9781557827       -0.1101275923
 H          3.5630821142       -1.9617842642        2.7346252709
 H          3.7346471857       -3.3799166692        1.6972967372
 H          1.2353282267       -3.7866184188        1.8995551085
 H          0.0998361319       -2.5181552794        1.4404646222
 H          1.0556319627       -2.3510400422        2.9105610254
 H          1.9164211891       -0.1041889816        2.0650080443
 H          0.9784011218       -0.3102903389        0.5781108936
 H          1.8669015544        1.4942623645       -1.5784674640
 H          2.2485694100        3.1249007033       -0.9285636075
 H          1.0724778269        3.6116085366        1.4087906180
 H         -1.6033169410        3.3885518006        1.9386585727
 H         -4.8475362906        2.1312391425        0.9047197097
 H         -3.7139071456        3.4806288566        0.9229773611
 H         -3.6169144815        2.2017077350        2.1568514262
 H         -4.3417600597        0.0298758772       -1.3518296223
 H         -4.9558200769       -2.3218463020       -1.1008640308
 H         -4.1330106630       -3.6157262278        0.8384425621
 H         -2.8948875507       -3.7340236297        2.8870932186
 H         -1.4953042468       -2.6809974215        4.6224219067
 H         -0.8439952404       -0.3097742377        4.3938640741
 H         -1.5589456760        0.9941896692        2.4917170997
  70
       -106.38539443
 C          5.8203483963        1.9739266696        0.7016556092
 C          5.5886789182        0.5742887675        0.1336996943
 C          5.4354629789        0.6439778404       -1.3841838018
 C          4.4141632987       -0.1393962195        0.8417013890
 H          4.4175021784        0.1848508987        1.8877620104
 C          4.6075093019       -1.6587798994        0.8085225322
 C          3.5238529924       -2.3812121329        1.5994236113
 C          2.1396309541       -2.0487287148        1.0488859030
 H          2.0859969752       -2.3868208194        0.0073471365
 C          1.0478630180       -2.7552704245        1.8450576115
 C          1.9335579382       -0.5355087742        1.0700779772
 C          3.0248484556        0.1876258983        0.2741597122
 H          2.9677046478       -0.1463997837       -0.7716659843
 O          2.8470910771        1.6054085660        0.3121866651
 C          1.9324539608        2.1467656071       -0.5740117687
 N          0.5889045997        2.2207293354       -0.0341390911
 C          0.3012770558        3.0130208889        1.0424001777
 C         -1.0203882340        2.8774278361        1.2833754942
 N         -1.5075545320        1.9987998607        0.3510745831
 C         -2.9035173315        1.6051736857        0.2179706902
 H         -3.1845844017        1.8499169496       -0.8159561794
 C         -3.8282105759        2.3915687720        1.1478339340
 C         -3.1498988493        0.1167120394        0.4009651190
 C         -3.9490877608       -0.4991814644       -0.5336432490
 C         -4.3107301049       -1.8470022491       -0.4271245435
 C         -3.8704952455       -2.5858757437        0.6320707594
 C         -3.0652753066       -1.9974412800        1.6279644849
 C         -2.6334772926       -2.7558311267        2.7365388660
 C         -1.8700227783       -2.1967916242        3.7202404593
 C         -1.4994291803       -0.8489659668        3.6248471542
 C         -1.8958109238       -0.0889482518        2.5599270775
 C         -2.6936013632       -0.6260748083        1.5250421595
 C         -0.5205717430        1.5849683817       -0.4775428983
 Ni        -0.6932136757        0.2274701370       -2.0810887268
 C         -1.9950034095        0.8926569073       -3.1061106304
 O         -2.8000770743        1.3176213905       -3.7966250817
 C          0.8199140982        0.0483393756       -3.0376374483
 O          1.6847133523       -0.2237448135       -3.7344246194
 C         -1.0353473871       -1.3382095589       -1.2941228642
 O         -1.1865871355       -2.3646439982       -0.8189413165
 H          6.6592594615        2.4495239301        0.1976608760
 H          6.0454680534        1.9220197607        1.7647311692
 H          4.9352026117        2.5871010150        0.5665442623
 H          6.4864119557       -0.0191576982        0.3478721104
 H          6.3616690046        0.9992600783       -1.8311585667
 H          4.6431057139        1.3348076783       -1.6605234834
 H          5.2135224130       -0.3344687472       -1.8035035337
 H          5.5868136423       -1.9052750431        1.2242317517
 H          4.5889791652       -2.0046463893       -0.2272942554
 H          3.5753113654       -2.0794572322        2.6483723213
 H          3.6912861461       -3.4594110483        1.5533444799
 H          1.1944530883       -3.8326506418        1.8184068562
 H          0.0664142622       -2.5330029328        1.4346587137
 H          1.0633310555       -2.4313794381        2.8836329414
 H          1.9435903225       -0.1708984696        2.1001382421
 H          0.9568353505       -0.3040730557        0.6367510234
 H          1.8793869776        1.5830469241       -1.5169064951
 H          2.2657392046        3.1742488195       -0.7776154588
 H          1.0549691802        3.5896275969        1.5367489060
 H         -1.6249600030        3.3435038215        2.0322448974
 H         -3.7227477900        3.4628511458        0.9892078988
 H         -3.6411443155        2.1537166009        2.1920828409
 H         -4.8551059362        2.1138826373        0.9224860179
 H         -4.3169304015        0.0675419342       -1.3776329750
 H         -4.9318403502       -2.2899541981       -1.1911704941
 H         -4.1343557073       -3.6290395185        0.7279869710
 H         -2.9240959798       -3.7952139708        2.7898983758
 H         -1.5465045375       -2.7835903827        4.5670652052
 H         -0.8924166320       -0.4078688274        4.4024606708
 H         -1.5841716563        0.9408133014        2.5231034916
  70
       -106.38539208
 C          5.6952979169        2.2040759787        1.0438303532
 C          5.5308765408        0.6850598206        1.0699334017
 C          5.7470817611        0.1113852119       -0.3286886042
 C          4.1847904522        0.2695909220        1.7065494241
 H          3.9563653521        0.9977663402        2.4920542485
 C          4.2974754929       -1.1147354025        2.3529249315
 C          3.0190120274       -1.4968116863        3.0886990013
 C          1.8243408532       -1.4922349976        2.1384912689
 H          1.9990425652       -2.2355385220        1.3518081957
 C          0.5388595569       -1.8559133792        2.8736466119
 C          1.7028823644       -0.1196858263        1.4793099122
 C          2.9903469427        0.2608611725        0.7411682271
 H          3.1645223623       -0.4801213718       -0.0527513568
 O          2.8924414788        1.5549538027        0.1429382599
 C          2.1703737530        1.6461600576       -1.0347631124
 N          0.7724322697        1.9625280352       -0.8160715961
 C          0.4005434940        3.1262784023       -0.2025566934
 C         -0.9492012565        3.1309080566       -0.1628844587
 N         -1.3692926757        1.9653702494       -0.7488249602
 C         -2.7595076738        1.5829454451       -0.9544628994
 H         -2.8645348114        1.4080036599       -2.0344082065
 C         -3.7388974240        2.6916125108       -0.5676571812
 C         -3.1565031743        0.2918856538       -0.2577727144
 C         -3.8618832064       -0.6238985420       -1.0029611475
 C         -4.3479863553       -1.8136219372       -0.4488460498
 C         -4.1282369363       -2.0873737569        0.8696586298
 C         -3.4281722786       -1.1728333669        1.6820393481
 C         -3.2261800893       -1.4447954025        3.0515927026
 C         -2.5706442632       -0.5599313146        3.8578910486
 C         -2.0799790424        0.6354187095        3.3160744702
 C         -2.2518486254        0.9245756543        1.9911074412
 C         -2.9320346471        0.0404008265        1.1242093431
 C         -0.3111585993        1.2305896972       -1.1641331312
 Ni        -0.3631259973       -0.6409058032       -2.1328411600
 C         -0.9523899511       -1.7699415598       -0.8821694091
 O         -1.2631596081       -2.5261627004       -0.0858691834
 C         -1.4385729989       -0.3977159523       -3.5370627389
 O         -2.0935481025       -0.2580831567       -4.4627661895
 C          1.2514461980       -1.2063463108       -2.6889245252
 O          2.1813522834       -1.7398932209       -3.0861760320
 H          5.6528644548        2.6102462019        2.0521724703
 H          4.9048263793        2.6584805115        0.4553718011
 H          6.6564388378        2.4701106008        0.6086492237
 H          6.3183964039        0.2809874839        1.7184256990
 H          6.7687179924        0.3025528890       -0.6504715723
 H          5.0761517642        0.5792058327       -1.0444884265
 H          5.5856156085       -0.9638841918       -0.3429050663
 H          5.1350546669       -1.1167233232        3.0536765909
 H          4.5065832755       -1.8596884388        1.5821199029
 H          2.8372446689       -0.7848057200        3.8974031201
 H          3.1328331437       -2.4870271886        3.5349290403
 H          0.3340764773       -1.1343185044        3.6616042052
 H          0.6242305816       -2.8422565283        3.3239837785
 H         -0.3077156702       -1.8625282762        2.1921975718
 H          1.4867981630        0.6398959037        2.2346817326
 H          0.8711239525       -0.1396693099        0.7695810228
 H          2.2144184189        0.7197604181       -1.6253319082
 H          2.6127345018        2.4711301355       -1.6115369872
 H          1.1219290784        3.8326522057        0.1517332150
 H         -1.6140855264        3.8718757650        0.2274713732
 H         -3.5213040890        3.6110648847       -1.1073131206
 H         -3.7255073410        2.8808048066        0.5028847203
 H         -4.7421963893        2.3692638537       -0.8357577131
 H         -4.0545500820       -0.4262133658       -2.0482514952
 H         -4.8875120239       -2.5074853934       -1.0759278142
 H         -4.4894184841       -3.0038756632        1.3130430928
 H         -3.6068875849       -2.3741005128        3.4504219831
 H         -2.4243695332       -0.7738451322        4.9062732559
 H         -1.5591959179        1.3345944548        3.9547364214
 H         -1.8540223447        1.8513924349        1.6147052733
  70
       -106.38521316
 C          3.3405168160        4.1611118316       -0.0490516197
 C          4.2124714007        3.2407505632        0.8037633255
 C          5.4995096934        3.9663406924        1.1932126545
 C          4.5207104171        1.8846685254        0.1352498620
 H          5.2760007817        1.3896076544        0.7552800098
 C          5.0655478583        2.0096401883       -1.2876335794
 C          5.4330448698        0.6423422712       -1.8534085716
 C          4.2048092740       -0.2635417298       -1.8859885632
 H          3.4452452837        0.2047518198       -2.5238215062
 C          4.5384573305       -1.6381063751       -2.4576530343
 C          3.6301349550       -0.3998371404       -0.4772318230
 C          3.2928249982        0.9607832519        0.1331233375
 H          2.4885718955        1.4211723917       -0.4622768118
 O          2.8677470063        0.8591456063        1.4968269211
 C          1.7581612475        0.0669657357        1.7682628581
 N          0.5946922889        0.4678601391        1.0087814502
 C          0.1822532827        1.7724593721        0.9499161011
 C         -0.8709179015        1.8059288490        0.1049996021
 N         -1.0783253083        0.5227356818       -0.3199102515
 C         -2.1055945920        0.1792319472       -1.2925398728
 H         -2.3028521654       -0.8958385318       -1.1833835847
 C         -1.5384456254        0.4089262566       -2.6933595906
 C         -3.3771416544        0.9390354646       -0.9745119553
 C         -3.8653939094        1.9085952748       -1.8126579816
 C         -5.0333464950        2.6219928814       -1.5059932275
 C         -5.7104895671        2.3679136955       -0.3496801282
 C         -5.2498154001        1.3796483106        0.5445850448
 C         -5.9431825786        1.1060554435        1.7421651769
 C         -5.5011476678        0.1459765790        2.6068840833
 C         -4.3450779472       -0.5856611468        2.3019513283
 C         -3.6505095597       -0.3428650093        1.1498723722
 C         -4.0714427512        0.6469131001        0.2348951085
 C         -0.1732697385       -0.3210815830        0.2212531806
 Ni        -0.1291536747       -2.4376528447        0.0979365840
 C         -0.8054993803       -2.9256701728       -1.4887721181
 O         -1.1482684284       -3.3257307279       -2.5018477786
 C          1.5159940205       -3.1555271053        0.1861865351
 O          2.4577942833       -3.8001790311        0.2141377431
 C         -1.0565914928       -2.8778316691        1.5569551581
 O         -1.6060251131       -3.1269333168        2.5257966832
 H          3.0389993027        5.0274648071        0.5363668417
 H          2.4400149344        3.6544755317       -0.3881116898
 H          3.8870286015        4.5186956167       -0.9182640839
 H          3.6694547588        3.0082043058        1.7250787706
 H          6.0722468788        4.2475660507        0.3126319667
 H          6.1217814014        3.3355103435        1.8233870161
 H          5.2646244630        4.8737660768        1.7451512124
 H          5.9456991662        2.6533609911       -1.2860996525
 H          4.3114654461        2.4655597651       -1.9316145738
 H          6.2064266691        0.1823912485       -1.2343291262
 H          5.8352344349        0.7558076475       -2.8624440069
 H          3.6504722172       -2.2657320538       -2.4864441737
 H          5.2879968230       -2.1333951265       -1.8442465242
 H          4.9276661743       -1.5473644830       -3.4691801510
 H          4.3488530805       -0.9088595925        0.1693597755
 H          2.7230553780       -1.0078425690       -0.5319024765
 H          1.5651687145        0.2075184929        2.8397107023
 H          1.9276436067       -1.0032155521        1.5735355569
 H          0.6770292984        2.5445695386        1.5018017058
 H         -1.4874298866        2.6206415325       -0.2141385105
 H         -1.2348216167        1.4443817855       -2.8323218172
 H         -2.2718625161        0.1410978644       -3.4486068951
 H         -0.6616998401       -0.2230865316       -2.8237127052
 H         -3.3576584938        2.1434853287       -2.7345486083
 H         -5.3844857883        3.3752528012       -2.1956726490
 H         -6.6080829890        2.9157140189       -0.1018003603
 H         -6.8365867660        1.6741441527        1.9595398054
 H         -6.0372795852       -0.0584812968        3.5217842578
 H         -4.0034402304       -1.3501150379        2.9841498207
 H         -2.7681763636       -0.9294062149        0.9436585484
  70
       -106.38520447
 C          7.1084385825        0.7108220941        1.3742450632
 C          5.9162739982        0.3227707206        0.4963592951
 C          5.8348239537        1.3206688644       -0.6574698563
 C          4.6381455735        0.2079768725        1.3636251017
 H          4.6222308413        1.0434889668        2.0706357643
 C          4.6953571645       -1.1172958462        2.1354189793
 C          3.4849412565       -1.3411095969        3.0305189206
 C          2.2177216127       -1.3732955901        2.1845503292
 H          2.3048838059       -2.1811152409        1.4490420342
 C          0.9787404524       -1.6234830692        3.0378943141
 C          2.0977945257       -0.0487911164        1.4400737893
 C          3.3198809700        0.2827729567        0.5730742175
 H          3.3639792664       -0.4141224264       -0.2775668423
 O          3.1923182436        1.6203080019        0.0808939647
 C          2.3476471926        1.8201751568       -0.9969270437
 N          0.9823742131        2.1103884348       -0.6013848815
 C          0.6734055184        3.2122843662        0.1479949549
 C         -0.6656492873        3.1970025686        0.3295201508
 N         -1.1404257821        2.0907678401       -0.3204825723
 C         -2.5306080643        1.6780025494       -0.3792402757
 H         -2.6588089666        1.2402989861       -1.3762814850
 C         -3.4850612639        2.8616700845       -0.2255950357
 C         -2.8347121770        0.6200870026        0.6656938681
 C         -2.1689480632        0.6346704235        1.8650651279
 C         -2.4293851635       -0.3188663989        2.8577546388
 C         -3.3606380696       -1.2921714564        2.6420905759
 C         -4.0783823390       -1.3408093223        1.4296678510
 C         -5.0424136854       -2.3450278035        1.2021596454
 C         -5.7411675505       -2.3967384815        0.0305199073
 C         -5.5029999634       -1.4377771926       -0.9636111792
 C         -4.5754102482       -0.4516148147       -0.7736904830
 C         -3.8275192608       -0.3687198121        0.4218395220
 C         -0.1296989803        1.3982946613       -0.8931703777
 Ni        -0.3340019279       -0.4714173060       -1.8523165948
 C         -1.0133197531       -1.5401260824       -0.5889353006
 O         -1.3336552468       -2.3038588673        0.1962432059
 C         -1.3929785395       -0.1676644272       -3.2594025476
 O         -2.0581527889        0.0124660039       -4.1700587255
 C          1.2395117893       -1.1683806813       -2.3575012148
 O          2.1543808992       -1.7556752973       -2.7109335997
 H          6.9597921946        1.7066216335        1.7865968854
 H          8.0214371230        0.7199480124        0.7830738492
 H          7.2512496849        0.0160389050        2.1969796961
 H          6.1117898207       -0.6659409851        0.0640659089
 H          6.8074150655        1.3886395628       -1.1421562612
 H          5.5580357319        2.3060829255       -0.2941808711
 H          5.1113466679        1.0100713358       -1.4052740075
 H          5.6004471066       -1.1444010463        2.7423373337
 H          4.7545472601       -1.9379209170        1.4155364324
 H          3.4121536003       -0.5371045239        3.7665183892
 H          3.5993403714       -2.2827894137        3.5717318635
 H          0.8643540823       -0.8345912531        3.7789887307
 H          1.0617410201       -2.5743609353        3.5593767638
 H          0.0844260449       -1.6478527907        2.4196563672
 H          1.9673797155        0.7631401594        2.1610416942
 H          1.2119438340       -0.0813497405        0.7988160461
 H          2.3172896419        0.9556658836       -1.6762163080
 H          2.7340418130        2.6967485171       -1.5355880306
 H          1.4268251062        3.8928730385        0.4857270577
 H         -1.2943051633        3.8827170944        0.8567722344
 H         -4.4960231601        2.5342213827       -0.4536585719
 H         -3.2159634646        3.6645338421       -0.9091379902
 H         -3.4811660678        3.2377606175        0.7950644403
 H         -1.4147228803        1.3843401809        2.0587191913
 H         -1.8820356369       -0.2763670288        3.7874389925
 H         -3.5619787138       -2.0404489745        3.3948396682
 H         -5.2136934614       -3.0772345540        1.9783928041
 H         -6.4748908900       -3.1708185078       -0.1391740059
 H         -6.0582911688       -1.4836485980       -1.8890825637
 H         -4.4198735336        0.2686805800       -1.5618887348
  70
       -106.38514170
 C          5.5834491712       -0.9564049655       -1.3620881087
 C          5.1694661706        0.2082492739       -0.4658847957
 C          6.4105757325        0.8866478950        0.1129371730
 C          4.1853116248       -0.1941368781        0.6516366380
 H          4.1142893940        0.6573912655        1.3411641813
 C          4.6308630577       -1.4111377572        1.4653501272
 C          3.6633168342       -1.6875940516        2.6121995168
 C          2.2496384668       -1.9389213857        2.0880827636
 H          2.2662846644       -2.8262270306        1.4461812115
 C          1.2736809466       -2.1824719117        3.2357273336
 C          1.8015185773       -0.7421858122        1.2500881185
 C          2.7764165455       -0.4825826598        0.1000290721
 H          2.8217785976       -1.3773099862       -0.5293727042
 O          2.3215317107        0.5120619137       -0.8198785511
 C          1.9702089465        1.7575289743       -0.3261523383
 N          0.5940517935        1.8109946928        0.1401636223
 C          0.2196207929        2.2734476970        1.3729924289
 C         -1.1204514206        2.1223624188        1.4539005696
 N         -1.5261727852        1.5675543946        0.2719655711
 C         -2.9216436875        1.2673020676       -0.0107824163
 H         -2.9319480427        0.6044889601       -0.8857789220
 C         -3.6355166084        2.5597813062       -0.4031769916
 C         -3.5116437066        0.5276378500        1.1732389049
 C         -4.4494182530        1.1081660610        1.9882981624
 C         -4.9667170233        0.4363395522        3.1054767978
 C         -4.5329353129       -0.8195070377        3.4134211577
 C         -3.5728809303       -1.4614327409        2.6042618878
 C         -3.1235231196       -2.7633761187        2.9096662611
 C         -2.2032721853       -3.3927020503        2.1210696070
 C         -1.6985868160       -2.7411944418        0.9865031455
 C         -2.1110127748       -1.4773758470        0.6665610936
 C         -3.0541669254       -0.7905936055        1.4627419908
 C         -0.4813308297        1.3773252924       -0.5592163601
 Ni        -0.4194367359        0.5493730134       -2.4859882512
 C         -2.0292139023        0.7179520683       -3.2726101883
 O         -2.9866186872        0.8326963362       -3.8869832617
 C          0.8227626049        1.4455599051       -3.4082546621
 O          1.6415064483        1.9421752395       -4.0286588267
 C          0.1877454261       -1.0953786377       -2.1808976076
 O          0.6699792851       -2.1012565238       -1.9355138380
 H          6.1773649351       -0.5826143732       -2.1931865902
 H          4.7123586491       -1.4589703013       -1.7728655690
 H          6.1857830947       -1.6779464939       -0.8157534901
 H          4.6476304632        0.9383390943       -1.0950658298
 H          6.9873645958        0.1911136453        0.7181058852
 H          6.1376817019        1.7383294037        0.7332342237
 H          7.0500491722        1.2433796396       -0.6910044825
 H          5.6306050214       -1.2395744993        1.8668606458
 H          4.6697690889       -2.2882112963        0.8183914700
 H          3.6474031379       -0.8331104840        3.2939478868
 H          4.0052465830       -2.5562331816        3.1787684901
 H          1.2465079477       -1.3219026856        3.9016498669
 H          1.5754662120       -3.0524773759        3.8143270991
 H          0.2685666972       -2.3510064873        2.8559915465
 H          1.7479726695        0.1349984400        1.8998005225
 H          0.8036035677       -0.9242597506        0.8448434287
 H          2.0818362699        2.4559133529       -1.1668078752
 H          2.6123032727        2.0867362528        0.5018600764
 H          0.9215783380        2.6717211860        2.0770376016
 H         -1.8036968007        2.3480915021        2.2462397664
 H         -4.6822172192        2.3628839357       -0.6173126628
 H         -3.1675509128        2.9578469089       -1.3015439982
 H         -3.5604260517        3.3110380357        0.3799111908
 H         -4.8128749419        2.1026620948        1.7830077873
 H         -5.7066024255        0.9292248439        3.7187306988
 H         -4.9186025732       -1.3425234528        4.2765779702
 H         -3.5283822307       -3.2550307332        3.7828405638
 H         -1.8643435026       -4.3899960712        2.3600684525
 H         -0.9786636259       -3.2462746492        0.3591557438
 H         -1.7068771275       -1.0116996191       -0.2205415785
  70
       -106.38511546
 C          6.8784654972        1.4155660609        1.1539380330
 C          5.4161063725        1.6825308348        0.7950753750
 C          5.0113174637        3.0257462297        1.4043642628
 C          4.4408090039        0.5691046294        1.2506226077
 H          4.0645164707        0.8303607077        2.2447347333
 C          5.0845272555       -0.8198122241        1.3282397376
 C          4.0923259362       -1.8774854510        1.8021140413
 C          2.8894326590       -1.9554583871        0.8673360668
 H          3.2429835226       -2.2258980946       -0.1343400582
 C          1.8907230872       -3.0109713037        1.3279744903
 C          2.2330597819       -0.5795068405        0.7912777762
 C          3.2326387774        0.4698665737        0.3019466792
 H          3.5990208097        0.1735645711       -0.6949664935
 O          2.6323698321        1.7601247520        0.1857802615
 C          1.7555537330        1.9489928947       -0.8719321127
 N          0.3673758586        1.7948319979       -0.4815153482
 C         -0.1960524910        2.6076780253        0.4648282207
 C         -1.4973136023        2.2576941845        0.5522617322
 N         -1.6923796312        1.2389119653       -0.3384136084
 C         -3.0076440817        0.6760116820       -0.6059410218
 H         -2.8488749369       -0.3176494911       -1.0475382386
 C         -3.6930857396        1.5413230047       -1.6641111882
 C         -3.7753862878        0.5206234359        0.6909694557
 C         -4.9085415170        1.2516784599        0.9428550712
 C         -5.6246849327        1.1080342362        2.1398800911
 C         -5.2025869469        0.2260987950        3.0904115880
 C         -4.0430025740       -0.5479978499        2.8801152069
 C         -3.6035760512       -1.4669203067        3.8557694067
 C         -2.4850101058       -2.2231404548        3.6539812046
 C         -1.7566722608       -2.0829964602        2.4648503858
 C         -2.1521205166       -1.1960306745        1.5025163601
 C         -3.3093280372       -0.4035802624        1.6702505941
 C         -0.5466988302        0.9324287285       -0.9845450654
 Ni        -0.2822194506       -0.5695438436       -2.4572975737
 C         -0.9148698161        0.2430695641       -3.9159292343
 O         -1.2942492768        0.8119474564       -4.8297881603
 C          1.4370225012       -1.0547861875       -2.6194661465
 O          2.4755377057       -1.5008411516       -2.7859606024
 C         -1.1628664785       -2.0458321025       -1.9549219574
 O         -1.6152525439       -3.0666019279       -1.7149708378
 H          7.4812879913        2.2706028640        0.8546289114
 H          7.2680450175        0.5389283165        0.6446561957
 H          6.9948558310        1.2824630851        2.2272454714
 H          5.3492523248        1.7627495492       -0.2955515365
 H          5.1525112914        3.0032822943        2.4833801677
 H          3.9697047624        3.2420754321        1.1942065793
 H          5.6248790472        3.8264460262        0.9965831618
 H          5.9251586323       -0.7974695622        2.0205807810
 H          5.4622547856       -1.0982757415        0.3416626565
 H          3.7491396765       -1.6308304734        2.8098640766
 H          4.5906233949       -2.8483214715        1.8473704106
 H          1.5314924980       -2.7781968307        2.3286895646
 H          2.3558601706       -3.9940077690        1.3501186140
 H          1.0405951356       -3.0487394535        0.6495683104
 H          1.8584902567       -0.2851906915        1.7747915875
 H          1.3808888294       -0.6226609904        0.1059870112
 H          1.9500972295        1.2654916889       -1.7108608268
 H          1.8894518158        2.9864832851       -1.2118133683
 H          0.3789190984        3.3434379837        0.9869823944
 H         -2.2864219870        2.6367132214        1.1681101717
 H         -4.6753375264        1.1430448017       -1.9017454601
 H         -3.0895316588        1.5291473694       -2.5693831460
 H         -3.7872067960        2.5728896254       -1.3316724836
 H         -5.2787066904        1.9574376806        0.2167681175
 H         -6.5122182383        1.7033065143        2.2953756967
 H         -5.7477489008        0.1050623149        4.0152645190
 H         -4.1762557830       -1.5612246005        4.7674959546
 H         -2.1560146009       -2.9293909469        4.4019299840
 H         -0.8757868669       -2.6864563976        2.3089556479
 H         -1.5609469196       -1.1103248939        0.6037531654
  70
       -106.38510030
 C          6.8600682193        1.1754537215        1.5983266630
 C          5.4601484302        1.4672825554        1.0564218646
 C          5.1215282327        2.9261227420        1.3668987204
 C          4.3598142283        0.5288091700        1.6109275632
 H          3.9240066339        1.0000271605        2.4976101150
 C          4.8764304269       -0.8586427691        2.0076008283
 C          3.7626574738       -1.7392393865        2.5659757100
 C          2.6461379270       -1.9169699836        1.5422759366
 H          3.0664197316       -2.3926852261        0.6487973661
 C          1.5262995720       -2.8015293544        2.0780345447
 C          2.1121982684       -0.5416900422        1.1510650936
 C          3.2314152995        0.3324327179        0.5824286609
 H          3.6534892072       -0.1649972391       -0.3067373215
 O          2.7492132689        1.6156141780        0.1832936153
 C          1.9620922176        1.6595939516       -0.9567167416
 N          0.5426859501        1.6401392311       -0.6563491087
 C         -0.0270535596        2.5902753081        0.1470247517
 C         -1.3536867307        2.3380377992        0.1647151185
 N         -1.5576300591        1.2398829360       -0.6241941587
 C         -2.8873190762        0.7449968987       -0.9479022778
 H         -2.7754593758       -0.3033644429       -1.2539935424
 C         -3.4047145007        1.5180927114       -2.1613870347
 C         -3.7709460000        0.8023259763        0.2802467095
 C         -4.8318152731        1.6683335994        0.3587869897
 C         -5.6537779623        1.7204851687        1.4936328015
 C         -5.4105516369        0.8991786933        2.5548252852
 C         -4.3312919370       -0.0077607905        2.5230817447
 C         -4.0780354146       -0.8651478131        3.6140184925
 C         -3.0383834941       -1.7494159914        3.5840296136
 C         -2.2045570232       -1.8048455675        2.4588241819
 C         -2.4177393783       -0.9816919857        1.3880646614
 C         -3.4899623282       -0.0616554837        1.3776378276
 C         -0.3928398826        0.7876137346       -1.1359436401
 Ni        -0.0963215868       -0.8535015410       -2.4371131966
 C         -1.3398349074       -2.1138974232       -2.1521467596
 O         -2.0194975339       -3.0241843078       -2.0350652782
 C         -0.2205945123       -0.0281354689       -4.0126987007
 O         -0.3091798576        0.5773028519       -4.9762912264
 C          1.4853591632       -1.6401688270       -2.1293715409
 O          2.4377723742       -2.2564302917       -1.9950682315
 H          7.5556558530        1.9147279927        1.2063134469
 H          7.2147067247        0.1933466432        1.2994683767
 H          6.8760953820        1.2425051301        2.6839073472
 H          5.4909504709        1.3431741933       -0.0316783117
 H          5.1684199067        3.0994153997        2.4404424387
 H          4.1239544515        3.1693512038        1.0182379778
 H          5.8336670366        3.5910168834        0.8825540814
 H          5.6532393104       -0.7588262058        2.7646204617
 H          5.3132933493       -1.3449868804        1.1323137159
 H          3.3531633088       -1.2824084260        3.4702366614
 H          4.1732849598       -2.7133325479        2.8404805998
 H          1.0762019195       -2.3499177866        2.9601609183
 H          1.9104189857       -3.7821597138        2.3502393405
 H          0.7564839160       -2.9324402311        1.3201457480
 H          1.6788945697       -0.0446688571        2.0226181372
 H          1.3214531685       -0.6586853403        0.4043650884
 H          2.1729969752        0.8329238107       -1.6514675604
 H          2.1829719980        2.6152848262       -1.4543839790
 H          0.5612263488        3.3409873329        0.6317494427
 H         -2.1559646094        2.8354485564        0.6691975009
 H         -4.4000529988        1.1772222915       -2.4317242193
 H         -2.7371230767        1.3327332969       -3.0010948209
 H         -3.4243855156        2.5889534951       -1.9709595482
 H         -5.0595413772        2.3311604807       -0.4606596107
 H         -6.4792689612        2.4164911276        1.5130005970
 H         -6.0391845510        0.9280384434        3.4330154946
 H         -4.7296878608       -0.8084121801        4.4743672776
 H         -2.8520323361       -2.4081088035        4.4193867240
 H         -1.3873001505       -2.5093449947        2.4413674573
 H         -1.7486696449       -1.0472774075        0.5432436355
  70
       -106.38509685
 C          6.9029339548        1.1981972638        1.4149682784
 C          5.4926551283        1.4728616655        0.8911494250
 C          5.1773239953        2.9518246996        1.1203708832
 C          4.3976299102        0.5823922174        1.5292087124
 H          3.9905643598        1.1109270884        2.3970742032
 C          4.9107792353       -0.7846044927        1.9952034549
 C          3.8034470870       -1.6180999069        2.6329428965
 C          2.6605315136       -1.8446903244        1.6489998124
 H          3.0550097413       -2.3753710061        0.7750364913
 C          1.5468621532       -2.6863133967        2.2613026812
 C          2.1283994300       -0.4893370287        1.1915141903
 C          3.2396493161        0.3395317333        0.5444040688
 H          3.6309777626       -0.2116582935       -0.3272361358
 O          2.7575530361        1.6033732561        0.0881637535
 C          1.9331427931        1.5899449557       -1.0252211256
 N          0.5243821881        1.5752802319       -0.6754535602
 C         -0.0149269847        2.5146504525        0.1602424415
 C         -1.3405723264        2.2626201443        0.2214005776
 N         -1.5737980900        1.1755506503       -0.5748877313
 C         -2.9119729114        0.6788045654       -0.8585302224
 H         -2.8097679503       -0.3769035795       -1.1403490362
 C         -3.4517193690        1.4247996301       -2.0790282150
 C         -3.7677996953        0.7651094104        0.3866345289
 C         -4.8101519317        1.6517371846        0.4797722286
 C         -5.6033225549        1.7316537174        1.6333464411
 C         -5.3489092515        0.9181920750        2.6980670317
 C         -4.2881016287       -0.0097144595        2.6508900985
 C         -4.0238523753       -0.8593198044        3.7452897378
 C         -3.0028217389       -1.7643266376        3.6991069273
 C         -2.2000217222       -1.8502151896        2.5533607905
 C         -2.4234921051       -1.0349726630        1.4785627353
 C         -3.4768273050       -0.0930522457        1.4858095028
 C         -0.4287898955        0.7314080565       -1.1352490444
 Ni        -0.1373891129       -0.8566312793       -2.4956624905
 C         -1.5660583616       -1.9420422766       -2.5701782772
 O         -2.3676271589       -2.7430075383       -2.7117583996
 C          0.1108100377        0.0613503604       -4.0031049939
 O          0.2421049590        0.7231991402       -4.9237642395
 C          1.2563831269       -1.8494377902       -1.9655052144
 O          2.1033053670       -2.5679042709       -1.6992870033
 H          7.5956825976        1.9043331675        0.9616713436
 H          7.2401507776        0.1958245270        1.1676921433
 H          6.9471759605        1.3306935988        2.4937336660
 H          5.4943871399        1.2825310765       -0.1877681101
 H          5.2520957079        3.1891706156        2.1799963834
 H          4.1744604482        3.1860855013        0.7809548404
 H          5.8847559800        3.5773146873        0.5799359322
 H          5.7076806553       -0.6482880217        2.7251393415
 H          5.3204322241       -1.3270887704        1.1399768339
 H          3.4209156489       -1.1038732593        3.5179683189
 H          4.2119672338       -2.5783684966        2.9550911807
 H          1.1089521619       -2.1741650765        3.1160550855
 H          1.9331355096       -3.6470642752        2.5945071359
 H          0.7664399312       -2.8666704480        1.5250208688
 H          1.7225334619        0.0616455969        2.0436832959
 H          1.3175844889       -0.6402524100        0.4737238532
 H          2.1267044095        0.7314116718       -1.6869359023
 H          2.1320776272        2.5221607910       -1.5740753851
 H          0.5914502019        3.2576929564        0.6343768999
 H         -2.1235300868        2.7538602880        0.7609777708
 H         -4.4548144588        1.0840061477       -2.3192041882
 H         -2.8018932557        1.2141559329       -2.9273662350
 H         -3.4608175032        2.5000788863       -1.9147274376
 H         -5.0440903864        2.3094994822       -0.3420801843
 H         -6.4152145201        2.4430355334        1.6647677791
 H         -5.9547325705        0.9693684855        3.5911488008
 H         -4.6521348228       -0.7801669243        4.6210968342
 H         -2.8077955495       -2.4170175647        4.5371771865
 H         -1.3986771070       -2.5724392534        2.5244434893
 H         -1.7794954922       -1.1248193308        0.6164645625
  70
       -106.38507033
 C          6.4240221495       -0.6816718989        2.2815700229
 C          5.2421336252        0.2923673800        2.2520322811
 C          4.3256899127       -0.0452051569        3.4293273243
 C          4.5002296439        0.2645649792        0.8938810689
 H          3.9598231598       -0.6846798714        0.8132352611
 C          5.5036414140        0.3504310997       -0.2669565330
 C          4.8432097150        0.3822960310       -1.6406129083
 C          3.8917246143        1.5662810991       -1.7622625630
 H          4.4604143795        2.4943602596       -1.6323058161
 C          3.2065138043        1.5930270317       -3.1251299007
 C          2.8577143973        1.4561271048       -0.6479017014
 C          3.5020454589        1.4322755033        0.7412684330
 H          4.0537352183        2.3686843919        0.8935182864
 O          2.5016904621        1.5049447449        1.7643352372
 C          1.4988356854        0.5434924251        1.7765230447
 N          0.3754192998        0.9170192822        0.9354855228
 C         -0.1643343000        2.1731634312        0.9641630181
 C         -1.1593598703        2.1862473745        0.0505069741
 N         -1.2056198986        0.9361924397       -0.5020031014
 C         -2.1303849242        0.5903704681       -1.5698016382
 H         -2.1777932040       -0.5053390963       -1.6088123675
 C         -1.5420750156        1.0734293267       -2.8949847316
 C         -3.5072718543        1.1217679300       -1.2297036001
 C         -4.0908100620        2.1258578607       -1.9588410639
 C         -5.3563447116        2.6312134404       -1.6274126601
 C         -6.0347218709        2.1333442480       -0.5541192914
 C         -5.4771956256        1.0998336784        0.2267914830
 C         -6.1721539986        0.5780880365        1.3379042503
 C         -5.6368821968       -0.4253488487        2.0936548670
 C         -4.3819417905       -0.9529489684        1.7600310937
 C         -3.6828622713       -0.4686419636        0.6895189525
 C         -4.1990419224        0.5755209352       -0.1099743621
 C         -0.2572831900        0.1369829416        0.0291192629
 Ni         0.0927501258       -1.9249795470       -0.2769584597
 C         -0.4273797565       -2.5416344865        1.3147236208
 O         -0.8037907164       -2.8411679210        2.3499434033
 C         -0.8689849640       -2.5721312053       -1.6491256947
 O         -1.3684484323       -3.1214183605       -2.5166262297
 C          1.8044022113       -2.2147521908       -0.7101566676
 O          2.8461150144       -2.5255564256       -1.0623659746
 H          6.8190848727       -0.7442641535        3.2931939373
 H          7.2338836191       -0.3604086915        1.6334175042
 H          6.1050948631       -1.6778405032        1.9820822948
 H          5.6299054984        1.3070294204        2.4000097903
 H          4.9077123576       -0.0914657694        4.3475126170
 H          3.8534061923       -1.0142627239        3.2790329934
 H          3.5563132450        0.7073863821        3.5580508818
 H          6.1664534829       -0.5127378710       -0.2336843148
 H          6.1104306582        1.2507726188       -0.1388694534
 H          4.2879867646       -0.5436077224       -1.8019935674
 H          5.6166759010        0.4425925650       -2.4093190182
 H          2.6277145870        0.6835851434       -3.2743737044
 H          3.9431516745        1.6646154457       -3.9218508983
 H          2.5334267909        2.4444619628       -3.2007416729
 H          2.2834543010        0.5386517927       -0.8023193433
 H          2.1656115983        2.3014452362       -0.6942156096
 H          1.1466038487        0.4840803008        2.8157620620
 H          1.8395509442       -0.4507679304        1.4570777174
 H          0.2156089339        2.9317230215        1.6161255209
 H         -1.8358893063        2.9636070814       -0.2385604323
 H         -2.2033287568        0.8201312893       -3.7187467039
 H         -0.5866218052        0.5762459740       -3.0526742962
 H         -1.3691385120        2.1472835892       -2.8846866438
 H         -3.5835265117        2.5499100511       -2.8108729479
 H         -5.7812006443        3.4203804518       -2.2299704127
 H         -7.0073222014        2.5199892330       -0.2861149978
 H         -7.1418858577        0.9909760779        1.5773012730
 H         -6.1740709800       -0.8200736657        2.9433338694
 H         -3.9659407745       -1.7524050520        2.3553111774
 H         -2.7222222928       -0.9065904572        0.4615812098
  70
       -106.38491833
 C          6.6104541769       -0.0689769134        1.6539714118
 C          5.4219962761        0.8917482449        1.5489157222
 C          4.6917039455        0.8828648296        2.8928655869
 C          4.4927579706        0.5365188139        0.3633422048
 H          3.9732808263       -0.3983003460        0.5969642500
 C          5.3176510302        0.3175661682       -0.9148223594
 C          4.4658357853        0.0254949751       -2.1448437423
 C          3.4970906924        1.1703035104       -2.4136528264
 H          4.0697412736        2.0916784107       -2.5716334930
 C          2.6429031154        0.9046278137       -3.6490486148
 C          2.6234620663        1.3304852862       -1.1758065483
 C          3.4494990866        1.6380965202        0.0763494313
 H          3.9880613422        2.5823607071       -0.0746687776
 O          2.5923830337        1.9568641594        1.1800000453
 C          1.6451479455        1.0182508348        1.5731216911
 N          0.3983206162        1.1562222605        0.8451523824
 C         -0.2570842111        2.3551222755        0.7718872565
 C         -1.3470651887        2.1543891397       -0.0002112900
 N         -1.3307805395        0.8383830809       -0.3688026390
 C         -2.3236328953        0.2637151491       -1.2632912183
 H         -2.2719676335       -0.8280224347       -1.1368227393
 C         -1.9119170813        0.5878975123       -2.7000754172
 C         -3.7080690379        0.7419950618       -0.8706422660
 C         -4.4726697052        1.4956967441       -1.7245931138
 C         -5.7519863252        1.9441553429       -1.3654347680
 C         -6.2684789608        1.6391230621       -0.1409363277
 C         -5.5237179991        0.8661095602        0.7733370501
 C         -6.0512416755        0.5409903504        2.0405072184
 C         -5.3367020731       -0.2112682093        2.9281722627
 C         -4.0593799083       -0.6697333670        2.5785909753
 C         -3.5198668977       -0.3690929072        1.3589283028
 C         -4.2269217762        0.4061784325        0.4138569603
 C         -0.2538377513        0.2028208298        0.1404083395
 Ni         0.2416262668       -1.8483187296       -0.1407692231
 C          0.4062877023       -2.0639911149       -1.9045265280
 O          0.5863816824       -2.2600389246       -3.0153297216
 C          1.7724086092       -2.3122518371        0.6688374136
 O          2.7044879554       -2.7899852883        1.1264508575
 C         -1.0598376408       -2.8246469877        0.6113269984
 O         -1.7901701278       -3.5472253656        1.1070426504
 H          7.1485232501        0.1168130763        2.5810109263
 H          7.3131957113        0.0600529678        0.8362071239
 H          6.2661138199       -1.1009638629        1.6649825244
 H          5.8108923315        1.9023064684        1.3772269279
 H          4.2258098016       -0.0854395764        3.0661303477
 H          3.9313079786        1.6543743215        2.9333633646
 H          5.4003741957        1.0659352143        3.6980432444
 H          5.9935339028       -0.5230835109       -0.7655254757
 H          5.9209658484        1.2100833687       -1.1005835120
 H          3.8973563889       -0.8948720851       -1.9887164471
 H          5.1184654237       -0.1281452275       -3.0068424188
 H          2.0720639752       -0.0126460976       -3.5244787461
 H          3.2702171461        0.7983750016       -4.5309867293
 H          1.9463982969        1.7232001267       -3.8184590736
 H          2.0693443224        0.3978126765       -1.0291248837
 H          1.9018421385        2.1388967396       -1.3219664159
 H          1.4447876130        1.2142764368        2.6353435398
 H          1.9856991964       -0.0169530533        1.4571607765
 H          0.1186009987        3.2296407127        1.2605409906
 H         -2.1264087048        2.8229511631       -0.3024418209
 H         -1.8813799701        1.6622699118       -2.8681974709
 H         -2.5964527803        0.1275289707       -3.4066723668
 H         -0.9150565646        0.1902396646       -2.8780121733
 H         -4.1048154462        1.7604822059       -2.7026798841
 H         -6.3183863772        2.5337089623       -2.0710881527
 H         -7.2521407988        1.9808065256        0.1468458429
 H         -7.0388462351        0.9003717156        2.2927151048
 H         -5.7476986066       -0.4584217482        3.8957782965
 H         -3.4980934637       -1.2684591545        3.2807966361
 H         -2.5340359663       -0.7387014282        1.1254023677
  70
       -106.38491173
 C          3.8185636142        0.9857751254       -2.3981662680
 C          2.8533837344        1.2553405505       -1.2470086888
 C          2.2218215034        2.6369981361       -1.4100480657
 C          3.4893414607        1.1030180894        0.1493043313
 H          2.7494108274        1.4541790909        0.8791352908
 C          4.7609804342        1.9362620366        0.3344918756
 C          5.2967575536        1.8237933711        1.7585125454
 C          5.6090113326        0.3698680190        2.1097348722
 H          6.3781147505        0.0013282118        1.4222877300
 C          6.1325021414        0.2462401364        3.5379125220
 C          4.3448617578       -0.4685958272        1.9217212541
 C          3.8350715016       -0.3607739173        0.4822864963
 H          4.6380917170       -0.6864814935       -0.1892520700
 O          2.8044589021       -1.3010217313        0.1737994884
 C          1.7066430742       -1.4460400626        1.0107177321
 N          0.7033180883       -0.4053251696        0.8878371055
 C          0.5113218384        0.5896650404        1.8090951264
 C         -0.5246492528        1.3360011562        1.3673397815
 N         -0.9404288778        0.7756903111        0.1915879359
 C         -2.0603040889        1.2996688291       -0.5764930109
 H         -2.3690463566        0.5019269488       -1.2658222703
 C         -1.5779093008        2.4780680423       -1.4200849962
 C         -3.2079352760        1.6035518382        0.3657432435
 C         -3.6167734016        2.8901534114        0.6077725630
 C         -4.6633791751        3.1720877016        1.4977215461
 C         -5.2974928575        2.1593433823        2.1551495993
 C         -4.9148284405        0.8192146196        1.9401771059
 C         -5.5662744733       -0.2358167916        2.6127830468
 C         -5.2016303013       -1.5348890405        2.4025269426
 C         -4.1690242897       -1.8299125072        1.5017640999
 C         -3.5171006007       -0.8296932321        0.8357060273
 C         -3.8603312196        0.5262058433        1.0322972888
 C         -0.1912142699       -0.2993267111       -0.1241748168
 Ni        -0.3072192680       -1.5663835186       -1.8015767328
 C         -0.9900621900       -0.6556663423       -3.1811567559
 O         -1.3619790038       -0.1381990122       -4.1301476614
 C          1.3851392234       -2.0213072172       -2.2296389299
 O          2.4083441130       -2.3254600140       -2.6236843250
 C         -1.2772634761       -2.9547008668       -1.2463615494
 O         -1.8846858897       -3.8464522250       -0.8692597674
 H          4.2745590215        0.0044187129       -2.3023577732
 H          4.6012000168        1.7394099402       -2.4442702223
 H          3.2728923219        1.0092011071       -3.3391366167
 H          2.0500006350        0.5117560566       -1.3164386568
 H          1.5355087438        2.8498644217       -0.5924167174
 H          1.6677205646        2.6837857422       -2.3446373704
 H          2.9818263356        3.4147164567       -1.4337335666
 H          4.5494122114        2.9824430872        0.1106177756
 H          5.5285556928        1.5889863885       -0.3583071030
 H          4.5567322480        2.2142902307        2.4621130198
 H          6.2002036662        2.4288704456        1.8587043072
 H          6.3600254466       -0.7905604443        3.7747265416
 H          5.3919977691        0.6065497313        4.2494707919
 H          7.0391465425        0.8334771232        3.6625299909
 H          3.5872832609       -0.1045978435        2.6206303085
 H          4.5495984610       -1.5170790982        2.1516586803
 H          1.9875059847       -1.5095778319        2.0704286239
 H          1.2446294356       -2.3919053019        0.6971071247
 H          1.1021423547        0.6752997584        2.6982786330
 H         -1.0012416702        2.1943788804        1.7939825066
 H         -0.8035060184        2.1270849728       -2.0985627316
 H         -1.1553194579        3.2661275984       -0.8008147668
 H         -2.3971915220        2.8805678365       -2.0091104013
 H         -3.1386630887        3.7198068884        0.1116514014
 H         -4.9554569115        4.1997211531        1.6562604874
 H         -6.1014626569        2.3659206536        2.8467269543
 H         -6.3652209143        0.0081732040        3.2986492606
 H         -5.7055252094       -2.3377689627        2.9200830253
 H         -3.8898566237       -2.8590767790        1.3305749282
 H         -2.7311730495       -1.0958225295        0.1450860058
  70
       -106.38475580
 C          5.4703486861       -0.1378864910       -3.0768380466
 C          5.2254570154        1.2041115082       -2.3897147702
 C          6.4562212652        2.0960995678       -2.5468049543
 C          4.8207626276        1.0753441637       -0.9064276914
 H          4.8513084239        2.0838594360       -0.4786743269
 C          5.7488966883        0.1729445515       -0.0922590696
 C          5.3518121359        0.1601005351        1.3800192637
 C          3.9215426875       -0.3496814103        1.5363733838
 H          3.8701739290       -1.3685823218        1.1356846377
 C          3.4922682943       -0.3836443081        2.9998652068
 C          2.9751116254        0.5328776753        0.7256249311
 C          3.3736094925        0.5831661213       -0.7513213005
 H          3.2757912954       -0.4239544589       -1.1829443285
 O          2.5435507745        1.4778670703       -1.4967582306
 C          1.2359492424        1.0765638837       -1.7216834384
 N          0.3403950251        1.4941082530       -0.6589653552
 C          0.2403289494        2.8136564896       -0.3149651525
 C         -0.6574989494        2.8799148761        0.6892403542
 N         -1.0896293375        1.6006889909        0.9259247872
 C         -2.0594098998        1.3347445014        1.9820518933
 H         -2.5904424257        2.2844693065        2.1468105069
 C         -1.2792645007        1.0058533413        3.2564088905
 C         -3.1003756419        0.3067435874        1.5772453983
 C         -3.3990088144       -0.7558277980        2.3936111147
 C         -4.3584108524       -1.7134862793        2.0360004979
 C         -5.0239794439       -1.6084882777        0.8511148536
 C         -4.7905369296       -0.5094431661       -0.0000391148
 C         -5.4975639936       -0.3800559921       -1.2135077951
 C         -5.3023399865        0.6950537131       -2.0317272515
 C         -4.4043917428        1.7001241675       -1.6495666177
 C         -3.6971761960        1.5990269017       -0.4836943201
 C         -3.8390637277        0.4819150314        0.3700543562
 C         -0.4663525058        0.7223846903        0.1106861979
 Ni        -0.6324958802       -1.3759595338       -0.0711294095
 C          0.9339400186       -2.1388027826       -0.5107487176
 O          1.8639130297       -2.7846653969       -0.6733757338
 C         -1.0064492114       -2.1655572871        1.4919300586
 O         -1.1130126207       -2.8596475833        2.3930059070
 C         -1.9015060144       -1.4710751107       -1.3191145930
 O         -2.6803263628       -1.4549970941       -2.1527409420
 H          6.3680213822       -0.6153648632       -2.6918538861
 H          5.6041553504        0.0166820717       -4.1454438007
 H          4.6293241536       -0.8123379945       -2.9388988494
 H          4.3876113471        1.6972944231       -2.8928600031
 H          6.2895526121        3.0688432648       -2.0897630264
 H          6.6754083128        2.2476807044       -3.6013416964
 H          7.3293677323        1.6421653658       -2.0840071099
 H          6.7770772324        0.5230112926       -0.1907785739
 H          5.6978572455       -0.8465394331       -0.4773428879
 H          5.4244021324        1.1696705897        1.7917228200
 H          6.0362905510       -0.4800073916        1.9408174233
 H          3.5245235107        0.6153973208        3.4303741869
 H          4.1518018818       -1.0276124395        3.5768905773
 H          2.4768047386       -0.7639687529        3.0883451913
 H          2.9832676693        1.5507975202        1.1247259688
 H          1.9597929022        0.1372852302        0.8196584250
 H          1.1393696140       -0.0132619482       -1.8405413484
 H          0.9159383669        1.5731245641       -2.6481035893
 H          0.8196992240        3.5677858037       -0.8052264052
 H         -1.0243170756        3.7211491982        1.2419344331
 H         -0.5515764856        1.7940609850        3.4435016064
 H         -0.7422564446        0.0678049351        3.1378297952
 H         -1.9424332671        0.9440587898        4.1140743930
 H         -2.8894570457       -0.8859862704        3.3344137034
 H         -4.5468567712       -2.5411809077        2.7036551848
 H         -5.7450322455       -2.3550230929        0.5508626499
 H         -6.2003989610       -1.1557916936       -1.4823038852
 H         -5.8408969098        0.7840668302       -2.9635289720
 H         -4.2726707787        2.5645222851       -2.2846673466
 H         -3.0309471452        2.4044153552       -0.2184698582
  70
       -106.38461718
 C          4.3630756478        3.0215623357        0.0600977819
 C          3.1740663028        2.0653360343        0.1356223983
 C          2.4328079330        2.2525272760        1.4575577797
 C          3.5463847556        0.5806343056       -0.0640500157
 H          2.7002609480       -0.0127477705        0.3057329537
 C          4.7943342347        0.1676563461        0.7197878084
 C          5.1120855641       -1.3119843533        0.5377564713
 C          5.3579392814       -1.6252282301       -0.9364805703
 H          6.2025462430       -1.0208016358       -1.2874031540
 C          5.6915043682       -3.1000971898       -1.1397498649
 C          4.1144250498       -1.2411329195       -1.7358884822
 C          3.7476495871        0.2345450196       -1.5471928557
 H          4.5575599326        0.8517771358       -1.9532376603
 O          2.6470385408        0.5996440962       -2.3883758170
 C          1.4014962525        0.0201524650       -2.1565668475
 N          0.4889758005        0.9541388555       -1.5239078024
 C          0.3010449348        2.2026890119       -2.0504306976
 C         -0.6293654607        2.8047314240       -1.2823015101
 N         -0.9973344645        1.9049553250       -0.3156726141
 C         -2.0087005536        2.2734020228        0.6703374367
 H         -2.6023814347        3.0711443229        0.1986604230
 C         -1.3023386267        2.8823147086        1.8822735924
 C         -2.9710029855        1.1430786487        0.9851276757
 C         -3.2150433877        0.7584364028        2.2801924524
 C         -4.1211118474       -0.2667826669        2.5859805401
 C         -4.7946286206       -0.9077259419        1.5891549510
 C         -4.6130997766       -0.5211561656        0.2457863918
 C         -5.3235928489       -1.1655190923       -0.7881659081
 C         -5.1687136016       -0.7880746528       -2.0909176098
 C         -4.3063941905        0.2699730875       -2.4065172302
 C         -3.5992962845        0.9109556685       -1.4273092733
 C         -3.7061577977        0.5285560244       -0.0711122829
 C         -0.2982926401        0.7535920232       -0.4392035190
 Ni        -0.4026800704       -1.0461111190        0.6603726988
 C         -1.7006866452       -1.8874851516       -0.2269475855
 O         -2.4460371448       -2.4364964326       -0.8939919923
 C          1.0777699932       -2.0632875854        0.6423032500
 O          1.8755322379       -2.8656433557        0.8171054952
 C         -0.6341222862       -0.6795849924        2.3959196187
 O         -0.6565222625       -0.5995518638        3.5352221011
 H          5.0195535410        2.9021452063        0.9181229922
 H          4.0031848594        4.0486561897        0.0539887856
 H          4.9377563351        2.8618004853       -0.8488640145
 H          2.4913768308        2.3365947933       -0.6758599121
 H          3.0849801135        2.0374519643        2.3008481046
 H          1.5748402153        1.5832431373        1.5087179096
 H          2.0810455943        3.2775876902        1.5549301970
 H          4.6403305100        0.3806786223        1.7786257019
 H          5.6512301477        0.7494547809        0.3762675298
 H          4.2823050247       -1.9192835327        0.9040229263
 H          5.9967789346       -1.5704013159        1.1236061133
 H          4.8719597892       -3.7248864371       -0.7913503798
 H          6.5865783331       -3.3681629150       -0.5832154282
 H          5.8636241020       -3.3140169298       -2.1922445241
 H          3.2877450567       -1.8755114542       -1.4099606564
 H          4.2743281034       -1.4257328750       -2.8008004279
 H          1.4397498953       -0.8822557564       -1.5370755518
 H          0.9817684843       -0.2413612977       -3.1397863298
 H          0.8496715272        2.5389381544       -2.9053737059
 H         -1.0589419093        3.7838343000       -1.3489788619
 H         -0.6399171505        3.6784559622        1.5470504694
 H         -0.7031143327        2.1343655475        2.3939362796
 H         -2.0246810865        3.3071528933        2.5733240854
 H         -2.7064676092        1.2373307748        3.1008598912
 H         -4.2669726012       -0.5464919152        3.6188878301
 H         -5.4809032597       -1.7123862060        1.8105310870
 H         -5.9945444869       -1.9707120026       -0.5245073616
 H         -5.7098478412       -1.2908652031       -2.8787218482
 H         -4.2018107010        0.5810165852       -3.4361571888
 H         -2.9565806667        1.7287269979       -1.7123127202
  70
       -106.38435885
 C          5.4144817362        1.3692372747        0.0048554538
 C          5.2936872751       -0.1020030808       -0.3916606282
 C          5.0933826502       -0.2017070907       -1.9020278412
 C          4.2073500251       -0.8457001402        0.4197842073
 H          4.2488759420       -0.4709498839        1.4504515459
 C          4.5110150253       -2.3487522354        0.4590707300
 C          3.5062693554       -3.1163659370        1.3109630829
 C          2.0844142322       -2.9167359534        0.7905990986
 H          2.0254098221       -3.3058324069       -0.2314639566
 C          1.0704837931       -3.6580302922        1.6572649089
 C          1.7731327451       -1.4219212284        0.7617705563
 C          2.7746563319       -0.6629805760       -0.1121041872
 H          2.7258371653       -1.0744429030       -1.1247472747
 O          2.4164827854        0.7078835522       -0.3123341205
 C          2.0936242108        1.4723301879        0.7956225398
 N          0.6924438922        1.3573437263        1.1691070041
 C          0.2551439853        1.1116609365        2.4425252897
 C         -1.0926866542        1.0393377264        2.3828721421
 N         -1.4401191872        1.2373710373        1.0754617557
 C         -2.8242686164        1.2364014426        0.6260502341
 H         -2.8022451881        1.1378593121       -0.4673910262
 C         -3.4509758754        2.5901476108        0.9557513428
 C         -3.5277654288        0.0300755842        1.2155117222
 C         -4.5048916881        0.1620222751        2.1687047493
 C         -5.1260042438       -0.9572250514        2.7419993531
 C         -4.7566928587       -2.2154440478        2.3669743768
 C         -3.7601092182       -2.4043577419        1.3873646631
 C         -3.3755662420       -3.7012295021        0.9865852586
 C         -2.4199294913       -3.8871105181        0.0289547857
 C         -1.8138474644       -2.7751744981       -0.5731820641
 C         -2.1619932870       -1.5058146837       -0.2030061465
 C         -3.1374405012       -1.2733143379        0.7915797895
 C         -0.3498730540        1.4480319119        0.3098675441
 Ni        -0.1971114315        1.7783123036       -1.7574030479
 C          1.2118543912        2.8482902372       -2.0227854396
 O          2.1474488007        3.4599314988       -2.2513464522
 C          0.2251926484        0.1675676873       -2.3812077577
 O          0.6045775083       -0.8596691410       -2.7076139519
 C         -1.7157004384        2.5492637250       -2.3429948262
 O         -2.6110542648        3.0976172282       -2.7951015293
 H          4.5411234271        1.9246107977       -0.3224314084
 H          6.2907802401        1.8077841548       -0.4677095733
 H          5.5216725380        1.4785130239        1.0828091293
 H          6.2465590510       -0.5864641403       -0.1422470389
 H          4.9933092891       -1.2359177366       -2.2220286857
 H          5.9518725169        0.2278149131       -2.4138332071
 H          4.2068899390        0.3498297001       -2.2033875352
 H          5.5161135194       -2.5009970273        0.8586026942
 H          4.4939856478       -2.7456437758       -0.5576091558
 H          3.5621735829       -2.7686760037        2.3459043878
 H          3.7579069988       -4.1788556914        1.3046626856
 H          0.0601739616       -3.5003994002        1.2864827424
 H          1.1162850742       -3.3029671334        2.6851570738
 H          1.2767505609       -4.7258129688        1.6556222327
 H          1.8040552882       -1.0438368132        1.7867343874
 H          0.7658223266       -1.2620945106        0.3703212619
 H          2.2903569043        2.5165260492        0.5149611414
 H          2.6945430137        1.2209235295        1.6796415017
 H          0.9238991049        1.0159988433        3.2734293148
 H         -1.8181928370        0.8535275842        3.1475151399
 H         -2.9003951159        3.3674765104        0.4293692437
 H         -3.4026802179        2.8027688065        2.0214801005
 H         -4.4860321473        2.6174834322        0.6269771768
 H         -4.8192727406        1.1393004896        2.4992131647
 H         -5.8936133920       -0.8077235987        3.4868896823
 H         -5.2220265610       -3.0843133281        2.8094991067
 H         -3.8586793431       -4.5476705864        1.4537137093
 H         -2.1304693536       -4.8827915611       -0.2732786110
 H         -1.0671902461       -2.9256126764       -1.3391532276
 H         -1.6821164554       -0.6736869499       -0.6967723592
  70
       -106.38434832
 C          3.8493938981        2.6732524779        2.6814215158
 C          4.9025855897        1.9449084273        1.8470181474
 C          5.6964229207        2.9621877020        1.0302914222
 C          4.2968176383        0.8082451500        0.9916487003
 H          3.5256626925        0.3181757894        1.5950088301
 C          5.3674504522       -0.2446031722        0.6778746910
 C          4.7948933153       -1.4319505667       -0.0870304989
 C          4.1764273587       -0.9734691268       -1.4045443609
 H          4.9572273686       -0.5060895483       -2.0163842500
 C          3.5842594306       -2.1485718597       -2.1763108647
 C          3.0970657622        0.0622762611       -1.1013244546
 C          3.6616743530        1.2605829280       -0.3346143468
 H          4.4337756428        1.7340810496       -0.9508332033
 O          2.6995646868        2.3132022907       -0.1878866680
 C          1.4669162699        2.0038960912        0.3736655611
 N          0.5168350868        1.5298122855       -0.6158295581
 C          0.2789743138        2.2326180917       -1.7634599554
 C         -0.6232492214        1.5218523869       -2.4741112113
 N         -0.9219126231        0.4059259023       -1.7367540072
 C         -1.8409381112       -0.6477191247       -2.1447797102
 H         -1.2511147013       -1.5751799866       -2.1518694926
 C         -2.3904105354       -0.4384577029       -3.5562475760
 C         -2.9944382325       -0.8637365650       -1.1792524639
 C         -3.2783168545       -2.1628196385       -0.8287875458
 C         -4.3572790077       -2.4877549584        0.0013570389
 C         -5.1598798693       -1.4981479575        0.4892648767
 C         -4.9196478098       -0.1514114489        0.1500077966
 C         -5.7531174864        0.8701001443        0.6517352548
 C         -5.5411183850        2.1782789749        0.3249605992
 C         -4.4820269068        2.5142785504       -0.5285942919
 C         -3.6542078237        1.5480570524       -1.0287132202
 C         -3.8316942727        0.1841267623       -0.7060592837
 C         -0.2110557732        0.3906744536       -0.5850487379
 Ni        -0.2281312290       -1.0986541214        0.9081492717
 C          1.0363562825       -0.9391149133        2.1781503113
 O          1.7194133412       -1.0327917367        3.0910208620
 C         -1.8152512324       -0.8508478307        1.6948481962
 O         -2.7951878520       -0.6431679804        2.2392193037
 C          0.0241321376       -2.6265532836        0.0253895168
 O          0.2512146222       -3.6108345760       -0.5106130653
 H          3.1943343165        3.2595891688        2.0443845500
 H          4.3353299466        3.3489789504        3.3823412483
 H          3.2484540441        1.9687235645        3.2528229216
 H          5.5941717565        1.4614690020        2.5483557084
 H          6.2042680705        3.6529525024        1.7000489657
 H          5.0317811712        3.5359296424        0.3898364076
 H          6.4489246845        2.4750350021        0.4150447071
 H          5.8062306102       -0.5949566413        1.6144359384
 H          6.1647323013        0.2114881290        0.0868596898
 H          4.0273735376       -1.9220062159        0.5169859189
 H          5.5849816466       -2.1609431747       -0.2786977398
 H          2.7982457094       -2.6241981675       -1.5937814773
 H          4.3498280380       -2.8909290805       -2.3896180810
 H          3.1574383136       -1.8134607797       -3.1193288940
 H          2.3138038697       -0.4240034180       -0.5102017154
 H          2.6501729723        0.4183682487       -2.0336570394
 H          1.0789310532        2.9428130586        0.7921525072
 H          1.5232734840        1.2521345314        1.1701042710
 H          0.7807575403        3.1541022212       -1.9733986977
 H         -1.0550616245        1.7354121180       -3.4287094749
 H         -1.5843628515       -0.3627428745       -4.2832053063
 H         -3.0208705368        0.4454960835       -3.6122187529
 H         -3.0014055334       -1.2998424863       -3.8153745183
 H         -2.6571655650       -2.9645719888       -1.2033460368
 H         -4.5365485816       -3.5218018532        0.2553663528
 H         -5.9895828500       -1.7287069246        1.1415930504
 H         -6.5665234242        0.5915840885        1.3064749263
 H         -6.1813784686        2.9553492481        0.7156072163
 H         -4.3194152263        3.5497316731       -0.7917170605
 H         -2.8518474891        1.8500816302       -1.6803339052
  70
       -106.38432004
 C          5.2553892835        2.1013959424        2.7131469614
 C          5.1930872592        0.7047588940        2.0963416096
 C          6.5272935550       -0.0097499088        2.3044465017
 C          4.7908467361        0.7010612906        0.6072928496
 H          4.9631740606       -0.3140033202        0.2346249668
 C          5.5904320171        1.6808501884       -0.2518187620
 C          5.2136517972        1.5531977325       -1.7240042486
 C          3.7261530157        1.8360114273       -1.9215947698
 H          3.5196625695        2.8617516255       -1.5912440275
 C          3.3265800712        1.7074417516       -3.3885758451
 C          2.9104470406        0.8755223242       -1.0590244443
 C          3.2889542637        0.9747327042        0.4222648017
 H          3.0480134145        1.9817261071        0.7954938138
 O          2.5685518246        0.0055862979        1.1864389620
 C          1.4115301983        0.4339455315        1.8115067811
 N          0.3430344633        0.7681585148        0.8913739417
 C         -0.0494272620        2.0500194931        0.6103183933
 C         -1.0162322008        1.9632502101       -0.3294941628
 N         -1.1854645995        0.6331928401       -0.5986868571
 C         -2.1232624671        0.1498567843       -1.6005115958
 H         -2.2618476493       -0.9228938826       -1.4121666728
 C         -1.4795227909        0.2980661362       -2.9785526678
 C         -3.4519682261        0.8534883962       -1.4176766552
 C         -3.9277486814        1.7444012822       -2.3452791658
 C         -5.1461347083        2.4138662680       -2.1602298367
 C         -5.8853481038        2.1954960781       -1.0350926291
 C         -5.4394461155        1.2877384967       -0.0522583898
 C         -6.1984010894        1.0534268241        1.1134551191
 C         -5.7715413943        0.1710571752        2.0642132998
 C         -4.5656600991       -0.5195102891        1.8805897038
 C         -3.8063332672       -0.3138182692        0.7623558669
 C         -4.2100547814        0.5978156286       -0.2384728142
 C         -0.3510745866       -0.1224504306        0.1421321731
 Ni        -0.1109199519       -2.2051968285        0.2093518158
 C         -0.9394013663       -2.6581220940        1.7186633697
 O         -1.4913353472       -2.9051898717        2.6885574605
 C         -0.7782532775       -2.9854431491       -1.2585451030
 O         -1.1240696435       -3.5923862778       -2.1634745942
 C          1.6683309455       -2.4852023479        0.2126826272
 O          2.7715318399       -2.7558094460        0.1373256079
 H          5.3914911617        2.0213477203        3.7896394201
 H          4.3395722043        2.6593367317        2.5318660070
 H          6.0918423481        2.6674225416        2.3105126409
 H          4.4234190176        0.1298403191        2.6227286445
 H          7.3376794307        0.5239887693        1.8132768461
 H          6.4871546622       -1.0206236547        1.9063847360
 H          6.7578837680       -0.0699039033        3.3657370262
 H          6.6566711601        1.4870305245       -0.1305040061
 H          5.3923341808        2.7035290447        0.0749526747
 H          5.4375245094        0.5433886662       -2.0742156061
 H          5.8053902055        2.2530458494       -2.3182793739
 H          3.5121987042        0.6963438315       -3.7439031721
 H          3.8999520840        2.3979793373       -4.0028666336
 H          2.2690524095        1.9270486087       -3.5194964459
 H          3.0847409987       -0.1522853871       -1.3833315573
 H          1.8465518166        1.0840064330       -1.1866183727
 H          1.5908127041        1.3240784408        2.4377963193
 H          1.0887277735       -0.4074224064        2.4374366564
 H          0.3766571938        2.9024892259        1.0984321126
 H         -1.5965103115        2.7234092253       -0.8102448327
 H         -2.1509945407       -0.0651166693       -3.7513344262
 H         -0.5688860830       -0.2981539214       -3.0033932406
 H         -1.2151164849        1.3330602334       -3.1852004454
 H         -3.3700461131        1.9482152886       -3.2456721703
 H         -5.4859830188        3.1052199111       -2.9171783750
 H         -6.8222054165        2.7107433873       -0.8797038180
 H         -7.1296233995        1.5882177060        1.2362073839
 H         -6.3578588790       -0.0040764203        2.9541279621
 H         -4.2363987688       -1.2237951623        2.6302164044
 H         -2.8869960766       -0.8703332747        0.6541434012
  70
       -106.38431631
 C          5.4080519129        2.3443341742        2.0584616837
 C          5.3584713268        0.9201040699        1.5069518980
 C          6.7418972869        0.2802190851        1.6099825224
 C          4.8139710805        0.8305188029        0.0666393545
 H          5.0001669820       -0.1912614791       -0.2801122805
 C          5.4750404195        1.8067620725       -0.9067841142
 C          4.9626520494        1.5962031116       -2.3276918829
 C          3.4503248034        1.7996278882       -2.3874398866
 H          3.2245517859        2.8284310600       -2.0799817724
 C          2.9169853411        1.5858423927       -3.8009534970
 C          2.7736854201        0.8417093270       -1.4095834015
 C          3.2895815216        1.0269996900        0.0209128049
 H          3.0378106419        2.0387417204        0.3727523805
 O          2.6916843931        0.0635250980        0.8910479141
 C          1.6002299665        0.4822435591        1.6306876572
 N          0.4324246924        0.7788328694        0.8258004796
 C         -0.0062837323        2.0482600182        0.5568879872
 C         -1.0696601189        1.9256246017       -0.2674613179
 N         -1.2493812683        0.5870187537       -0.4818034238
 C         -2.2874069193        0.0666345393       -1.3584530526
 H         -2.3893410466       -1.0020282771       -1.1280102227
 C         -1.8055052995        0.1844090071       -2.8038809272
 C         -3.5962852667        0.7611021905       -1.0443872644
 C         -4.1863912827        1.6206045969       -1.9351965042
 C         -5.3844279699        2.2828583894       -1.6301687900
 C         -5.9874360220        2.0893372858       -0.4222830240
 C         -5.4205440422        1.2141609381        0.5272043924
 C         -6.0382605299        1.0057027367        1.7781185018
 C         -5.4943456039        0.1547250073        2.6972081742
 C         -4.3088334185       -0.5294576736        2.3952119310
 C         -3.6849892259       -0.3482442658        1.1921761263
 C         -4.2117275201        0.5311391115        0.2201060989
 C         -0.3278036264       -0.1391845194        0.1810327599
 Ni        -0.0514083299       -2.2165586965        0.2710204525
 C         -0.8589810008       -3.0385281078       -1.1003523874
 O         -1.2901456954       -3.6688519554       -1.9510593917
 C          1.7221718744       -2.4738643782        0.0909388768
 O          2.8151709966       -2.7318334527       -0.0954793840
 C         -0.7079206405       -2.6459969677        1.8693212052
 O         -1.1484247863       -2.8803638038        2.8976279123
 H          6.1711683782        2.9308122834        1.5526552866
 H          5.6519044224        2.3190755798        3.1185029988
 H          4.4515012830        2.8497546722        1.9467231784
 H          4.6745063805        0.3331466476        2.1297018578
 H          7.0770898240        0.2784473890        2.6447656059
 H          7.4719245967        0.8298579148        1.0202479296
 H          6.7160916120       -0.7481156561        1.2581257045
 H          6.5564810298        1.6681744960       -0.8853367358
 H          5.2586029990        2.8327788190       -0.6028547529
 H          5.2025777450        0.5834349812       -2.6581823478
 H          5.4570273781        2.2958473110       -3.0053335992
 H          3.1193333977        0.5696813989       -4.1318380467
 H          3.3911195183        2.2743725092       -4.4967206408
 H          1.8417634049        1.7484979924       -3.8346579563
 H          2.9693017334       -0.1901943870       -1.7074171535
 H          1.6926755503        0.9916372039       -1.4375197408
 H          1.8277267646        1.3876494644        2.2182653684
 H          1.3644579158       -0.3525110854        2.3025033861
 H          0.4584454138        2.9183391524        0.9734113061
 H         -1.7098557516        2.6661763204       -0.7003570620
 H         -0.8955227409       -0.4026321220       -2.9165930636
 H         -1.5802897580        1.2162150372       -3.0656246604
 H         -2.5549560886       -0.2066412498       -3.4860570072
 H         -3.7377080107        1.8044718717       -2.8986111601
 H         -5.8174733425        2.9490193886       -2.3617052862
 H         -6.9069166657        2.5997408514       -0.1745724431
 H         -6.9559535545        1.5350291593        1.9923608749
 H         -5.9725946078       -0.0003702467        3.6530432451
 H         -3.8870832663       -1.2090418358        3.1209289690
 H         -2.7771530566       -0.8989305980        0.9943204615
  70
       -106.38430643
 C          5.6962947529        1.7800994943        2.1785185397
 C          5.4267176513        0.4627414424        1.4528940175
 C          6.7125443862       -0.3591096302        1.3813742360
 C          4.8078015423        0.6416492444        0.0514059277
 H          4.8413900190       -0.3376026653       -0.4372947585
 C          5.5473572800        1.6515804436       -0.8259093850
 C          4.9484397026        1.7006128628       -2.2272385993
 C          3.4769472047        2.1022324944       -2.1629311553
 H          3.4080498753        3.0996221327       -1.7109305680
 C          2.8540042749        2.1547074887       -3.5549239339
 C          2.7193859735        1.1157205462       -1.2765860403
 C          3.3207207322        1.0263564439        0.1301880151
 H          3.2132005600        1.9976716954        0.6379570804
 O          2.6603546757        0.0207475795        0.9003983183
 C          1.5883937945        0.4184987484        1.6770897694
 N          0.4121166493        0.7779192072        0.9097312414
 C         -0.0495670467        2.0602271555        0.7730526372
 C         -1.1178637825        2.0024073063       -0.0522907889
 N         -1.2771674767        0.6891800813       -0.3988233065
 C         -2.3094829414        0.2421466412       -1.3213824100
 H         -2.3931178948       -0.8457356312       -1.1989460350
 C         -1.8333242917        0.5117213909       -2.7482755804
 C         -3.6292126854        0.8791753141       -0.9386749291
 C         -4.2351213423        1.8142801566       -1.7380637158
 C         -5.4448738356        2.4202146117       -1.3689568246
 C         -6.0442807067        2.0931169837       -0.1883733918
 C         -5.4611631771        1.1362627690        0.6679039462
 C         -6.0750805335        0.7894536101        1.8896358926
 C         -5.5151780143       -0.1404099623        2.7182443170
 C         -4.3164430303       -0.7671484338        2.3508288644
 C         -3.6959881648       -0.4523789969        1.1738530922
 C         -4.2397038337        0.5108664776        0.2950995697
 C         -0.3385023366       -0.0840124050        0.1819527932
 Ni        -0.0353317779       -2.1572849738        0.0712713827
 C         -0.8451849054       -2.8558991630       -1.3656180261
 O         -1.2733232935       -3.4083065014       -2.2704011551
 C          1.7381903493       -2.3877914282       -0.1426301867
 O          2.8291795649       -2.6327510082       -0.3571769521
 C         -0.6692763677       -2.7343295685        1.6311848548
 O         -1.0925302821       -3.0586027533        2.6422360057
 H          6.5066714236        2.3274451543        1.7032540529
 H          5.9853533760        1.5793662966        3.2080204251
 H          4.8125743725        2.4137466750        2.1961991320
 H          4.6992165138       -0.1098775186        2.0381060370
 H          7.0941403735       -0.5445053362        2.3829386917
 H          7.4818549685        0.1655846537        0.8194407215
 H          6.5282175410       -1.3181799115        0.9037745106
 H          6.6009402925        1.3775753582       -0.8888648683
 H          5.4813708356        2.6456579090       -0.3795092094
 H          5.0339667820        0.7190927722       -2.6981894859
 H          5.5007450226        2.4161897321       -2.8404167411
 H          2.8991129755        1.1756322288       -4.0266169648
 H          3.3856695156        2.8641424407       -4.1849514407
 H          1.8110394154        2.4593750077       -3.4981745374
 H          2.7511569714        0.1186262566       -1.7206649105
 H          1.6718415806        1.4164342136       -1.2167700761
 H          1.8411973575        1.2862007005        2.3093808419
 H          1.3470809845       -0.4476187012        2.3063976593
 H          0.4069521567        2.8918212899        1.2696454246
 H         -1.7739269651        2.7714409814       -0.4042730810
 H         -0.9135085591       -0.0449902288       -2.9192838000
 H         -1.6262830376        1.5681044673       -2.9061559793
 H         -2.5776794108        0.1776781224       -3.4654278186
 H         -3.7903078187        2.1032613707       -2.6771638927
 H         -5.8902043522        3.1495066197       -2.0294601651
 H         -6.9732983042        2.5581962448        0.1082159015
 H         -7.0028853505        1.2764555469        2.1547043738
 H         -5.9907177860       -0.4015182624        3.6520958512
 H         -3.8816944026       -1.5087599513        3.0045726691
 H         -2.7773934380       -0.9621216215        0.9229875330
  70
       -106.38428282
 C          5.5362272970        2.4874395081        2.0244418488
 C          5.2589317814        1.0123583014        1.7384317154
 C          6.5043602859        0.1834235240        2.0477081129
 C          4.7591998261        0.7421413880        0.3042884041
 H          4.7890179951       -0.3423903854        0.1572177404
 C          5.6083724990        1.4053303730       -0.7797566369
 C          5.1232743959        1.0115631364       -2.1704082882
 C          3.6718872040        1.4417151817       -2.3665707588
 H          3.6156706043        2.5324987257       -2.2625638787
 C          3.1606230821        1.0578246153       -3.7521568172
 C          2.8014801274        0.8067106121       -1.2839366935
 C          3.2874314966        1.1529720715        0.1279040677
 H          3.1774204720        2.2355409686        0.2995058384
 O          2.5342517734        0.4454719907        1.1140559194
 C          1.3928718038        1.0522009720        1.6024740623
 N          0.2989747895        1.0939663521        0.6515450756
 C         -0.1681660780        2.2444564934        0.0733994259
 C         -1.1403572193        1.8777256924       -0.7903978221
 N         -1.2380018499        0.5156502378       -0.7183106062
 C         -2.1524826640       -0.2482227183       -1.5529694766
 H         -2.2266832285       -1.2486890565       -1.1072624508
 C         -1.5267547686       -0.4050578722       -2.9384116151
 C         -3.5195315569        0.4029126166       -1.5204597450
 C         -4.0477330483        1.0216170292       -2.6244546436
 C         -5.3042557904        1.6432138607       -2.5848467559
 C         -6.0301775598        1.6508364770       -1.4302731289
 C         -5.5305854385        1.0275623206       -0.2680673052
 C         -6.2754061241        1.0277314040        0.9298726785
 C         -5.7957848997        0.4213927498        2.0554996569
 C         -4.5481167121       -0.2166062714        2.0237512432
 C         -3.8014446292       -0.2337903253        0.8785540192
 C         -4.2606422852        0.3887370143       -0.3034972249
 C         -0.3541186069        0.0109645012        0.1651226409
 Ni        -0.0134083346       -1.9742333284        0.7554442279
 C          1.7743510336       -2.1890769138        0.7954053376
 O          2.8827490826       -2.4493416247        0.7791944772
 C         -0.7918757399       -2.0423414835        2.3544042540
 O         -1.3064496301       -2.0352044262        3.3751176833
 C         -0.6659855107       -3.1323627141       -0.4453600599
 O         -0.9917870340       -3.9666914565       -1.1558890317
 H          4.6864823833        3.1116996968        1.7579300365
 H          6.4077541332        2.8334527615        1.4740685117
 H          5.7332180675        2.6246577440        3.0855983945
 H          4.4616035934        0.6757242271        2.4095401780
 H          6.3086583655       -0.8744703231        1.8913942908
 H          6.8007554308        0.3260194750        3.0845140225
 H          7.3383201534        0.4786905880        1.4150589543
 H          6.6506000080        1.1083872574       -0.6587501642
 H          5.5510353007        2.4910094028       -0.6809375161
 H          5.1987008930       -0.0708455040       -2.2937000236
 H          5.7539492927        1.4805437682       -2.9289417736
 H          3.1954148696       -0.0215259032       -3.8823772257
 H          3.7720582015        1.5167696413       -4.5256986666
 H          2.1319838217        1.3857765153       -3.8870736729
 H          2.8154867107       -0.2803842048       -1.3876872057
 H          1.7697146446        1.1375829436       -1.4155852285
 H          1.5857588562        2.0904625669        1.9208774507
 H          1.0871641423        0.4455764675        2.4645805380
 H          0.2181326434        3.2113693167        0.3233265592
 H         -1.7683100711        2.4641537332       -1.4287666126
 H         -0.5841797137       -0.9400247261       -2.8359224652
 H         -1.3217950233        0.5610358984       -3.3948595179
 H         -2.1817947284       -0.9799046630       -3.5868357187
 H         -3.5031484526        1.0399898120       -3.5552881648
 H         -5.6847152023        2.1165409055       -3.4779858126
 H         -6.9971246283        2.1309844796       -1.3875931650
 H         -7.2384586640        1.5184021407        0.9358458305
 H         -6.3716168387        0.4245964013        2.9691811832
 H         -4.1758817538       -0.7018146925        2.9139283277
 H         -2.8478220039       -0.7408914559        0.8925669399
  70
       -106.38406425
 C          3.6033172510        3.5660705882        0.1009403472
 C          3.7104339212        2.4851612415       -0.9735382399
 C          2.3575475431        2.2716623193       -1.6478894439
 C          4.3413677486        1.1865287151       -0.4236750319
 H          5.1799348724        1.4841230407        0.2156344851
 C          4.8899116829        0.3405363025       -1.5808361667
 C          5.6418283615       -0.8927618643       -1.0947037904
 C          4.7317413429       -1.7670349638       -0.2367247905
 H          3.8797096340       -2.0902596585       -0.8465973003
 C          5.4623762267       -3.0038947676        0.2756174880
 C          4.2063156451       -0.9253016520        0.9218835357
 C          3.4233289148        0.2961478582        0.4269552465
 H          2.5705336176       -0.0398239887       -0.1815747644
 O          2.9337462166        1.0211744104        1.5646614119
 C          1.7294554791        0.5735430548        2.0905427008
 N          0.5979868534        1.1783510663        1.4147622177
 C          0.2708671052        2.4932932234        1.6066533248
 C         -0.7184089782        2.7811487934        0.7344028848
 N         -0.9769656951        1.6337927910        0.0305200346
 C         -1.9212385804        1.5248598772       -1.0733492430
 H         -1.3339362462        1.1654067831       -1.9302377928
 C         -2.5264779768        2.8743210852       -1.4617588982
 C         -3.0373556023        0.5185606814       -0.8523451289
 C         -3.3111663016       -0.3400510245       -1.8916321238
 C         -4.3681338846       -1.2555643245       -1.8371331595
 C         -5.1565396732       -1.3159952092       -0.7250033555
 C         -4.9233958642       -0.4521046944        0.3640266861
 C         -5.7410627118       -0.5134909578        1.5118499744
 C         -5.5351876417        0.3231374414        2.5705650468
 C         -4.4976620099        1.2633248169        2.5172037396
 C         -3.6854922331        1.3457023842        1.4205955875
 C         -3.8588998991        0.4926932147        0.3080394552
 C         -0.1631366198        0.6310542863        0.4370486511
 Ni        -0.1456141415       -1.3469832553       -0.2849995933
 C          0.2475598625       -1.1099313165       -2.0047734386
 O          0.5863209799       -0.9050601438       -3.0780130175
 C          1.0315934368       -2.4637837528        0.4921624178
 O          1.6355314610       -3.3586923763        0.8685113272
 C         -1.7488716370       -1.9990226599        0.1866892284
 O         -2.6982575051       -2.4925025853        0.5811179908
 H          3.1875011034        4.4781921132       -0.3234321159
 H          4.5852254051        3.7947803421        0.5088524046
 H          2.9668829998        3.2343953533        0.9138397572
 H          4.4026324355        2.8572154321       -1.7401152013
 H          1.6089864103        1.9588499246       -0.9277389452
 H          2.4203419541        1.5182605868       -2.4288112943
 H          2.0217139832        3.2017508773       -2.1030735679
 H          5.5564142409        0.9567093339       -2.1880866478
 H          4.0621947621        0.0190590368       -2.2162074166
 H          6.5088420032       -0.5868292418       -0.5044151336
 H          6.0052596448       -1.4613622289       -1.9533144767
 H          6.3042823592       -2.7165541942        0.9022396468
 H          5.8386782327       -3.5954809959       -0.5558779977
 H          4.7921056682       -3.6264769743        0.8635924350
 H          5.0413028089       -0.5743008489        1.5329614591
 H          3.5651403504       -1.5341399331        1.5626507333
 H          1.7078282002        0.8876957358        3.1406867158
 H          1.6141852700       -0.5169031219        2.0270943118
 H          0.7678252731        3.1033701338        2.3318970401
 H         -1.2344360600        3.7039849467        0.5759494410
 H         -1.7487039037        3.5968365062       -1.7003940519
 H         -3.1655394297        3.2667068799       -0.6744570940
 H         -3.1405318021        2.7305335722       -2.3475595375
 H         -2.6970878979       -0.3133020826       -2.7811802318
 H         -4.5416093744       -1.9140120446       -2.6751035592
 H         -5.9694351701       -2.0245436853       -0.6600702439
 H         -6.5371507202       -1.2439669780        1.5347987650
 H         -6.1635060808        0.2683255120        3.4472476920
 H         -4.3390817351        1.9279175247        3.3544411695
 H         -2.8976499214        2.0797037023        1.4213007177
  70
       -106.38403857
 C          3.2775271556        2.8850424481       -2.3476436568
 C          3.0824705085        2.3543133031       -0.9271269958
 C          3.2949093048        3.5097106522        0.0524748446
 C          4.0077905468        1.1696978294       -0.5606352066
 H          4.9281638720        1.5738077245       -0.1272370371
 C          4.3796852039        0.2896118351       -1.7600086776
 C          5.3041103294       -0.8571364771       -1.3606490088
 C          4.6568452172       -1.7461130138       -0.3025167129
 H          3.7375513485       -2.1737900751       -0.7204457987
 C          5.5811902845       -2.8861116149        0.1119826189
 C          4.2845533252       -0.8792304520        0.8963501128
 C          3.3443332114        0.2526622762        0.4802919793
 H          2.4454362188       -0.1806675629        0.0140673734
 O          2.9476480180        0.9831100579        1.6503377694
 C          1.7193495212        0.6199146946        2.1856770364
 N          0.6227263157        1.1972255425        1.4350910552
 C          0.3269977768        2.5308028207        1.5136330673
 C         -0.6200622494        2.7765197986        0.5838462526
 N         -0.8853604483        1.5855210980       -0.0407958413
 C         -1.8003227697        1.4141305085       -1.1613760404
 H         -1.1998100517        0.9736108419       -1.9699199114
 C         -2.3580523990        2.7434437311       -1.6716086543
 C         -2.9489537909        0.4558983792       -0.8961022534
 C         -3.2152542052       -0.4763820978       -1.8718390983
 C         -4.2966609064       -1.3595427490       -1.7773346104
 C         -5.1182447596       -1.3118187789       -0.6889130547
 C         -4.8940479627       -0.3692155223        0.3347346521
 C         -5.7457401792       -0.3193670035        1.4581053895
 C         -5.5484474998        0.5936696302        2.4534029747
 C         -4.4854310800        1.5014535534        2.3578869286
 C         -3.6402506507        1.4768432678        1.2836261209
 C         -3.8038774499        0.5423670362        0.2369844971
 C         -0.1172349508        0.5964733068        0.4723076805
 Ni        -0.1346583933       -1.4374766233       -0.0875419178
 C          0.2808722143       -1.3644285685       -1.8168659528
 O          0.6318570558       -1.2686432292       -2.9015140273
 C          1.0233387951       -2.4898950969        0.8039243699
 O          1.6462423735       -3.3282153831        1.2683506424
 C         -1.7654775772       -2.0063045195        0.4018956991
 O         -2.7398598858       -2.4374479783        0.8077275203
 H          2.6490341462        3.7622082025       -2.4919181284
 H          2.9994672098        2.1476244875       -3.0950820489
 H          4.3109256264        3.1821557603       -2.5110365391
 H          2.0458520970        2.0063964787       -0.8476097314
 H          3.2532888401        3.1562163004        1.0772886879
 H          2.5349972746        4.2763854131       -0.0891974990
 H          4.2709708430        3.9609561850       -0.1154235258
 H          4.8817448166        0.8906130641       -2.5174550830
 H          3.4674559642       -0.1211184517       -2.1994688360
 H          6.2381924317       -0.4508171824       -0.9650504468
 H          5.5463474455       -1.4503478492       -2.2450759111
 H          6.5004450982       -2.4936990184        0.5420807952
 H          5.8385661702       -3.5000093100       -0.7481751093
 H          5.0974072232       -3.5186839400        0.8525409235
 H          5.1836519087       -0.4444287660        1.3382429483
 H          3.7980062606       -1.4849801013        1.6644048108
 H          1.6937659757        1.0229812436        3.2042085786
 H          1.5758366653       -0.4698630600        2.2132186752
 H          0.8162341998        3.1822126013        2.2069411807
 H         -1.1041371358        3.6971676584        0.3361389065
 H         -1.5552035272        3.4265750734       -1.9414751346
 H         -3.0088522419        3.2113508113       -0.9369746117
 H         -2.9500298869        2.5458326989       -2.5620783055
 H         -2.5760820770       -0.5352864266       -2.7419576875
 H         -4.4628776939       -2.0787257330       -2.5653671788
 H         -5.9508761954       -1.9934222069       -0.5930073280
 H         -6.5610935586       -1.0264377071        1.5140654149
 H         -6.2028942857        0.6238632737        3.3119771354
 H         -4.3333361925        2.2265001898        3.1446370698
 H         -2.8336177433        2.1893716179        1.2510244203
  70
       -106.38401704
 C          4.1844844977        2.0804092854       -2.8188524539
 C          3.5291853623        0.9676748302       -1.9994172638
 C          2.0279494860        0.9767951812       -2.2955188852
 C          3.7815236531        1.1290549738       -0.4856972733
 H          3.1078620007        1.9206750172       -0.1314439354
 C          5.2058488006        1.5388818209       -0.0979181878
 C          6.2215742455        0.4412665457       -0.3905888799
 C          5.9133309810       -0.8363215442        0.3935865091
 H          6.5673451122       -1.6319501495        0.0145300657
 C          6.1968129033       -0.6811076384        1.8860893412
 C          4.4663830686       -1.2647212019        0.1344913019
 C          3.4277128391       -0.1499615989        0.2967123379
 H          2.4702392632       -0.5434023226       -0.0667393656
 O          3.2666800827        0.1934714496        1.6835651143
 C          2.0032962113       -0.0282083941        2.2066355168
 N          1.0078926903        0.8341882317        1.6051835105
 C          1.0090650207        2.1889372857        1.7996551722
 C          0.0210438163        2.6937196739        1.0281480743
 N         -0.5500653850        1.6372224055        0.3736902309
 C         -1.6867674575        1.7110040694       -0.5271131438
 H         -1.4432400363        1.0403303136       -1.3589298281
 C         -1.9058423515        3.1202979285       -1.0727458542
 C         -2.9418413972        1.2125673787        0.1668965738
 C         -3.1190164304        1.4716563484        1.5028925879
 C         -4.2490527085        1.0161393671        2.1932575385
 C         -5.2029091688        0.2932499673        1.5379930119
 C         -5.0763177016        0.0233001069        0.1600767927
 C         -6.0632442389       -0.7168095210       -0.5241450677
 C         -5.9523750095       -0.9694988359       -1.8611849249
 C         -4.8496107088       -0.4773462890       -2.5728888756
 C         -3.8744120284        0.2402224180       -1.9383372276
 C         -3.9411983670        0.5016416012       -0.5516678974
 C          0.0511221617        0.4755707569        0.7175106946
 Ni        -0.5362495233       -1.4612568197        0.0945250471
 C         -2.0065448304       -1.7171124840        1.0789955516
 O         -2.9461064648       -1.8760156793        1.7051525693
 C         -0.9041644555       -1.4650615273       -1.6546511222
 O         -1.1449338674       -1.6259454307       -2.7597307038
 C          0.7629019455       -2.6694240809        0.3777795755
 O          1.5254540050       -3.5175195872        0.4506602770
 H          3.8793265219        3.0571447660       -2.4482591122
 H          3.8746860318        2.0001310863       -3.8588637093
 H          5.2681798452        2.0178550267       -2.7893884209
 H          3.9394007019        0.0096962370       -2.3312544430
 H          1.5969701188        1.9375684737       -2.0166221283
 H          1.4983598825        0.1949277827       -1.7539199342
 H          1.8537385413        0.8204358554       -3.3579865282
 H          5.2064284641        1.7464993209        0.9728993241
 H          5.4888814899        2.4591660866       -0.6087579186
 H          7.2230018835        0.7932528884       -0.1324478587
 H          6.2169376794        0.2133025924       -1.4585057121
 H          6.0901849866       -1.6409762770        2.3870759750
 H          5.5007430097        0.0152104701        2.3411910477
 H          7.2127493281       -0.3244563118        2.0439051119
 H          4.2006009584       -2.0794493973        0.8116188148
 H          4.3821106115       -1.6448287214       -0.8855354510
 H          2.0747626546        0.1989810051        3.2765965130
 H          1.6642997439       -1.0672067122        2.0710176109
 H          1.7076329762        2.6666905002        2.4549213912
 H         -0.3019670489        3.7057129179        0.9063672468
 H         -2.2523916195        3.7932245735       -0.2914339532
 H         -2.6723401712        3.0834590379       -1.8426224356
 H         -0.9913217122        3.5128336165       -1.5131035696
 H         -2.3685901543        2.0239421012        2.0518242160
 H         -4.3462992231        1.2314722050        3.2470701119
 H         -6.0691487250       -0.0826377369        2.0627855122
 H         -6.9123013885       -1.0812738884        0.0365132730
 H         -6.7089729002       -1.5414840044       -2.3776918028
 H         -4.7729190355       -0.6700459116       -3.6330063588
 H         -3.0459654806        0.6135829485       -2.5204371664
  70
       -106.38398854
 C          6.1166503246       -0.5822855201        1.9177119563
 C          5.0808174930       -1.1958086232        0.9774376798
 C          5.7098274605       -2.3442260186        0.1906130476
 C          4.4256157919       -0.1727515563        0.0265778387
 H          3.8740846915       -0.7471156988       -0.7258817461
 C          5.4279429589        0.7311259038       -0.6895290745
 C          4.7214694919        1.6403205617       -1.6878452663
 C          3.7163839410        2.5324779417       -0.9650874478
 H          4.2579279856        3.1457379057       -0.2343226642
 C          2.9941737291        3.4576176210       -1.9407762755
 C          2.7059789008        1.6644067560       -0.2174049219
 C          3.3727283635        0.6818754357        0.7497733861
 H          3.8379695350        1.2457872237        1.5760990203
 O          2.4381461721       -0.2455331119        1.3028155840
 C          1.4451900375        0.2491322414        2.1224479834
 N          0.2976287307        0.7674134738        1.3948590523
 C         -0.2804263810        1.9816397655        1.6542431368
 C         -1.2886426270        2.1293621688        0.7667038550
 N         -1.2986895771        1.0030290165       -0.0063783976
 C         -2.2098366612        0.8255988969       -1.1260519063
 H         -2.2179419598       -0.2486797428       -1.3600525869
 C         -1.6286805110        1.5530844598       -2.3386051615
 C         -3.6044768733        1.2550062385       -0.7188059075
 C         -4.2247587968        2.3261836972       -1.3097697678
 C         -5.5131631160        2.7298937548       -0.9306740854
 C         -6.1820162756        2.0588491469        0.0500615490
 C         -5.5873511063        0.9517298911        0.6897728453
 C         -6.2732165780        0.2504312554        1.7034041177
 C         -5.7031106526       -0.8239703097        2.3239379214
 C         -4.4178465096       -1.2398386461        1.9506783060
 C         -3.7261616229       -0.5802209076        0.9729279382
 C         -4.2820741953        0.5354766588        0.3082641459
 C         -0.3273060896        0.1444965440        0.3679840840
 Ni         0.1618243827       -1.7023887356       -0.5210806305
 C         -1.3266352330       -2.6787278886       -0.7838458301
 O         -2.1703816255       -3.4293955996       -0.9590825110
 C          1.0370396989       -1.2297782920       -1.9910738852
 O          1.6612408298       -0.9102154475       -2.8957371106
 C          1.2549124674       -2.5856437419        0.5967777392
 O          1.9745251971       -3.1914035274        1.2391651887
 H          7.0023380082       -0.2676852609        1.3709326184
 H          6.4227009091       -1.3198651311        2.6565166139
 H          5.7109368823        0.2756645001        2.4485559155
 H          4.2721998155       -1.6133382948        1.5846911604
 H          6.5288440318       -1.9914693169       -0.4322763217
 H          4.9699258738       -2.8205997515       -0.4481610846
 H          6.1032595563       -3.0939927098        0.8732730306
 H          6.1632375979        0.1167595926       -1.2098544476
 H          5.9553354180        1.3491743361        0.0394326302
 H          4.1988500542        1.0350041099       -2.4313395282
 H          5.4543454447        2.2578563056       -2.2117395979
 H          2.4483197511        2.8744317145       -2.6794303869
 H          3.7064783904        4.0917453326       -2.4634177092
 H          2.2861439831        4.0959147963       -1.4158259917
 H          2.1205879138        1.0848478859       -0.9349896047
 H          2.0191997695        2.3154973216        0.3294312245
 H          1.8123795857        1.0568451112        2.7763262576
 H          1.1136450598       -0.5978782027        2.7396875813
 H          0.0640534432        2.6263867089        2.4368616948
 H         -1.9927945610        2.9241343215        0.6315285837
 H         -0.6564698475        1.1213971844       -2.5685143390
 H         -1.4927284074        2.6138089247       -2.1383130692
 H         -2.2728363304        1.4248265866       -3.2037136336
 H         -3.7306232648        2.8844467986       -2.0887515789
 H         -5.9645189930        3.5776109097       -1.4247231912
 H         -7.1745128349        2.3617191004        0.3509067376
 H         -7.2646072314        0.5828551281        1.9770124073
 H         -6.2345772100       -1.3578224006        3.0978562361
 H         -3.9713521063       -2.0925788622        2.4405656224
 H         -2.7390177853       -0.9312856951        0.7147802629
  70
       -106.38395864
 C          2.4924289104        2.7194491983        2.4636023002
 C          1.7921098251        1.7577446799        1.5045044306
 C          0.4540209708        1.3232973722        2.0950828862
 C          2.6413008041        0.5276411636        1.1189153193
 H          1.9607872190       -0.2043450229        0.6619733246
 C          3.3123351139       -0.1354174197        2.3235032369
 C          4.1369298469       -1.3491478854        1.9123147117
 C          5.2414443446       -0.9325450073        0.9438103332
 H          5.8764408410       -0.1868590600        1.4361338588
 C          6.1046372380       -2.1245270270        0.5413331487
 C          4.5982812231       -0.2980239069       -0.2874342627
 C          3.7094252344        0.8954909447        0.0781714637
 H          4.3456247940        1.6904626943        0.4837623623
 O          3.1696893346        1.5156595220       -1.0958125555
 C          2.3118101308        0.7732047154       -1.9009319041
 N          0.9248498453        1.1794688335       -1.7700015164
 C          0.5372442185        2.4684670586       -2.0114123035
 C         -0.8124087285        2.4833026060       -1.9702000803
 N         -1.2192887521        1.2028655538       -1.7013580318
 C         -2.6029714230        0.7411820979       -1.7121465787
 H         -2.6085307956       -0.1293533849       -2.3831560146
 C         -3.5644441367        1.7739836234       -2.3020101159
 C         -3.1186373897        0.2531688572       -0.3692501783
 C         -3.7125490846       -0.9867474020       -0.3434078340
 C         -4.2716432352       -1.5169624283        0.8253616357
 C         -4.2381892461       -0.7945509629        1.9821604500
 C         -3.6695633066        0.4948006080        2.0018109765
 C         -3.6750325905        1.2606099573        3.1864751206
 C         -3.1684459496        2.5279223395        3.2104756549
 C         -2.6181280705        3.0743244524        2.0434471717
 C         -2.5771307496        2.3489302421        0.8850253815
 C         -3.1036713150        1.0406153974        0.8144617423
 C         -0.1492117931        0.3809573538       -1.5727578715
 Ni        -0.1942491009       -1.6769048552       -1.1003642585
 C         -1.1862262455       -2.4202491060       -2.3871710469
 O         -1.7679271047       -2.9311721609       -3.2273984437
 C          1.4130741611       -2.4782572093       -1.0827517490
 O          2.3212058677       -3.1705565129       -1.0088642126
 C         -0.8770954321       -1.7411147317        0.5526980162
 O         -1.2475445198       -1.8407488745        1.6269807665
 H          3.4818094975        2.9891052303        2.1026375606
 H          2.5849362334        2.2840744538        3.4552440979
 H          1.9070571727        3.6324653358        2.5524118615
 H          1.5895775408        2.3088160732        0.5794076851
 H          0.5983369903        0.7182113220        2.9868348078
 H         -0.1125723609        0.7386989757        1.3727122041
 H         -0.1408212513        2.1909610035        2.3689876260
 H          2.5472849348       -0.4385139433        3.0396008821
 H          3.9740648385        0.5799488084        2.8143257592
 H          3.4937502230       -2.0910546944        1.4340151341
 H          4.5759455872       -1.8113229356        2.7990387861
 H          6.5745385457       -2.5670762827        1.4166208786
 H          6.8858246401       -1.8175093922       -0.1505219937
 H          5.4965926089       -2.8858646205        0.0576053184
 H          4.0091577767       -1.0655511443       -0.7918345557
 H          5.3660316401        0.0428177936       -0.9862111818
 H          2.3525149901       -0.3037232171       -1.7096320252
 H          2.6091429115        0.9613777997       -2.9441888852
 H          1.2510071224        3.2463312122       -2.1862372139
 H         -1.4847643136        3.2995832704       -2.1305370108
 H         -3.6850936105        2.6358494359       -1.6512385194
 H         -4.5394768226        1.3057859367       -2.4144709017
 H         -3.2269934714        2.1000818850       -3.2838524233
 H         -3.7572847525       -1.5773574603       -1.2478399376
 H         -4.7170663289       -2.5002099615        0.7992422689
 H         -4.6557125532       -1.1919503033        2.8958374424
 H         -4.1003400720        0.8218883763        4.0778192553
 H         -3.1850979952        3.1115851842        4.1190380576
 H         -2.2176265353        4.0781202471        2.0639758710
 H         -2.1216195560        2.7934246588        0.0173818228
  70
       -106.38392858
 C          0.5099600224        2.2231951438        2.3632274975
 C          1.5157190774        1.2719178863        3.0027379577
 C          2.6607821823        2.0850845334        3.6037031248
 C          1.9900365345        0.1629626900        2.0337540683
 H          1.1299202529       -0.1494867513        1.4302798414
 C          2.4683926216       -1.0350262347        2.8680286329
 C          2.9351072716       -2.2129463716        2.0235398304
 C          4.0555881913       -1.7841681259        1.0819845176
 H          4.9077588840       -1.4378552838        1.6783920527
 C          4.5101808846       -2.9428826162        0.1995810812
 C          3.5467601632       -0.6303739577        0.2216874251
 C          3.1223293849        0.5668238159        1.0704298212
 H          3.9857131778        0.8841093007        1.6680601392
 O          2.8392134240        1.7447929699        0.2925970592
 C          2.3254823784        1.6598788159       -0.9974994306
 N          0.8767889720        1.7201028808       -1.0570382122
 C          0.2052271607        2.8799592647       -0.7765490809
 C         -1.1119020133        2.5969077850       -0.8504870162
 N         -1.2115448847        1.2744159365       -1.1837957815
 C         -2.5056414482        0.6279978528       -1.3476825922
 H         -2.3210896385       -0.4532003680       -1.4088821848
 C         -3.1166982954        1.0736403859       -2.6756577659
 C         -3.3499519592        0.9217946290       -0.1210777112
 C         -4.4487198900        1.7402323494       -0.1863571829
 C         -5.2015251550        2.0521089537        0.9550349491
 C         -4.8443062975        1.5511911687        2.1720908315
 C         -3.7277643432        0.6987096019        2.2918500358
 C         -3.3546128239        0.1667723914        3.5439086980
 C         -2.2869008444       -0.6763915782        3.6605280344
 C         -1.5490976612       -1.0240541310        2.5211636135
 C         -1.8767389363       -0.5122210559        1.2964473510
 C         -2.9703053098        0.3664564471        1.1351565787
 C          0.0093911922        0.7161625289       -1.3345271661
 Ni         0.3842253959       -1.2022117255       -2.1721779071
 C          1.9744642823       -1.1815638851       -3.0039205536
 O          2.9402457579       -1.2771998811       -3.6054840261
 C          0.2744228266       -2.4199308128       -0.8735036463
 O          0.2071613315       -3.2596702391       -0.1017164532
 C         -0.8474254210       -1.4907768229       -3.4477107357
 O         -1.5194825392       -1.8025165771       -4.3159077227
 H          0.9994914619        2.8238185983        1.6045923207
 H          0.0966072363        2.8913070246        3.1163888202
 H         -0.3135529523        1.6741605563        1.9111046603
 H          0.9974155821        0.7580836818        3.8222294381
 H          2.2713277400        2.7527623861        4.3694963031
 H          3.1385156031        2.6886473198        2.8365707606
 H          3.4076317749        1.4442223864        4.0655081328
 H          1.6539805358       -1.3578720305        3.5202100771
 H          3.2932346872       -0.7139642222        3.5080392371
 H          2.1013451045       -2.6008582156        1.4364861604
 H          3.2824834981       -3.0159473668        2.6773443108
 H          5.3189061917       -2.6323866058       -0.4582384403
 H          3.6850965293       -3.2963321530       -0.4159103485
 H          4.8618261161       -3.7719450338        0.8092132364
 H          2.6879115892       -0.9969490400       -0.3506267238
 H          4.3299613332       -0.3186011533       -0.4748419418
 H          2.6445182573        0.7640372382       -1.5369803049
 H          2.7085872001        2.5475191351       -1.5200449774
 H          0.7182520774        3.7930602226       -0.5570767590
 H         -1.9711669587        3.2127454059       -0.6845838074
 H         -2.4544984528        0.7795504815       -3.4872416440
 H         -3.2360580420        2.1537852050       -2.7168068951
 H         -4.0811056670        0.5965334490       -2.8264478187
 H         -4.7616261267        2.1652794258       -1.1267297648
 H         -6.0605785241        2.6991388771        0.8562141383
 H         -5.4106556554        1.7945317244        3.0593496936
 H         -3.9394551070        0.4381337310        4.4113134491
 H         -2.0099345260       -1.0831146948        4.6219096101
 H         -0.7154967026       -1.7041551732        2.6136838725
 H         -1.2850605268       -0.7965399586        0.4398361328
  70
       -106.38392663
 C          3.9164861198       -0.6701270679       -2.7636467969
 C          4.5334568743        0.6011613085       -2.1832148095
 C          5.9463633253        0.7863237057       -2.7348152476
 C          4.5331789697        0.6356989300       -0.6411229395
 H          5.1938631568        1.4550939584       -0.3362858933
 C          5.0313220761       -0.6612395141       -0.0018046658
 C          5.0857402089       -0.5436453928        1.5173885274
 C          3.7001175750       -0.2305928651        2.0773997058
 H          3.0213254420       -1.0457550717        1.8018922825
 C          3.7309100198       -0.1140986540        3.5984334050
 C          3.1850542658        1.0607048669        1.4459598938
 C          3.1409651300        0.9655407027       -0.0817134952
 H          2.4308001846        0.1786340167       -0.3726257267
 O          2.6971032765        2.2199044581       -0.6205210684
 C          1.4101272864        2.2279395105       -1.1395000563
 N          0.4136978626        2.0352255353       -0.1071790084
 C          0.1962925393        2.9916931824        0.8476286883
 C         -0.6222409051        2.4386133466        1.7654091835
 N         -0.8891849062        1.1593782670        1.3491676982
 C         -1.6054807147        0.2414268922        2.2289624426
 H         -2.1422574013        0.8772282798        2.9476335074
 C         -0.5648758128       -0.5572598757        3.0168223505
 C         -2.6608751459       -0.5952252417        1.5321854093
 C         -2.5782699749       -1.9656226803        1.4937394724
 C         -3.6171915348       -2.7487272113        0.9707760276
 C         -4.7475269680       -2.1579252850        0.4877836811
 C         -4.8746735311       -0.7532619066        0.4901710367
 C         -6.0301988104       -0.1333337327       -0.0282526555
 C         -6.1542601848        1.2264037807       -0.0402300354
 C         -5.1210433260        2.0215763170        0.4728842512
 C         -3.9898432166        1.4499106369        0.9863410957
 C         -3.8226250504        0.0478385831        1.0140794734
 C         -0.2516853130        0.8893698721        0.1873765878
 Ni        -0.3538349325       -0.8155375691       -1.0607826165
 C          0.2826667412       -0.5593587849       -2.7300461681
 O          0.4801359133       -0.5899211563       -3.8554382917
 C          0.5410778402       -2.0607332439       -0.1598536730
 O          1.1866441890       -2.8137238758        0.4113219821
 C         -2.0945909667       -1.0613115587       -1.4151502848
 O         -3.1494304860       -1.2115150339       -1.8203028350
 H          2.9580275801       -0.8957735325       -2.3004384159
 H          4.5765876190       -1.5221767064       -2.6203524927
 H          3.7526680020       -0.5478479719       -3.8323713898
 H          3.9353693828        1.4581461577       -2.5129737865
 H          6.3807697278        1.7176365505       -2.3784797671
 H          5.9226273840        0.8140826934       -3.8219163753
 H          6.5926412016       -0.0344410603       -2.4324304803
 H          6.0238505758       -0.9005409349       -0.3857000327
 H          4.3591540995       -1.4793250730       -0.2648840353
 H          5.7788047370        0.2515309666        1.8021711451
 H          5.4543129211       -1.4784662938        1.9451592087
 H          4.3963891042        0.6904877882        3.9044109079
 H          4.0853897689       -1.0405899937        4.0440577927
 H          2.7374104642        0.0950058915        3.9893875996
 H          3.8382059115        1.8928595779        1.7185850125
 H          2.1859279967        1.2845987488        1.8260129289
 H          1.2643320720        1.4441010024       -1.8980239588
 H          1.2714543493        3.2160497863       -1.5921725092
 H          0.6496220102        3.9593623576        0.7931348193
 H         -1.0285343952        2.8464983120        2.6690796052
 H          0.0765952732        0.1316751602        3.5647106918
 H          0.0592251338       -1.1404219815        2.3456923402
 H         -1.0502976845       -1.2166984553        3.7304561197
 H         -1.7100002818       -2.4741715752        1.8802012864
 H         -3.5093823951       -3.8232245106        0.9599189602
 H         -5.5572047589       -2.7519071532        0.0893587558
 H         -6.8149912332       -0.7612324141       -0.4252876322
 H         -7.0394761365        1.6952538174       -0.4438639846
 H         -5.2214464089        3.0973515039        0.4580547836
 H         -3.2117990715        2.0955528874        1.3618532104
  70
       -106.38380751
 C          3.7038128526       -0.2189674707       -3.2768281847
 C          3.4614216208        0.2430619002       -1.8391372114
 C          4.5271696821        1.2855131594       -1.4922320154
 C          3.4650769758       -0.8998233063       -0.7969261150
 H          4.4963451585       -1.0525025711       -0.4610087263
 C          2.9359708647       -2.2246214062       -1.3577660347
 C          3.0202069182       -3.3456550951       -0.3285021649
 C          2.1979648753       -3.0156256982        0.9125985775
 H          1.1446656714       -2.9261792923        0.6226809065
 C          2.3322529883       -4.1158460798        1.9615481732
 C          2.6605518254       -1.6757969442        1.4755539235
 C          2.6085888629       -0.5518476796        0.4368103513
 H          1.5698445957       -0.4078816228        0.1076363401
 O          3.0548493168        0.6316596969        1.1178501664
 C          2.2592863183        1.7629689842        0.9941800088
 N          0.9503832535        1.5918189302        1.5869583174
 C          0.7755023918        1.3881666571        2.9280074488
 C         -0.5494107864        1.2128966560        3.1246976704
 N         -1.1515617272        1.3043452544        1.8971216593
 C         -2.5801633712        1.1702575232        1.6432624932
 H         -2.8856904673        2.1019305039        1.1464955733
 C         -3.4033918162        1.0392033549        2.9243029486
 C         -2.9045439475        0.0320890977        0.6887508697
 C         -3.7634327426        0.3066581177       -0.3487842017
 C         -4.1404479971       -0.6702767808       -1.2777163562
 C         -3.6512986921       -1.9388276533       -1.1650747506
 C         -2.7970263063       -2.2816719313       -0.0980492245
 C         -2.3213032102       -3.6029160389        0.0389629576
 C         -1.5304147920       -3.9626404613        1.0914453089
 C         -1.1803938777       -3.0032124491        2.0509614128
 C         -1.6023835942       -1.7087397555        1.9319298393
 C         -2.4215376862       -1.2947786102        0.8580425459
 C         -0.2346335327        1.5497334747        0.9332973507
 Ni        -0.5612456438        1.8489039257       -1.1265765122
 C         -2.0218729322        2.8696040890       -1.3241270665
 O         -2.8694584468        3.5956363319       -1.5677658990
 C          0.7424362984        2.8072509713       -1.9222321198
 O          1.4256854406        3.4544264407       -2.5701160780
 C         -0.6625864932        0.1562234243       -1.6711605771
 O         -0.6772716839       -0.9589687225       -1.9176446481
 H          2.8875395262       -0.8336201410       -3.6454419665
 H          4.6345222188       -0.7770215881       -3.3552180758
 H          3.7791706582        0.6547192342       -3.9212887240
 H          2.4692113393        0.7110043046       -1.8188651772
 H          4.3822828085        2.1891897820       -2.0809572370
 H          5.5150856861        0.8879212808       -1.7184817323
 H          4.5032174336        1.5471195995       -0.4393515703
 H          3.5197300343       -2.5142498738       -2.2303612775
 H          1.8970067433       -2.0948395325       -1.6696869773
 H          4.0637991622       -3.4947436411       -0.0402378921
 H          2.6600022075       -4.2761400772       -0.7726617749
 H          1.9537721180       -5.0590648859        1.5745815128
 H          1.7759231887       -3.8635003197        2.8609629370
 H          3.3764670793       -4.2520553305        2.2354977356
 H          3.6898274950       -1.7560848870        1.8315984739
 H          2.0357860210       -1.3917138676        2.3262338289
 H          2.1030959156        2.0625183114       -0.0513843641
 H          2.7931517064        2.5574148189        1.5299603624
 H          1.5988483691        1.3830936977        3.6117602777
 H         -1.0839576458        1.0433801903        4.0354840734
 H         -3.2303322925        1.8845016387        3.5873362774
 H         -3.1885002434        0.1114982567        3.4484685002
 H         -4.4562647181        1.0307338703        2.6525668271
 H         -4.1687010747        1.3026950724       -0.4571843362
 H         -4.8074124996       -0.4035391116       -2.0838349108
 H         -3.9163789790       -2.7010695469       -1.8833456292
 H         -2.6057951106       -4.3292053763       -0.7090109400
 H         -1.1739625133       -4.9767535638        1.1944938697
 H         -0.5703174587       -3.2932484301        2.8936110652
 H         -1.3020365496       -1.0027552782        2.6875232938
  70
       -106.38374725
 C          1.5601876485       -3.3846180425        1.5559068003
 C          1.6654029054       -2.2994032801        0.4871867225
 C          1.1879885713       -2.8362625016       -0.8606339830
 C          3.0792569345       -1.6982239566        0.3573062389
 H          3.0860716210       -1.1001105382       -0.5607845780
 C          4.1924001230       -2.7406323451        0.2276508098
 C          5.5377031914       -2.0690163647       -0.0308396394
 C          5.8999678718       -1.1189718822        1.1098901385
 H          5.9809530965       -1.7009119190        2.0352436138
 C          7.2353695077       -0.4281925512        0.8492541488
 C          4.7831589234       -0.0897410202        1.2820765500
 C          3.4366191726       -0.7746320541        1.5349371407
 H          3.5122179443       -1.3752246735        2.4483445123
 O          2.4222995540        0.1638054934        1.8810651025
 C          2.1015527388        1.1541504058        0.9427408876
 N          0.6786191185        1.3742474042        0.9898161023
 C          0.0405128727        1.6428517285        2.1706202103
 C         -1.2720788836        1.7700911876        1.8804450935
 N         -1.3990701068        1.5733764297        0.5337946384
 C         -2.6767004872        1.6858728995       -0.1534214028
 H         -2.5705100390        1.1594192994       -1.1132993014
 C         -2.9295769534        3.1626062037       -0.4589319731
 C         -3.7591110100        1.0098423664        0.6660400352
 C         -4.8247926909        1.7183436288        1.1605953844
 C         -5.8247119487        1.1047729115        1.9287148709
 C         -5.7529434860       -0.2272487324        2.2102870985
 C         -4.6788925120       -1.0008839402        1.7245852749
 C         -4.6007667557       -2.3798294547        2.0104528380
 C         -3.5674179339       -3.1370808336        1.5390329934
 C         -2.5716179317       -2.5388359883        0.7558664115
 C         -2.6159276087       -1.2042508846        0.4627867161
 C         -3.6656132329       -0.3865962860        0.9374172667
 C         -0.2004301007        1.3250180345       -0.0379828283
 Ni         0.1543725099        1.0624178346       -2.1107547942
 C         -0.2553363793        2.6402171381       -2.8438819139
 O         -0.4282888811        3.6409097684       -3.3651440891
 C          1.8744346274        0.7129394104       -2.4717181245
 O          2.9280916091        0.5058450850       -2.8654497817
 C         -0.8708549110       -0.3030617740       -2.6510760888
 O         -1.4633128691       -1.1820211607       -3.0740750905
 H          0.5179060454       -3.6659729531        1.6911744636
 H          1.9357388629       -3.0286078800        2.5116611511
 H          2.1155188144       -4.2734836500        1.2664664597
 H          0.9953433651       -1.4813515174        0.7757789133
 H          1.8274397659       -3.6423271347       -1.2128032831
 H          1.1850751049       -2.0437202784       -1.6077264728
 H          0.1750843895       -3.2227071334       -0.7788727529
 H          3.9644397446       -3.4208243275       -0.5937738192
 H          4.2583842128       -3.3263188677        1.1460122613
 H          5.4927885940       -1.5077668140       -0.9671499476
 H          6.3140057798       -2.8297988459       -0.1361812891
 H          7.1875942707        0.1586250933       -0.0656215664
 H          8.0299181825       -1.1630901457        0.7431714395
 H          7.4902171699        0.2372449512        1.6709801684
 H          4.7189789071        0.5224196008        0.3789233975
 H          5.0074680865        0.5723325157        2.1217875027
 H          2.3644542716        0.8698760186       -0.0814254204
 H          2.6123253785        2.0988906976        1.1990784843
 H          0.5749040240        1.6992232917        3.0951027613
 H         -2.1136642239        1.9718237420        2.5102813431
 H         -3.8515319861        3.2835599708       -1.0203947633
 H         -2.1082566304        3.5408050091       -1.0635772359
 H         -2.9770061303        3.7516212519        0.4544734558
 H         -4.9197364403        2.7744049619        0.9667572007
 H         -6.6462249905        1.7025185725        2.2949144167
 H         -6.5143809920       -0.7102336677        2.8053849350
 H         -5.3812391321       -2.8246941469        2.6113221674
 H         -3.5126119111       -4.1928261204        1.7601693821
 H         -1.7615107959       -3.1443592878        0.3782818170
 H         -1.8305823851       -0.7831932488       -0.1451211681
  70
       -106.38371638
 C          1.0429902012       -3.4201199895       -1.5270806170
 C          1.4803939723       -1.9636588031       -1.3954335269
 C          1.3216873341       -1.2416466493       -2.7323432807
 C          2.9138834947       -1.7968215509       -0.8532596228
 H          3.1507537468       -0.7283401147       -0.9138915658
 C          3.9821345012       -2.5426520972       -1.6568802378
 C          5.3790520407       -2.2081312432       -1.1415829691
 C          5.5268694706       -2.5879484911        0.3312619567
 H          5.3854329078       -3.6706590322        0.4274810493
 C          6.9138678180       -2.2286291145        0.8561870931
 C          4.4405870183       -1.8852687179        1.1454826399
 C          3.0477787821       -2.2380496730        0.6148855148
 H          2.9166771784       -3.3243102810        0.6727675302
 O          2.0149279161       -1.7695468470        1.4758993838
 C          1.9200895053       -0.3878086804        1.6905051771
 N          0.5237602905       -0.0437918371        1.7732275107
 C         -0.3152064210       -0.6888720603        2.6414089782
 C         -1.5456538766       -0.1668630536        2.4498947487
 N         -1.4246685656        0.7783626440        1.4699619259
 C         -2.5471674349        1.5934705118        1.0309757206
 H         -2.2735546847        2.0121558585        0.0512201805
 C         -2.7055990309        2.7593562156        2.0075591954
 C         -3.7790311797        0.7227570106        0.8725221211
 C         -4.8965878848        0.9220238478        1.6429785823
 C         -6.0365830649        0.1164054676        1.5094505688
 C         -6.0561028997       -0.8998951543        0.6008176839
 C         -4.9339774487       -1.1456545474       -0.2167295479
 C         -4.9492985844       -2.1919920679       -1.1624474881
 C         -3.8695333263       -2.4312776810       -1.9627594396
 C         -2.7286784165       -1.6265129313       -1.8453696303
 C         -2.6795465309       -0.6078231166       -0.9350872555
 C         -3.7759640049       -0.3294399962       -0.0892681138
 C         -0.1489065428        0.8698634237        1.0352525435
 Ni         0.5766433741        2.2455039437       -0.4057930276
 C          2.3357175358        2.0619479567       -0.6895441894
 O          3.4453059358        2.0819564324       -0.9662720475
 C         -0.3034356575        1.9317705937       -1.9327625008
 O         -0.7818771988        1.7917022637       -2.9593844025
 C          0.2819333213        3.8612029329        0.2992107258
 O          0.1957219583        4.9138793662        0.7326438898
 H         -0.0031041242       -3.4633939590       -1.8227119075
 H          1.1426385003       -3.9432763089       -0.5799051410
 H          1.6295637597       -3.9381569978       -2.2819604319
 H          0.8103736964       -1.4777406485       -0.6765563582
 H          1.9151405930       -1.7160220685       -3.5103117670
 H          1.6303300859       -0.2011911959       -2.6458510086
 H          0.2814148608       -1.2566498163       -3.0484020430
 H          3.9118123171       -2.2651045948       -2.7088941891
 H          3.8201739663       -3.6189262580       -1.5767601131
 H          5.5635908304       -1.1374555725       -1.2573463610
 H          6.1261663133       -2.7399026915       -1.7345632970
 H          7.0858366773       -1.1575200430        0.7737990897
 H          7.6825031541       -2.7434569146        0.2845232372
 H          7.0143511124       -2.5130695481        1.9011704665
 H          4.5926682043       -0.8043717254        1.0901744629
 H          4.5064222034       -2.1813074159        2.1951387577
 H          2.3652120268        0.1983542336        0.8799102604
 H          2.4068372936       -0.1168121767        2.6437746929
 H          0.0380160864       -1.4607919819        3.2916323261
 H         -2.4834845016       -0.3916023143        2.9142477692
 H         -2.9068100614        2.4045809493        3.0160822171
 H         -3.5059281324        3.4197123867        1.6861161015
 H         -1.7787975230        3.3283538643        2.0281080095
 H         -4.9251654407        1.7125414253        2.3752607146
 H         -6.8936864021        0.3118429741        2.1367452604
 H         -6.9274925089       -1.5290403739        0.4909458006
 H         -5.8394300043       -2.7999111137       -1.2412053968
 H         -3.8876060634       -3.2321818899       -2.6871344124
 H         -1.8804727588       -1.8147234776       -2.4863928407
 H         -1.7823549784       -0.0122028008       -0.8744841275
  70
       -106.38371490
 C          2.0636731672       -2.6742571451        0.9474799951
 C          2.4212632035       -1.5672155511        1.9354923571
 C          1.2373825312       -0.6164625058        2.0882789358
 C          3.7395060988       -0.8578383312        1.5507903734
 H          4.4024096036       -1.6152980689        1.1203104525
 C          4.4152996889       -0.2755486039        2.7975885570
 C          5.7766607693        0.3316203322        2.4799109099
 C          5.6442983794        1.4308505916        1.4296313801
 H          5.0019207443        2.2231733754        1.8336073314
 C          7.0034105757        2.0331181152        1.0848110742
 C          4.9766981941        0.8510572102        0.1846600457
 C          3.5978854547        0.2577146825        0.5036424738
 H          2.9515706016        1.0494432014        0.9092843923
 O          2.9991816565       -0.2977552755       -0.6677742736
 C          2.5141003670        0.5945560720       -1.6123732099
 N          1.3557697916        1.3415023065       -1.1667864809
 C          1.4398434607        2.5866587013       -0.6008521409
 C          0.1785174446        2.9626035815       -0.2925735876
 N         -0.6441880403        1.9416122441       -0.6803936358
 C         -2.0894260814        1.9191577400       -0.5386735758
 H         -2.4535279004        1.3919437794       -1.4276538811
 C         -2.6865019387        3.3251120449       -0.5116490746
 C         -2.5027211795        1.1456301089        0.6997840764
 C         -1.7377370162        1.2313602545        1.8349273988
 C         -2.0717645049        0.5269167843        2.9983563855
 C         -3.1807366428       -0.2671039281        3.0192968925
 C         -4.0097589524       -0.3700463314        1.8836691539
 C         -5.1606472391       -1.1852999762        1.9032804395
 C         -5.9707688311       -1.2851398257        0.8090323791
 C         -5.6630203710       -0.5622858994       -0.3517081124
 C         -4.5541957187        0.2356333810       -0.4030799718
 C         -3.6834967032        0.3535617617        0.7030187541
 C          0.0674985662        0.9258575047       -1.2180636580
 Ni        -0.7156622503       -0.9227711380       -1.8338060168
 C         -1.9551582360       -0.5993699643       -3.0796890110
 O         -2.7522952685       -0.4584676851       -3.8870678299
 C          0.5791912088       -1.9866951774       -2.4844671355
 O          1.2915592681       -2.7666707388       -2.9163570322
 C         -1.3392623126       -1.6225048829       -0.3123214823
 O         -1.6717923921       -2.1327341983        0.6522713901
 H          1.1667556817       -3.1942394636        1.2779529484
 H          2.8711517117       -3.3987640878        0.8681275246
 H          1.8782346024       -2.2520356732       -0.0356853150
 H          2.6001523155       -2.0388639507        2.9104532902
 H          1.4862371338        0.2365617936        2.7168264693
 H          0.4000067045       -1.1400913660        2.5444751328
 H          0.9089238948       -0.2627459052        1.1137600043
 H          4.5375856242       -1.0673688258        3.5390554176
 H          3.7712516451        0.4910863321        3.2351295759
 H          6.4434509919       -0.4467209094        2.1025526698
 H          6.2201961625        0.7394817571        3.3907721424
 H          7.6624784666        1.2707421581        0.6754429652
 H          7.4717308645        2.4494372049        1.9736764639
 H          6.8992177268        2.8271707942        0.3484148813
 H          5.6021804661        0.0619963936       -0.2379848355
 H          4.8809251496        1.6366545259       -0.5692776768
 H          2.2178111631       -0.0183073392       -2.4707414370
 H          3.2729195497        1.3267989961       -1.9289009049
 H          2.3699747491        3.1040189364       -0.4815396947
 H         -0.1759973130        3.8659387483        0.1568910447
 H         -3.7684405338        3.2496420776       -0.5842457672
 H         -2.3216129078        3.9157756302       -1.3497257898
 H         -2.4515530405        3.8340175315        0.4206524552
 H         -0.8452361291        1.8409395813        1.8420187328
 H         -1.4382290598        0.6143120128        3.8685575830
 H         -3.4422934537       -0.8283884865        3.9046870228
 H         -5.3863896444       -1.7330121184        2.8072501916
 H         -6.8477311139       -1.9151736470        0.8289971384
 H         -6.3101657058       -0.6408142158       -1.2130622454
 H         -4.3540392598        0.7812463131       -1.3121860600
  70
       -106.38371444
 C          1.7433306439       -2.0304074774        2.2602910307
 C          2.0940247492       -0.6159256417        2.7140536704
 C          0.9830253668        0.3441852915        2.2984511475
 C          3.4970332633       -0.1879264478        2.2269368511
 H          4.1332601319       -1.0786125100        2.2463809422
 C          4.0965134532        0.8556330225        3.1766026110
 C          5.5279214070        1.2177146110        2.7985861043
 C          5.5888618907        1.7545807683        1.3713471661
 H          4.9798941751        2.6654232274        1.3154513878
 C          7.0204243797        2.0994889707        0.9707273734
 C          4.9964455223        0.7145669876        0.4230872904
 C          3.5489419417        0.3657643168        0.7945825096
 H          2.9348485854        1.2762450376        0.7402749211
 O          3.0210173900       -0.6231713223       -0.0900308683
 C          2.7018386634       -0.2134333233       -1.3760064420
 N          1.5644588340        0.6816540911       -1.4370279241
 C          1.6849887747        2.0465955196       -1.4481208237
 C          0.4312224585        2.5500569816       -1.4924300224
 N         -0.4229536515        1.4825400229       -1.5115064061
 C         -1.8724792657        1.5586963493       -1.5650013785
 H         -2.1779025010        0.7167018158       -2.1962630977
 C         -2.3574446603        2.8608123327       -2.1998929730
 C         -2.4775315304        1.3876090682       -0.1839277368
 C         -1.8376989377        1.9258994341        0.9033178773
 C         -2.3501725612        1.7841837682        2.1989282836
 C         -3.5115065046        1.0976411032        2.4009323810
 C         -4.2163262114        0.5456365186        1.3118610346
 C         -5.4207664707       -0.1595455487        1.5158823712
 C         -6.1113152527       -0.6912535750        0.4651218736
 C         -5.6247737643       -0.5295149696       -0.8393603557
 C         -4.4597474341        0.1473571810       -1.0702946028
 C         -3.7086271316        0.6982689495       -0.0083334261
 C          0.2602925492        0.3167640294       -1.4705838899
 Ni        -0.5941441493       -1.5957781103       -1.3246089496
 C         -1.4102532606       -1.5493903179        0.2642685953
 O         -1.8722305400       -1.5820122466        1.3067858428
 C         -1.6864527513       -1.8169813024       -2.7214427677
 O         -2.3962987140       -2.0259352887       -3.5929795670
 C          0.6759281761       -2.8678833455       -1.2990985869
 O          1.3681201097       -3.7746369337       -1.2663014841
 H          2.4929539717       -2.7427963439        2.5976127654
 H          1.6875026775       -2.0722793857        1.1765337523
 H          0.7796333210       -2.3258612574        2.6702291867
 H          2.1388212992       -0.6217874893        3.8108506368
 H          0.0653072709        0.0973650266        2.8279289044
 H          0.7809345183        0.2495737795        1.2341197437
 H          1.2387960999        1.3771734537        2.5270381788
 H          4.0808957319        0.4616150222        4.1945483554
 H          3.4797962357        1.7575192845        3.1612030415
 H          6.1603064111        0.3305810744        2.8754467825
 H          5.9150344878        1.9657996622        3.4937533168
 H          7.4355435124        2.8444279602        1.6456091162
 H          7.0538902253        2.4972652064       -0.0413513784
 H          7.6488638926        1.2125795311        1.0110343196
 H          5.5912326809       -0.2005570782        0.4582947408
 H          5.0386561322        1.0972092991       -0.5999367045
 H          2.4471707197       -1.1286349730       -1.9216638548
 H          3.5417468550        0.2913030708       -1.8779250549
 H          2.6347331107        2.5415650531       -1.4425402081
 H          0.1028403617        3.5674956754       -1.5178456529
 H         -1.8607456105        3.0347993346       -3.1524845411
 H         -2.1841984913        3.7080407234       -1.5399094184
 H         -3.4281066395        2.7899961142       -2.3738486297
 H         -0.9076456577        2.4612388165        0.7742575726
 H         -1.8115428896        2.2154186213        3.0296986511
 H         -3.9103258712        0.9665559913        3.3964799588
 H         -5.7850917868       -0.2715091082        2.5272381482
 H         -7.0302976572       -1.2344887675        0.6287597799
 H         -6.1779913223       -0.9473041637       -1.6677897679
 H         -4.1208993507        0.2567490216       -2.0888494994
  70
       -106.38366008
 C          2.0005637750        1.3039911310        4.1903687552
 C          1.3291662546        1.2780558960        2.8189570086
 C         -0.1873268769        1.3546160122        2.9857309443
 C          1.7300549050        0.0725210578        1.9430924773
 H          1.0339526680        0.0561514939        1.0972550977
 C          1.6299073816       -1.2968938785        2.6386327783
 C          2.9790591217       -1.8114378819        3.1315726354
 C          3.9594854793       -2.0376779522        1.9681396231
 H          4.9747448333       -1.8456346694        2.3321260988
 C          3.9014380395       -3.4767742053        1.4607699535
 C          3.6613932974       -1.0662030703        0.8169179703
 C          3.1444034557        0.2624738007        1.3653004301
 H          3.8250363116        0.6018631607        2.1529246813
 O          3.2332981882        1.3456051965        0.4325781526
 C          2.6801198863        1.1966072833       -0.8323732347
 N          1.2732876749        1.5546807282       -0.8803482239
 C          0.8044615299        2.7305720296       -0.3626657204
 C         -0.5355329653        2.7203872096       -0.5319721076
 N         -0.8474367060        1.5426678023       -1.1551767775
 C         -2.2137385587        1.2001943851       -1.5215605379
 H         -2.2110030285        0.1422198835       -1.8107996955
 C         -2.6162702457        2.0112582095       -2.7524615131
 C         -3.1053413408        1.3726786160       -0.3074799899
 C         -3.9789140685        2.4252328607       -0.2062482163
 C         -4.7806285475        2.6063312050        0.9297301469
 C         -4.7003057576        1.7311756115        1.9727743190
 C         -3.8194399613        0.6318921660        1.9164731944
 C         -3.7333666620       -0.2807155999        2.9885923968
 C         -2.8869653447       -1.3507506382        2.9348570775
 C         -2.0895903946       -1.5496740126        1.7995086436
 C         -2.1457066377       -0.6797285566        0.7468033408
 C         -3.0081968013        0.4389677782        0.7643674843
 C          0.2618795851        0.8093502722       -1.3851642575
 Ni         0.4470016485       -1.0317072242       -2.4114304557
 C          0.5653820092       -2.2716918617       -1.1360838946
 O          0.5813738741       -3.0752750228       -0.3228014351
 C         -0.9791937538       -1.2885668979       -3.4714471278
 O         -1.7971748036       -1.5383643920       -4.2275434830
 C          1.8753379463       -0.8447843477       -3.4796458532
 O          2.7455519969       -0.7339145592       -4.2092750550
 H          3.0837501824        1.2954162241        4.1014623387
 H          1.6911385665        0.4563317604        4.7959983535
 H          1.7171575333        2.2134213466        4.7164099376
 H          1.6529979146        2.1729730561        2.2745485450
 H         -0.6828832118        1.4167753586        2.0195612984
 H         -0.4604847806        2.2344838259        3.5641075607
 H         -0.5691667865        0.4775115107        3.5026355809
 H          1.2209118690       -2.0254031182        1.9377696775
 H          0.9305970727       -1.2351483573        3.4725723188
 H          2.8324747965       -2.7513163878        3.6673648210
 H          3.4027984125       -1.0984750096        3.8384882772
 H          4.2082989683       -4.1711132421        2.2398279119
 H          4.5632459551       -3.6062635947        0.6069892715
 H          2.8906331705       -3.7321888838        1.1515014600
 H          2.9085333760       -1.5079648621        0.1607187589
 H          4.5651993111       -0.8953088245        0.2281662219
 H          2.7727596905        0.1766105051       -1.2263817434
 H          3.2342529755        1.8886862197       -1.4814441757
 H          1.4600179613        3.4508141669        0.0799923670
 H         -1.2814835364        3.4358058786       -0.2543051240
 H         -1.9679411208        1.7358165557       -3.5822244057
 H         -2.5090063849        3.0797999577       -2.5813300261
 H         -3.6438786867        1.7908839175       -3.0278550496
 H         -4.0700340724        3.1400254216       -1.0089867085
 H         -5.4568620440        3.4475682230        0.9668994040
 H         -5.3096485307        1.8641879101        2.8549335562
 H         -4.3573048616       -0.1145479328        3.8552869699
 H         -2.8282541460       -2.0473748912        3.7582743162
 H         -1.4264590282       -2.4007777620        1.7591821360
 H         -1.5129053077       -0.8635276017       -0.1091614390
  70
       -106.38365758
 C          4.3453035551        3.3702853894       -0.9517360143
 C          3.7606396187        1.9577917164       -0.9165223555
 C          2.4158891850        1.9775728461       -1.6469332076
 C          3.5815535745        1.4352979377        0.5242532987
 H          2.6909541744        1.9284004608        0.9358692812
 C          4.7442532104        1.7243774187        1.4783999505
 C          6.0025524006        0.9504575686        1.1045206369
 C          5.7699319981       -0.5614007981        1.1525058654
 H          6.6486708333       -1.0530414338        0.7161073096
 C          5.6169962247       -1.0776177248        2.5816307989
 C          4.5598100452       -0.9254368111        0.2880659603
 C          3.3090814826       -0.0793568425        0.5481013345
 H          2.5815497735       -0.3214123307       -0.2354031486
 O          2.7162102251       -0.4182308817        1.8124413841
 C          1.4785046723       -1.0328304734        1.7329633256
 N          0.4566207332       -0.1295301888        1.2408537991
 C          0.1190601594        1.0159766415        1.9100925003
 C         -0.8256545649        1.6330427206        1.1683793852
 N         -1.0416059693        0.8483491961        0.0691770551
 C         -2.0159884891        1.1967801209       -0.9546046808
 H         -2.2188627489        0.2811671209       -1.5252158167
 C         -1.3927274578        2.2107401057       -1.9123705339
 C         -3.3001242643        1.6425703180       -0.2837173514
 C         -3.7327534212        2.9421849379       -0.3523281134
 C         -4.9091975823        3.3580056163        0.2878606646
 C         -5.6504037099        2.4682119827        1.0081832734
 C         -5.2479574210        1.1204710891        1.1089641160
 C         -6.0084331904        0.1920439654        1.8502629925
 C         -5.6236601070       -1.1146380024        1.9462105978
 C         -4.4601651221       -1.5461987054        1.2945545018
 C         -3.7013136191       -0.6705608566        0.5690416590
 C         -4.0613537274        0.6903628541        0.4539994354
 C         -0.2452273286       -0.2409350400        0.0881980595
 Ni        -0.1367183649       -1.8294735017       -1.3110395279
 C          1.5691032841       -2.2814422276       -1.6384871291
 O          2.6009750995       -2.6393720433       -1.9714858449
 C         -1.0592278837       -3.1051967494       -0.4694117858
 O         -1.6507082126       -3.8840566265        0.1189515861
 C         -0.8246289381       -1.2979072185       -2.8806143738
 O         -1.1694305913       -1.0551970568       -3.9416309793
 H          5.3736935800        3.3885919124       -0.6034498277
 H          3.7535674478        4.0431185377       -0.3341818692
 H          4.3328375483        3.7470009755       -1.9724497599
 H          4.4383590740        1.2919748252       -1.4584838592
 H          2.5501176809        2.3182312267       -2.6714458596
 H          1.7308434314        2.6602272314       -1.1467211294
 H          1.9523386919        0.9938162041       -1.6834034001
 H          4.4282568006        1.4269021179        2.4790684366
 H          4.9548169704        2.7933523365        1.5071350964
 H          6.8105016521        1.2153537536        1.7902904611
 H          6.3191591128        1.2305864146        0.0976464383
 H          5.5834488226       -2.1651498966        2.5833908772
 H          4.6990512950       -0.7116746497        3.0290284277
 H          6.4611532727       -0.7612725897        3.1910725845
 H          4.3014279319       -1.9749321290        0.4473203353
 H          4.8230822226       -0.8086536904       -0.7650625125
 H          1.2242416468       -1.3379433893        2.7550766100
 H          1.4822971530       -1.9168092563        1.0738520390
 H          0.5799626300        1.2832169062        2.8382656821
 H         -1.3648321556        2.5423479759        1.3362051302
 H         -0.5254354555        1.7583906942       -2.3886748268
 H         -1.0640500388        3.1042174909       -1.3862993980
 H         -2.1054356612        2.4871335319       -2.6842634975
 H         -3.1725718545        3.6779759984       -0.9071649896
 H         -5.2152595414        4.3904011132        0.2051550726
 H         -6.5550898518        2.7794345571        1.5100822655
 H         -6.9067425686        0.5393302821        2.3407516538
 H         -6.2106913281       -1.8201565443        2.5153539668
 H         -4.1638328810       -2.5823643815        1.3654342491
 H         -2.8153718006       -1.0413760124        0.0758001968
  70
       -106.38365292
 C          4.8516880201        2.9877434660       -2.7996884902
 C          5.2763147540        1.5717368611       -2.4130681946
 C          4.7825241067        0.5749084480       -3.4590935303
 C          4.8380800659        1.2209334349       -0.9728883920
 H          4.8972549147        2.1402226730       -0.3802744867
 C          5.7891571489        0.1897310956       -0.3553268304
 C          5.4496222984       -0.0942256078        1.1036569670
 C          4.0169331273       -0.6038607426        1.2285880613
 H          3.9285971531       -1.5367112532        0.6599887906
 C          3.6424065975       -0.8859530774        2.6801239486
 C          3.0622545614        0.4208085095        0.6207299643
 C          3.3995513683        0.6980464483       -0.8469814682
 H          3.2987269517       -0.2404391065       -1.4110949718
 O          2.5216644083        1.6688141828       -1.4217307625
 C          1.2083053292        1.2786782230       -1.6320930118
 N          0.3608163088        1.5581753043       -0.4878346081
 C          0.2703590234        2.8269677454        0.0136702652
 C         -0.5770465833        2.7644286987        1.0609743570
 N         -0.9894135062        1.4613404368        1.1661285433
 C         -1.8969122316        1.0617565914        2.2355279339
 H         -2.4279024236        1.9779004948        2.5352717069
 C         -1.0439458369        0.6050444428        3.4207157202
 C         -2.9485594277        0.0690676723        1.7748247994
 C         -3.1843009069       -1.0876964288        2.4755551267
 C         -4.1558731711       -2.0120677863        2.0668957870
 C         -4.8983733611       -1.7775562978        0.9481032649
 C         -4.7294599155       -0.5820187587        0.2207712114
 C         -5.5145593825       -0.3210051475       -0.9214207456
 C         -5.3796560048        0.8453450409       -1.6177707016
 C         -4.4644246068        1.8106745446       -1.1783961788
 C         -3.6827835874        1.5836306756       -0.0797019065
 C         -3.7633629481        0.3729485936        0.6446617178
 C         -0.4028653079        0.6921363586        0.2233397751
 Ni        -0.5722571270       -1.3720378085       -0.1985432897
 C         -1.9238956526       -1.3391311560       -1.3606574939
 O         -2.7516606775       -1.2426632368       -2.1399193156
 C          0.9567437105       -2.0618017227       -0.8448636168
 O          1.8689045047       -2.6779168779       -1.1558211085
 C         -0.8226178321       -2.3382241117        1.2874080403
 O         -0.8554594779       -3.1245228790        2.1155244141
 H          3.7710571448        3.0793561362       -2.7619263729
 H          5.1900159320        3.2187392586       -3.8076915713
 H          5.2856350197        3.7166595292       -2.1185065309
 H          6.3732055240        1.5440763046       -2.4197264369
 H          5.0321109225       -0.4459186321       -3.1796404723
 H          5.2514561500        0.7856316797       -4.4179943075
 H          3.7059634810        0.6541912546       -3.5860088108
 H          6.8135352389        0.5617190012       -0.4241073345
 H          5.7339816564       -0.7405604288       -0.9247483785
 H          5.5599147942        0.8212323372        1.6900604651
 H          6.1444221861       -0.8345597605        1.5057291122
 H          2.6241769374       -1.2644203497        2.7413708511
 H          3.7085199169        0.0228371216        3.2752098573
 H          4.3110739221       -1.6277871990        3.1104419372
 H          3.1143027619        1.3583451139        1.1806731618
 H          2.0422538222        0.0340545920        0.6960663288
 H          1.1142194097        0.2091256063       -1.8734278944
 H          0.8388578877        1.8755324522       -2.4779910303
 H          0.8205918171        3.6402886687       -0.4112183460
 H         -0.9208534130        3.5307715600        1.7259401868
 H         -0.3177183255        1.3808375109        3.6584877679
 H         -0.5015729536       -0.3026612234        3.1673745036
 H         -1.6586507437        0.4330586028        4.2992351702
 H         -2.6149606682       -1.3194761853        3.3608788306
 H         -4.2932045996       -2.9163760215        2.6411116088
 H         -5.6315258439       -2.4944253015        0.6075658403
 H         -6.2282787064       -1.0696406927       -1.2346922664
 H         -5.9784361752        1.0357265716       -2.4960897149
 H         -4.3787604563        2.7447504421       -1.7150959879
 H         -3.0040723093        2.3605372167        0.2344406303
  70
       -106.38361799
 C          2.2698966229        1.7745707506       -1.9246668265
 C          3.2926724176        2.2600925169       -0.9002552275
 C          4.0955790192        3.4245074714       -1.4796543881
 C          4.2312047192        1.1558480708       -0.3720055909
 H          4.9801195420        1.6647497105        0.2456282339
 C          4.9606366103        0.3491279339       -1.4609126372
 C          4.3223785171       -1.0161386381       -1.7022853660
 C          4.3901724822       -1.9069571993       -0.4509732186
 H          3.5140807373       -2.5647643873       -0.4553439323
 C          5.6402493996       -2.7827622776       -0.4509241133
 C          4.3467539201       -1.0457269930        0.8179490659
 C          3.4989937995        0.2026513158        0.5828285944
 H          2.5330800677       -0.1015442074        0.1598436659
 O          3.2643050798        0.9021292290        1.8132043860
 C          2.0507489010        0.6230572185        2.4259376956
 N          0.9519980013        1.2761703947        1.7439731637
 C          0.7583522923        2.6297031395        1.8168415854
 C         -0.2447269220        2.9275859141        0.9618971952
 N         -0.6295528045        1.7522735496        0.3778132418
 C         -1.6881542820        1.6031894680       -0.6038664600
 H         -1.3282360183        0.8387386574       -1.3027107832
 C         -1.9449624385        2.8991391804       -1.3712466439
 C         -2.9698135042        1.1136247286        0.0444357399
 C         -3.2708018966        1.4960575642        1.3271731989
 C         -4.4419934096        1.0654200855        1.9632184498
 C         -5.3160914542        0.2508494790        1.3046169756
 C         -5.0580104267       -0.1544648699       -0.0208337709
 C         -5.9587512503       -0.9966893202       -0.7056736002
 C         -5.7125647603       -1.3953831633       -1.9879508421
 C         -4.5506973077       -0.9603863398       -2.6401973364
 C         -3.6582557177       -0.1429821790       -2.0043166490
 C         -3.8733390322        0.2840453224       -0.6750176693
 C          0.0997041180        0.7173875002        0.8526902928
 Ni        -0.2117420191       -1.3142508893        0.3553841892
 C         -1.8724954211       -1.6342847031        0.9541505146
 O         -2.8792272969       -1.9237060331        1.4040873304
 C          0.0063341869       -1.4546937081       -1.4095504519
 O          0.1694132339       -1.6094746788       -2.5304341489
 C          0.9136942655       -2.4212139543        1.2085389170
 O          1.5412876509       -3.2553722723        1.6736881745
 H          1.6107866989        2.5959936704       -2.2017247688
 H          1.6545573345        0.9722866493       -1.5231089335
 H          2.7582939597        1.4180337367       -2.8276953345
 H          2.7468389770        2.6402729520       -0.0283604909
 H          3.4287309119        4.2307759663       -1.7783998222
 H          4.6609983835        3.1130842871       -2.3546703688
 H          4.7935941151        3.8138446231       -0.7421365503
 H          6.0001127986        0.1985518013       -1.1649210467
 H          4.9750369958        0.9124882566       -2.3939223779
 H          4.8329977520       -1.5139619333       -2.5290560567
 H          3.2822593772       -0.8804311675       -1.9985832846
 H          5.6291126111       -3.4663373189       -1.2970523172
 H          5.6910346867       -3.3705611885        0.4629612250
 H          6.5366834142       -2.1696605585       -0.5148830398
 H          5.3527208839       -0.7326454165        1.1030417709
 H          3.9359897172       -1.6214615116        1.6494495767
 H          2.1197155346        1.0213816499        3.4440822408
 H          1.8325514959       -0.4540002618        2.4608777137
 H          1.3477987326        3.2527676975        2.4570904073
 H         -0.6945953599        3.8709517360        0.7362074979
 H         -2.6137451041        2.6917244282       -2.2025607124
 H         -1.0151193111        3.3043937541       -1.7652513636
 H         -2.4246525402        3.6414175152       -0.7370710121
 H         -2.5910912463        2.1319771587        1.8772143831
 H         -4.6370535011        1.3790712740        2.9780929858
 H         -6.2173529429       -0.0981022400        1.7874174990
 H         -6.8501080969       -1.3231577905       -0.1890580107
 H         -6.4038896407       -2.0443857389       -2.5048869319
 H         -4.3607148746       -1.2791378598       -3.6547437878
 H         -2.7757717061        0.1722848574       -2.5393194671
  70
       -106.38358249
 C          6.5118329442        0.7776165214        2.7472605150
 C          5.6559794544        0.6134015116        1.4889461447
 C          5.4535600112        1.9963493398        0.8724005307
 C          4.3553112518       -0.1545581799        1.8317048314
 H          3.9611643884        0.2342278482        2.7759033378
 C          4.7021423337       -1.6421568774        1.9913075276
 C          3.4973167401       -2.5159162529        2.3131107003
 C          2.4648465619       -2.3967140360        1.1987831623
 H          2.9328961062       -2.6966913573        0.2543170728
 C          1.2535406599       -3.2888092105        1.4432367256
 C          2.0472518316       -0.9349864052        1.0950071807
 C          3.2284106872       -0.0050116070        0.7944772097
 H          3.6249845971       -0.2295048525       -0.2085480615
 O          2.7821812821        1.3520521914        0.8254169649
 C          2.0292788297        1.7862509337       -0.2520590727
 N          0.5997464998        1.6879717342       -0.0161467240
 C          0.0094933278        2.2922684526        1.0598662867
 C         -1.3191018241        2.0777856594        0.9439005852
 N         -1.5035515842        1.3456238006       -0.1964021925
 C         -2.8216192357        1.0320618496       -0.7282423956
 H         -2.7144841913        0.1289993906       -1.3424362085
 C         -3.2441037183        2.1676679660       -1.6609747900
 C         -3.7794148935        0.7341253556        0.4049344332
 C         -4.8024669486        1.5912407285        0.7215647942
 C         -5.6928768476        1.3146406948        1.7688333033
 C         -5.5566464530        0.1718919151        2.5007249063
 C         -4.5204012424       -0.7406100461        2.2143659475
 C         -4.3785131667       -1.9283330673        2.9617228633
 C         -3.3815762954       -2.8176907342        2.6810801917
 C         -2.4797267136       -2.5477098301        1.6426208565
 C         -2.5828994701       -1.4005813250        0.9055400607
 C         -3.6094424596       -0.4629444855        1.1581046554
 C         -0.3246841594        1.0885030056       -0.8022896982
 Ni         0.0494736729        0.0539796230       -2.6054790984
 C          1.4076286966       -1.0908190928       -2.3679575940
 O          2.2333431748       -1.8781736751       -2.3140838344
 C         -1.3717195658       -0.9151329912       -3.1202749570
 O         -2.1621661619       -1.6098072958       -3.5640457754
 C          0.3873924059        1.4237588369       -3.6944561795
 O          0.5739408799        2.3551608093       -4.3275550454
 H          5.9941121411        1.4023416150        3.4720786275
 H          7.4556725309        1.2570274288        2.4974220490
 H          6.7369475996       -0.1767340554        3.2146164616
 H          6.2165274197        0.0085456763        0.7659729462
 H          4.8259636926        2.6125096486        1.5095472906
 H          4.9946547308        1.9335392583       -0.1095879904
 H          6.4205282459        2.4838417000        0.7593067198
 H          5.4469735546       -1.7571674253        2.7786940870
 H          5.1495446633       -1.9960807263        1.0586449157
 H          3.0501439977       -2.2037543002        3.2595889694
 H          3.8193561348       -3.5540235879        2.4197293804
 H          1.5576774026       -4.3292115293        1.5350167380
 H          0.5554430993       -3.2063818664        0.6128904593
 H          0.7427670766       -2.9951415704        2.3583920818
 H          1.5907671355       -0.6162188927        2.0361155594
 H          1.2970055789       -0.8237808181        0.3072007700
 H          2.2549942970        1.2354302539       -1.1786934969
 H          2.2690601244        2.8502914923       -0.3952519160
 H          0.5865172829        2.8034251813        1.8017059120
 H         -2.1346968647        2.3749978112        1.5699738844
 H         -4.2312156492        1.9744385334       -2.0712310745
 H         -2.5316320407        2.2221084547       -2.4830492181
 H         -3.2438445542        3.1255013654       -1.1453647468
 H         -4.9451428961        2.5027070579        0.1632852232
 H         -6.4851688828        2.0161154103        1.9842998901
 H         -6.2388913932       -0.0535520676        3.3075412521
 H         -5.0813047357       -2.1206307428        3.7599375361
 H         -3.2807918708       -3.7292876910        3.2513401196
 H         -1.6977975512       -3.2592809094        1.4261853626
 H         -1.8638606493       -1.2214492397        0.1201340473
  70
       -106.38353537
 C          0.9158401316       -2.2175400468       -1.6637543006
 C          2.2388872563       -1.4607969192       -1.7404117679
 C          2.8412011736       -1.6114747233       -3.1355092365
 C          3.2545398240       -1.8684005174       -0.6542303749
 H          4.2281623112       -1.4710230538       -0.9605478379
 C          3.3787611056       -3.3811423739       -0.4707672542
 C          4.4541049955       -3.7266144314        0.5528233163
 C          4.1170367074       -3.1038250662        1.9055645900
 H          3.1519395066       -3.5027563330        2.2410075041
 C          5.1759955817       -3.4437297756        2.9506302007
 C          3.9873916167       -1.5905322853        1.7437616486
 C          2.9348280720       -1.2096672921        0.6963844607
 H          1.9379266998       -1.5283091215        1.0364512643
 O          2.9371627905        0.2026167477        0.4733066117
 C          2.3400369097        0.9910353187        1.4416372673
 N          0.8993517724        0.8441151500        1.5212388007
 C          0.2668499126        0.2163537127        2.5625229804
 C         -1.0607645429        0.3516677215        2.3518001833
 N         -1.2047448525        1.0450234699        1.1827226695
 C         -2.4909933515        1.5332214205        0.7030911593
 H         -2.4031585860        1.6490218958       -0.3869514164
 C         -2.7156406905        2.9254933933        1.2965790759
 C         -3.5861159078        0.5331110919        1.0137767374
 C         -4.5698938993        0.8165961325        1.9277588878
 C         -5.5950753930       -0.0961479394        2.2138414409
 C         -5.6379026756       -1.3014028362        1.5775999026
 C         -4.6497196517       -1.6423460563        0.6316305840
 C         -4.6906019594       -2.8841644884       -0.0357384260
 C         -3.7386294501       -3.2170160657       -0.9557383873
 C         -2.6995491163       -2.3196835298       -1.2372506574
 C         -2.6270302817       -1.1108326834       -0.6020540514
 C         -3.6015321641       -0.7245361727        0.3444201839
 C         -0.0037828399        1.3560680679        0.6495632186
 Ni         0.3802161297        2.2902829332       -1.1958473230
 C         -0.4038375185        1.2933284906       -2.4489227378
 O         -0.7954986223        0.6685765323       -3.3223848329
 C         -0.2042418239        3.9767499444       -1.0841662152
 O         -0.5046035727        5.0791872539       -1.0778369650
 C          2.1560597414        2.2666084403       -1.4962657104
 O          3.2527519144        2.3021905907       -1.8018342567
 H          0.2159710072       -1.7768131189       -2.3698580961
 H          0.4774887729       -2.1535881593       -0.6699445344
 H          1.0434993493       -3.2654939694       -1.9256427118
 H          2.0224215690       -0.3980340237       -1.5830328268
 H          3.0789321955       -2.6515833246       -3.3493468132
 H          3.7505255243       -1.0221757745       -3.2272353042
 H          2.1348139334       -1.2643464270       -3.8863428640
 H          3.6217788249       -3.8432457253       -1.4283046231
 H          2.4259692054       -3.7889897579       -0.1287067288
 H          5.4218865484       -3.3513027548        0.2132787393
 H          4.5321835243       -4.8112146989        0.6548049854
 H          6.1463258304       -3.0576272302        2.6461482330
 H          5.2588119929       -4.5212978974        3.0717742726
 H          4.9213814162       -3.0090507340        3.9149176457
 H          4.9451064391       -1.1716705311        1.4266642890
 H          3.7332265883       -1.1451677668        2.7093523266
 H          2.5684584068        2.0252256449        1.1571228818
 H          2.7386185681        0.7931858299        2.4486237023
 H          0.8036395410       -0.2593158604        3.3578124812
 H         -1.8991078872        0.0114787576        2.9238854206
 H         -3.6605149120        3.3366973326        0.9530863014
 H         -1.9128989877        3.5800893635        0.9640835030
 H         -2.7013712525        2.8984241435        2.3841727371
 H         -4.5794372587        1.7598269775        2.4493891353
 H         -6.3483821513        0.1712041960        2.9400246345
 H         -6.4261470950       -2.0105323981        1.7849840474
 H         -5.4966666661       -3.5657633325        0.1961856112
 H         -3.7775455600       -4.1664211554       -1.4689800338
 H         -1.9512474953       -2.5925470600       -1.9651746902
 H         -1.8082966482       -0.4471973592       -0.8337942023
  70
       -106.38352594
 C          6.4629695009        0.8412523506        2.8000049538
 C          5.6396032834        0.7341683633        1.5141436986
 C          5.3958272763        2.1485015580        0.9908975089
 C          4.3637708561       -0.1048374610        1.7735707337
 H          3.9388372873        0.1978631730        2.7357311017
 C          4.7655117388       -1.5861925864        1.8296454427
 C          3.5911396494       -2.5250097701        2.0703513170
 C          2.5662917477       -2.3639050329        0.9540255148
 H          3.0529909309       -2.5820389885       -0.0035354647
 C          1.3850127984       -3.3116655412        1.1247953598
 C          2.0985594897       -0.9137424518        0.9450155741
 C          3.2496162837        0.0749190527        0.7275128486
 H          3.6725461002       -0.0696112529       -0.2791562878
 O          2.7544115758        1.4109874543        0.8363023828
 C          2.0032092545        1.8887510724       -0.2249268367
 N          0.5739650179        1.7708355613       -0.0014960152
 C         -0.0319715241        2.3946230462        1.0552361627
 C         -1.3569693408        2.1631921705        0.9347700468
 N         -1.5241554509        1.4013839801       -0.1884094668
 C         -2.8380366865        1.0670827484       -0.7179282638
 H         -2.7134440194        0.1825507717       -1.3567797885
 C         -3.2976883911        2.2149530683       -1.6179078566
 C         -3.7814486607        0.7229743834        0.4157750071
 C         -4.8419296994        1.5331732986        0.7336194310
 C         -5.7241001699        1.2132008768        1.7754887440
 C         -5.5440763521        0.0722890190        2.5004907733
 C         -4.4679741075       -0.7926638218        2.2141183140
 C         -4.2803838454       -1.9787624638        2.9539776552
 C         -3.2441319333       -2.8225576248        2.6750117069
 C         -2.3454563839       -2.5045045533        1.6476119792
 C         -2.4934272279       -1.3574196774        0.9183410659
 C         -3.5630974318       -0.4684097940        1.1657946512
 C         -0.3375609201        1.1403426571       -0.7784349865
 Ni         0.0013747956        0.0039260987       -2.5332532498
 C          1.6381421847       -0.7298684236       -2.5366317218
 O          2.6242187322       -1.2980083639       -2.6370958589
 C         -1.1501456102       -1.3676208565       -2.5945099813
 O         -1.7703069821       -2.3184893136       -2.7195581566
 C         -0.2328611266        1.2475174368       -3.7906832492
 O         -0.3761996376        2.0929876179       -4.5440996303
 H          7.3935769595        1.3696290624        2.6053164503
 H          6.7130832243       -0.1346267867        3.2062380450
 H          5.9078504901        1.3957795785        3.5536882885
 H          6.2377321629        0.2033154406        0.7637063151
 H          4.7314157864        2.6939642737        1.6545994884
 H          4.9600826460        2.1374122010       -0.0035129329
 H          6.3450678590        2.6788967702        0.9346433850
 H          5.5054290290       -1.7309334808        2.6167964312
 H          5.2363850672       -1.8538937555        0.8799522127
 H          3.1221621993       -2.2987130349        3.0306256008
 H          3.9507878078       -3.5556132206        2.1065118764
 H          0.8745535889       -3.1128924170        2.0652921560
 H          1.7215981733       -4.3461040386        1.1261929285
 H          0.6776400230       -3.1810821362        0.3082145629
 H          1.6180702949       -0.6764022537        1.8980957617
 H          1.3552944046       -0.7760796894        0.1536708520
 H          2.2383316878        1.3850448299       -1.1742903064
 H          2.2330214357        2.9606552730       -0.3177044913
 H          0.5332409349        2.9305334252        1.7886315971
 H         -2.1810940522        2.4660683414        1.5469257341
 H         -4.2801268319        2.0031224842       -2.0301292046
 H         -2.5931360443        2.3151002960       -2.4413423161
 H         -3.3241751619        3.1577757241       -1.0758599091
 H         -5.0234674584        2.4405567913        0.1802387259
 H         -6.5461326715        1.8795525000        1.9910963776
 H         -6.2208889010       -0.1877824116        3.3014311525
 H         -4.9801423415       -2.2068051270        3.7454459864
 H         -3.1091321467       -3.7335672175        3.2391757367
 H         -1.5300143169       -3.1776336392        1.4321089408
 H         -1.7737042358       -1.1389314585        0.1440408174
  70
       -106.38342323
 C          6.3705342125       -0.5348610004        1.3473495158
 C          5.1017210716       -1.2167685968        0.8385783858
 C          5.4177633714       -2.6495923431        0.4135223290
 C          4.4000510547       -0.4476785350       -0.2999381642
 H          3.6405520898       -1.1187919313       -0.7163365489
 C          5.3423310830       -0.0205234169       -1.4243038256
 C          4.5685486071        0.6380212398       -2.5599396867
 C          3.8484244822        1.8830357716       -2.0504937326
 H          4.5978030719        2.5850581195       -1.6643420487
 C          3.0670298343        2.5677256601       -3.1684891600
 C          2.9081561469        1.4991356930       -0.9094720855
 C          3.6279093263        0.7712824207        0.2294532869
 H          4.3150011371        1.4728443622        0.7325374800
 O          2.7146800187        0.2554413382        1.1985563497
 C          1.9836519946        1.1554172405        1.9437391712
 N          0.7960569309        1.6487596952        1.2633323837
 C          0.4406547694        2.9701247749        1.2191483488
 C         -0.6899655745        3.0447603438        0.4812448996
 N         -0.9891448052        1.7699487307        0.0872623065
 C         -2.1298106707        1.3810773098       -0.7198314736
 H         -1.7908486965        0.5011079600       -1.2824544581
 C         -2.5296367756        2.4862845807       -1.6977409885
 C         -3.3142529860        0.9836338102        0.1418833378
 C         -3.4845504077        1.5464327180        1.3805846529
 C         -4.5715390961        1.2063829371        2.1966777785
 C         -5.4938627813        0.2999919339        1.7631356654
 C         -5.3655948660       -0.2995615407        0.4935785840
 C         -6.3139559268       -1.2409378780        0.0419051692
 C         -6.1917569328       -1.8301623558       -1.1834419176
 C         -5.1090535818       -1.4979338761       -2.0091232016
 C         -4.1743223732       -0.5873635394       -1.6015049905
 C         -4.2654739313        0.0426784204       -0.3403480369
 C         -0.0853047549        0.8903230239        0.5724275824
 Ni        -0.0906601330       -1.1845083817        0.2755843216
 C          0.4049731446       -1.3848407883       -1.4170762936
 O          0.8259543163       -1.4929073246       -2.4767758622
 C          1.1346352451       -1.9373593188        1.3532510340
 O          1.9033461743       -2.4916502377        1.9856987701
 C         -1.7271225268       -1.7433738041        0.7729511532
 O         -2.7007449563       -2.1803871326        1.1786411765
 H          6.7250823085       -1.0420241910        2.2421306648
 H          6.1860647886        0.5059238746        1.6027327854
 H          7.1616408299       -0.5765190292        0.6024836615
 H          4.3849869340       -1.2661361680        1.6636635489
 H          6.1340561941       -2.6678401763       -0.4048982938
 H          4.5134889600       -3.1615154445        0.0935288386
 H          5.8442095241       -3.2016485667        1.2479979669
 H          5.8755404900       -0.8933544110       -1.8019973732
 H          6.0784603752        0.6884229457       -1.0408175222
 H          3.8356603709       -0.0644100952       -2.9620626268
 H          5.2523111462        0.9102755487       -3.3669940316
 H          3.7332818784        2.8568717006       -3.9779503879
 H          2.5669495360        3.4611041600       -2.7993613137
 H          2.3136662054        1.8927464878       -3.5689651860
 H          2.1242290979        0.8374477488       -1.2865077064
 H          2.4304380087        2.4050166452       -0.5274552285
 H          2.5824991924        2.0339623421        2.2358489571
 H          1.6677148329        0.6114219360        2.8452711043
 H          1.0088422493        3.7360110541        1.7066928413
 H         -1.2790409583        3.8964867340        0.2140288647
 H         -1.6608274909        2.8446832029       -2.2465529439
 H         -2.9967975506        3.3194008997       -1.1770942105
 H         -3.2526271636        2.0930683731       -2.4072958946
 H         -2.7671500747        2.2621136179        1.7566983008
 H         -4.6644216912        1.6666887642        3.1693564929
 H         -6.3335390355        0.0246742213        2.3847951290
 H         -7.1403543265       -1.4896790020        0.6925105877
 H         -6.9187089328       -2.5539341114       -1.5212608673
 H         -5.0136026535       -1.9717833135       -2.9752742629
 H         -3.3515854663       -0.3617516156       -2.2620083812
  70
       -106.38337416
 C          5.9836247167       -0.6242369041       -1.5086166865
 C          5.4314014051        0.6617366405       -0.8980550454
 C          6.5784947873        1.6196914427       -0.5774643773
 C          4.5447373460        0.4239194594        0.3423863346
 H          4.3867520611        1.3984656698        0.8229449809
 C          5.1763975525       -0.5029959633        1.3845774255
 C          4.2903466200       -0.6346065499        2.6201138810
 C          2.9137491066       -1.1810624929        2.2431742287
 H          3.0420017524       -2.1712561635        1.7925737301
 C          2.0117364541       -1.3188975324        3.4650879231
 C          2.2802914002       -0.2541437352        1.2074843564
 C          3.1673121881       -0.1524856625       -0.0342867639
 H          3.3039271470       -1.1596942141       -0.4429668266
 O          2.5370021986        0.5181926921       -1.1256005638
 C          2.1669807106        1.8447716579       -0.9879372811
 N          0.9447636817        2.0528776782       -0.2296331412
 C          0.8574799119        2.9125437051        0.8323735542
 C         -0.4232415525        2.8723870566        1.2637279580
 N         -1.0849138974        1.9938432973        0.4521483462
 C         -2.4841085478        1.6230257611        0.5631403374
 H         -2.8306653542        1.5078606504       -0.4698876804
 C         -3.3148464253        2.7036464452        1.2527493053
 C         -2.6355304428        0.2986188085        1.2889017273
 C         -1.7992608944        0.0045015557        2.3361295195
 C         -1.9032575721       -1.2026681496        3.0385270195
 C         -2.8425470478       -2.1236664943        2.6771687055
 C         -3.7315163704       -1.8610405178        1.6152802282
 C         -4.7068554248       -2.8088372278        1.2408415083
 C         -5.5798718200       -2.5548604578        0.2226168501
 C         -5.5170466133       -1.3308678470       -0.4575902529
 C         -4.5821845087       -0.3924822792       -0.1199962085
 C         -3.6489205208       -0.6256985340        0.9145401849
 C         -0.2527076986        1.4744075960       -0.4788067802
 Ni        -0.7095025098       -0.0640609691       -1.8238940633
 C         -2.1839519542        0.3576052695       -2.7469127218
 O         -3.1117905216        0.5348832554       -3.3917986245
 C          0.6869063782       -0.2875871112       -2.9389299656
 O          1.5161929639       -0.5017948912       -3.6901326064
 C         -0.9109294941       -1.4547809591       -0.7346229334
 O         -0.9833959934       -2.3497655600       -0.0269688875
 H          6.4868841396       -0.3949890029       -2.4453160432
 H          5.1834098713       -1.3273999784       -1.7217092023
 H          6.7048854173       -1.0960488139       -0.8460634218
 H          4.7969012946        1.1357119514       -1.6556533694
 H          6.2042439274        2.5585659790       -0.1732731903
 H          7.1442756955        1.8404746721       -1.4795273345
 H          7.2594385599        1.1808322204        0.1480098366
 H          6.1528452837       -0.1138308252        1.6772244167
 H          5.3208544562       -1.4933447260        0.9515069353
 H          4.1730464578        0.3421404764        3.0970877444
 H          4.7676718854       -1.3005517780        3.3421171873
 H          2.4631442869       -1.9798880458        4.2016126265
 H          1.0493239546       -1.7318420994        3.1731276457
 H          1.8462716492       -0.3487535648        3.9306235463
 H          2.1493941719        0.7338330975        1.6564883030
 H          1.2970671638       -0.6270371247        0.9099034899
 H          2.0011117131        2.2012859938       -2.0140195223
 H          2.9469690029        2.4567848286       -0.5130279202
 H          1.6942883208        3.4803470516        1.1857083649
 H         -0.8922067890        3.4008329491        2.0665234426
 H         -4.3681911790        2.4529384492        1.1568295504
 H         -3.1446883144        3.6745441673        0.7915103396
 H         -3.0825423151        2.7599867888        2.3140339517
 H         -1.0298867328        0.7054823282        2.6292034089
 H         -1.2310467528       -1.3948284074        3.8618993819
 H         -2.9214013156       -3.0663915903        3.1990656903
 H         -4.7463399898       -3.7449612468        1.7796329757
 H         -6.3208953389       -3.2869644900       -0.0626380030
 H         -6.2153125377       -1.1316433451       -1.2573226843
 H         -4.5704323063        0.5408434923       -0.6611056748
  70
       -106.38330731
 C          1.2479734550       -2.1677849306       -1.4452208773
 C          1.7677537599       -2.7270255305       -0.1233518809
 C          0.7562374509       -2.4493467235        0.9874819516
 C          3.1995742073       -2.2435208438        0.2015666532
 H          3.7699469480       -2.2696789073       -0.7326674879
 C          3.8614749783       -3.2004814937        1.2007764095
 C          5.3108526502       -2.8281416221        1.4875532764
 C          5.3953258082       -1.4111720971        2.0474470184
 H          4.8246416976       -1.3703326926        2.9833079806
 C          6.8396114967       -1.0140186880        2.3380889720
 C          4.7611582476       -0.4518658429        1.0444914146
 C          3.3001082370       -0.8079732400        0.7368485422
 H          2.7012128862       -0.7213200852        1.6534910058
 O          2.8031165360        0.0867584286       -0.2612017821
 C          2.3805645361        1.3337981312        0.1708558526
 N          1.0196689608        1.3280009362        0.6733670083
 C          0.6999276613        1.1826262239        1.9982236030
 C         -0.6485165495        1.2108844578        2.0794940563
 N         -1.1164294866        1.3661506305        0.8043450893
 C         -2.5278353131        1.5587666352        0.5081550846
 H         -2.6557340734        1.3744894119       -0.5666802542
 C         -2.8787725116        3.0257833935        0.7599325327
 C         -3.3557006222        0.5561538343        1.2853579087
 C         -4.1337508999        0.9442624386        2.3465219882
 C         -4.9087406788        0.0226450231        3.0649744121
 C         -4.9085129750       -1.2948784944        2.7128896423
 C         -4.1252383133       -1.7441482734        1.6299056401
 C         -4.1310796433       -3.1027494402        1.2510752511
 C         -3.3846548696       -3.5398837676        0.1946693385
 C         -2.5862941809       -2.6319583427       -0.5141147888
 C         -2.5458091193       -1.3110059735       -0.1628066929
 C         -3.3241666648       -0.8170801328        0.9071886224
 C         -0.1014932083        1.4390189142       -0.0805485845
 Ni        -0.2073615965        1.7730583429       -2.1590217822
 C         -0.3469227009        3.5482697767       -2.2174528938
 O         -0.4391936319        4.6869621467       -2.1862280989
 C          1.2857894877        1.1078857643       -2.9158618178
 O          2.1739498336        0.6897454765       -3.4932861639
 C         -1.5908817020        0.9090756082       -2.8998680461
 O         -2.3917475566        0.3839532712       -3.5227148383
 H          1.9750491601       -2.3150430661       -2.2400540801
 H          1.0422637195       -1.1035139302       -1.3642085470
 H          0.3271942833       -2.6744243043       -1.7256727791
 H          1.8426372945       -3.8162930475       -0.2375000458
 H          1.1241112368       -2.7774775182        1.9569407248
 H         -0.1712778870       -2.9795827268        0.7828611613
 H          0.5204834944       -1.3902186059        1.0414550273
 H          3.8199978212       -4.2149900042        0.7996757806
 H          3.3014463003       -3.1924391007        2.1385907556
 H          5.8941355057       -2.8861893536        0.5661545713
 H          5.7382008823       -3.5369323213        2.2000534842
 H          7.4305776353       -1.0407876479        1.4253186165
 H          7.2856945451       -1.6988685397        3.0555547893
 H          6.8882194184       -0.0076914353        2.7483258763
 H          5.3187870791       -0.4798364163        0.1059837467
 H          4.8156871020        0.5701270035        1.4291411908
 H          2.4099637977        1.9916621471       -0.7066564266
 H          3.0231865504        1.7459818012        0.9624667635
 H          1.4431427868        1.0882223899        2.7634337691
 H         -1.3015381858        1.1248899953        2.9232019476
 H         -2.3002922432        3.6448754694        0.0769581591
 H         -2.6373859869        3.3256650989        1.7773844138
 H         -3.9345134418        3.1983967773        0.5711798774
 H         -4.1709681440        1.9788954041        2.6488520969
 H         -5.5068142317        0.3718300684        3.8937083291
 H         -5.5084425297       -2.0126488051        3.2534711088
 H         -4.7468842117       -3.7904603115        1.8131968160
 H         -3.4012196391       -4.5794719326       -0.0978985187
 H         -1.9983109223       -2.9833390845       -1.3489730155
 H         -1.8993152361       -0.6490702243       -0.7183432971
  70
       -106.38328015
 C          3.6956909956       -1.0957397519       -2.1875438477
 C          4.5515875646       -0.1681541639       -1.3285398989
 C          6.0304593568       -0.3848788808       -1.6481631023
 C          4.2951069329       -0.2958023602        0.1874137012
 H          5.0733233121        0.2992052097        0.6792882829
 C          4.3613575556       -1.7314682702        0.7358525360
 C          2.9780639652       -2.3453090626        0.9290186831
 C          2.1530409991       -1.5732528734        1.9702445296
 H          1.0972699275       -1.6436342159        1.6881455878
 C          2.3131489523       -2.1705085861        3.3664131601
 C          2.5540808611       -0.0930863572        1.9823386814
 C          2.9691142466        0.3704389645        0.5868295417
 H          2.1721013006        0.1178783138       -0.1241453839
 O          3.1663615351        1.7920115152        0.5721517678
 C          2.2108202604        2.5243022690       -0.1127693949
 N          0.9134333354        2.4859694046        0.5292404925
 C          0.6908012762        3.0589928636        1.7521460221
 C         -0.5883574257        2.7784737018        2.0860751815
 N         -1.1152989502        2.0461197461        1.0577277800
 C         -2.4601855367        1.4987366837        1.0103719906
 H         -2.7960169697        1.6439380543       -0.0222530516
 C         -3.4180932024        2.2271068320        1.9506196721
 C         -2.4391685571        0.0136783356        1.3254394748
 C         -1.5757413324       -0.4570864319        2.2824242194
 C         -1.5055117203       -1.8196218181        2.5994900137
 C         -2.2984815697       -2.7136573700        1.9409280127
 C         -3.2178103090       -2.2745191340        0.9666561079
 C         -4.0485286744       -3.1937308379        0.2922312234
 C         -4.9552748917       -2.7720641205       -0.6370975869
 C         -5.0764771495       -1.4044520021       -0.9196297532
 C         -4.2826274416       -0.4889817752       -0.2869307459
 C         -3.3150057819       -0.8882483723        0.6617137030
 C         -0.1948344283        1.8482481820        0.0861601706
 Ni        -0.4653404777        0.6793543953       -1.6528730040
 C         -2.0358117790        1.0956477938       -2.4102662044
 O         -2.9834536752        1.2879031849       -3.0176598481
 C          0.7827920184        1.0255437965       -2.9002108148
 O          1.4497237390        1.2042779574       -3.8104230521
 C         -0.4350958753       -0.9699306847       -0.9770906838
 O         -0.3998045915       -2.0192033693       -0.5280852099
 H          3.8682361058       -0.8824191677       -3.2406600314
 H          2.6340945017       -0.9573816027       -1.9916488634
 H          3.9470147723       -2.1383644795       -2.0103030198
 H          4.3060805021        0.8670151099       -1.5953680930
 H          6.2119061411       -0.2303900447       -2.7094089423
 H          6.3405243465       -1.3964179857       -1.3963261850
 H          6.6504973275        0.3128559050       -1.0897645747
 H          4.8784188999       -1.7290850744        1.6972013046
 H          4.9462807486       -2.3578830372        0.0626278023
 H          3.0822880650       -3.3844686846        1.2476370943
 H          2.4495051166       -2.3508514475       -0.0235905105
 H          3.3619545697       -2.1926668417        3.6545274566
 H          1.9282025492       -3.1877357445        3.3937320679
 H          1.7712103823       -1.5768915486        4.1003860819
 H          3.3948039119        0.0700489804        2.6594604839
 H          1.7217129804        0.5149336083        2.3421434420
 H          2.0720788491        2.1663141759       -1.1447885594
 H          2.5740262309        3.5587126615       -0.1231051138
 H          1.4550251976        3.5995909745        2.2708843460
 H         -1.1428458227        3.0498281758        2.9591770393
 H         -3.3832008912        3.3018502326        1.7831728107
 H         -3.1848685748        2.0128841668        2.9913340449
 H         -4.4299740213        1.8787393288        1.7592838691
 H         -0.9187709817        0.2269538021        2.8021087578
 H         -0.8128998994       -2.1512297225        3.3583788567
 H         -2.2377680648       -3.7701698762        2.1581297031
 H         -3.9507840345       -4.2436084991        0.5294386411
 H         -5.5849531800       -3.4816094607       -1.1532536477
 H         -5.8053318792       -1.0748194840       -1.6455592812
 H         -4.4142073869        0.5564299014       -0.5199218520
  70
       -106.38324691
 C          1.4396727262       -0.8787856203        3.4224648933
 C          2.2721898117        0.1563407888        2.6610033310
 C          1.3645058035        1.3392420917        2.3363687628
 C          2.9388985695       -0.4418432614        1.3980487830
 H          2.1513493579       -0.6836236089        0.6725407023
 C          3.6735264496       -1.7341214901        1.7890460004
 C          4.5626073580       -2.3136265146        0.6967772238
 C          5.6182928958       -1.2965261245        0.2822821715
 H          6.1941519795       -1.0005724309        1.1664488441
 C          6.5734898871       -1.8689400045       -0.7601564629
 C          4.8828679416       -0.0811251773       -0.2677464311
 C          3.9276283084        0.5539768373        0.7526084492
 H          4.5288667696        1.0004697521        1.5547629647
 O          3.3141567844        1.7069762526        0.1607441772
 C          2.5645531947        1.5318194694       -1.0060804870
 N          1.2205241567        2.0345525885       -0.8414419564
 C          0.9682671588        3.3360604168       -0.5069493419
 C         -0.3753403877        3.4701784256       -0.4526194237
 N         -0.9090132651        2.2505211553       -0.7663252966
 C         -2.3270730175        1.9360342719       -0.8201334019
 H         -2.4459057701        1.2832663769       -1.6919061701
 C         -3.1905832673        3.1809297754       -1.0125283489
 C         -2.7551576609        1.1843591731        0.4270956089
 C         -2.2112290956        1.5339425958        1.6374341534
 C         -2.5406001818        0.8478375240        2.8128685709
 C         -3.4281400022       -0.1876520922        2.7718756700
 C         -4.0429876445       -0.5567956486        1.5579486304
 C         -4.9740624331       -1.6154989613        1.5133783443
 C         -5.5785561905       -1.9721100162        0.3423866883
 C         -5.2809432081       -1.2722830151       -0.8351275132
 C         -4.3802865993       -0.2439772841       -0.8260942536
 C         -3.7197867326        0.1421578975        0.3614529021
 C          0.0686032997        1.3445052249       -1.0016895690
 Ni        -0.2320674382       -0.7071612841       -1.4137470573
 C         -1.4018277120       -0.8194431841       -2.7638241089
 O         -2.1217053290       -0.9888997685       -3.6340123015
 C          1.2776393700       -1.5519444176       -1.8876242129
 O          2.1500360438       -2.2202454308       -2.2065225929
 C         -0.8684165355       -1.3269301210        0.1338140411
 O         -1.2279968976       -1.7662210705        1.1237517498
 H          0.7277273994       -1.3602308767        2.7566888138
 H          0.8780912061       -0.3840616072        4.2123116489
 H          2.0584150002       -1.6407162395        3.8870379753
 H          3.0735859770        0.5064252138        3.3240721611
 H          0.9041851621        1.7160022689        3.2481276322
 H          0.5738663376        1.0151925582        1.6619224763
 H          1.9203053839        2.1489724981        1.8756525556
 H          2.9349145144       -2.4860643987        2.0649539489
 H          4.2921205772       -1.5281309389        2.6670854816
 H          3.9595538223       -2.5858746988       -0.1718977146
 H          5.0388287790       -3.2231999487        1.0690837207
 H          7.3105432348       -1.1255576987       -1.0557187806
 H          6.0249580733       -2.1810398944       -1.6463046028
 H          7.0980975212       -2.7336246221       -0.3604050778
 H          4.3274988412       -0.4005260215       -1.1518431771
 H          5.5917780501        0.6883145022       -0.5838190183
 H          2.4779879064        0.4836870656       -1.3077288574
 H          3.0421295386        2.1045190514       -1.8183896093
 H          1.7579986645        4.0360301881       -0.3312497721
 H         -0.9684479939        4.3300254334       -0.2246277163
 H         -4.2151658472        2.8711256697       -1.2028113946
 H         -2.8416229754        3.7675213982       -1.8601066808
 H         -3.1915433006        3.7993091077       -0.1176756237
 H         -1.4980559118        2.3441184026        1.6951567873
 H         -2.0756032480        1.1403891957        3.7425086707
 H         -3.6767189589       -0.7386305946        3.6673258098
 H         -5.1987788436       -2.1404094449        2.4310322898
 H         -6.2871933873       -2.7866722114        0.3145292938
 H         -5.7697456007       -1.5520947389       -1.7569626750
 H         -4.1852140613        0.2793481841       -1.7494976145
  70
       -106.38324063
 C          1.0239064690       -0.0605047973        3.6330275063
 C          2.0189184805        0.7173618528        2.7675569571
 C          1.2716951966        1.8872162432        2.1344808069
 C          2.7127202016       -0.1823663618        1.7153958421
 H          1.9625765614       -0.5035989991        0.9806346757
 C          3.2805242845       -1.4215634058        2.4258739146
 C          4.2010611086       -2.2804713925        1.5694385278
 C          5.3817964804       -1.4545634752        1.0751410687
 H          5.9022656764       -1.0250612469        1.9385902491
 C          6.3665485197       -2.3022429681        0.2761194810
 C          4.8177544935       -0.3291932370        0.2172651977
 C          3.8395806666        0.5757889319        0.9796703561
 H          4.4093618703        1.1422727558        1.7272161750
 O          3.3849296271        1.6148733655        0.1007715883
 C          2.7164447615        1.2514201029       -1.0707373396
 N          1.3834263894        1.8087032282       -1.1153099313
 C          1.1568752291        3.1559207868       -1.0587228333
 C         -0.1806129729        3.3295271139       -1.1439312685
 N         -0.7357626190        2.0850773742       -1.2621793101
 C         -2.1570339982        1.7992488143       -1.3719430113
 H         -2.2336832280        0.9930848720       -2.1095844924
 C         -2.9547797650        3.0025674118       -1.8694634055
 C         -2.7057643073        1.3133721393       -0.0427035169
 C         -2.2570990866        1.8958311137        1.1159440405
 C         -2.6920361166        1.4562975055        2.3722527572
 C         -3.5897676271        0.4327479128        2.4626090122
 C         -4.1110761377       -0.1679906832        1.2984966403
 C         -5.0524322049       -1.2148246845        1.3866101567
 C         -5.5669299117       -1.7949072954        0.2629743500
 C         -5.1661831748       -1.3392749684       -1.0006306637
 C         -4.2525548653       -0.3294915935       -1.1200130673
 C         -3.6811748668        0.2811299514        0.0185312535
 C          0.2212161717        1.1281139524       -1.2380104433
 Ni        -0.1229027337       -0.9568551590       -1.2960596962
 C          1.3827396485       -1.9114207675       -1.4916698234
 O          2.2453378930       -2.6516947928       -1.6225930216
 C         -0.8927702460       -1.2677134762        0.2825844749
 O         -1.3351025645       -1.5022515858        1.3081151346
 C         -1.1862943783       -1.2869610060       -2.6979030961
 O         -1.8365899199       -1.5982709382       -3.5836002637
 H          0.3111122063       -0.5941335636        3.0094417826
 H          0.4673173635        0.6336188107        4.2595030296
 H          1.5186916838       -0.7703850612        4.2889891120
 H          2.8009808950        1.1205407745        3.4236052057
 H          0.4988706885        1.5042743872        1.4711952198
 H          1.9429282284        2.5280517920        1.5728375372
 H          0.7942337039        2.4863827041        2.9079651800
 H          2.4499275251       -2.0402845834        2.7643886416
 H          3.8375778801       -1.0901676232        3.3067657488
 H          3.6529065436       -2.6795034616        0.7136019662
 H          4.5531114115       -3.1272529729        2.1625419834
 H          5.8711219427       -2.7503696015       -0.5825250391
 H          6.7688574318       -3.1013425789        0.8944382462
 H          7.1943567786       -1.6945824123       -0.0825900862
 H          4.3175987945       -0.7853169929       -0.6391851116
 H          5.6220523738        0.3018924985       -0.1690990692
 H          2.6118409256        0.1687322706       -1.1886242505
 H          3.2788176193        1.6565840754       -1.9277785845
 H          1.9570738244        3.8584044787       -0.9553055728
 H         -0.7554507945        4.2309752038       -1.1357442276
 H         -3.9728329341        2.6848723654       -2.0807344532
 H         -2.5198248341        3.4055294352       -2.7819861447
 H         -3.0007944643        3.7827397093       -1.1129353025
 H         -1.5387176301        2.7022797710        1.0712416206
 H         -2.2990925043        1.9268582422        3.2611360340
 H         -3.9180351356        0.0685590298        3.4253109876
 H         -5.3580186164       -1.5489861911        2.3679637499
 H         -6.2838926898       -2.5991581982        0.3377083387
 H         -5.5856285152       -1.7936384403       -1.8864050764
 H         -3.9780543194        0.0038769605       -2.1090039740
  70
       -106.38323151
 C          5.0212085743        3.1837882924       -1.0018245804
 C          3.5709007202        2.7344515734       -0.8337726712
 C          2.7318061745        3.8957460516       -0.3035352972
 C          3.4066555520        1.4796140917        0.0486963496
 H          2.3433997825        1.3832123371        0.2987279826
 C          4.1907556100        1.5603440929        1.3607571796
 C          3.9526267371        0.3301796618        2.2289724952
 C          4.3851516749       -0.9340418208        1.4899981107
 H          5.4551610683       -0.8611334938        1.2624393442
 C          4.1465263460       -2.1793192426        2.3384167699
 C          3.6008514207       -1.0268683214        0.1831538381
 C          3.8269487792        0.1982754633       -0.6983058227
 H          4.8945470941        0.2699439478       -0.9402146942
 O          3.2330903443        0.0842287174       -2.0009888911
 C          1.9664895358       -0.4726840798       -2.1490683805
 N          0.8981782127        0.4089863890       -1.7215330459
 C          0.7067108022        1.6186546812       -2.3309903123
 C         -0.2650553629        2.2480581941       -1.6397196919
 N         -0.6575113503        1.4016459370       -0.6353369556
 C         -1.6027671559        1.8546644003        0.3809367091
 H         -2.0714176657        2.7591337595       -0.0324072776
 C         -0.8041426397        2.2791131360        1.6148800700
 C         -2.7294235970        0.8746412070        0.6518548846
 C         -2.9086355405        0.3163838477        1.8935355037
 C         -4.0050229327       -0.5104733506        2.1768964276
 C         -4.9359451716       -0.7712385188        1.2153287457
 C         -4.7990946160       -0.2216472742       -0.0760719727
 C         -5.7514988990       -0.4968276840       -1.0788367973
 C         -5.6215208484        0.0219280927       -2.3350900346
 C         -4.5282849265        0.8452598775       -2.6343619241
 C         -3.5895052638        1.1326564227       -1.6823892396
 C         -3.6848592021        0.6115128892       -0.3732224950
 C          0.0530725462        0.2498094017       -0.6717474383
 Ni        -0.2821282854       -1.5516008273        0.3950714493
 C          0.0230981199       -1.2230983787        2.1184196148
 O          0.2658453210       -1.0890730856        3.2282967223
 C         -1.9468233418       -2.0207547140       -0.0763300729
 O         -2.9435229666       -2.4572296004       -0.4160197967
 C          0.7277772142       -2.9546492040       -0.1269366096
 O          1.2087374195       -3.9782647370       -0.2905099561
 H          5.4212281703        3.5769302674       -0.0706463580
 H          5.0734575544        3.9730682979       -1.7490495061
 H          5.6486365860        2.3626563815       -1.3373886532
 H          3.1940162944        2.4693693153       -1.8267805023
 H          2.8120111739        4.7522435374       -0.9694511170
 H          3.0720046480        4.2021093476        0.6828983597
 H          1.6826840682        3.6151955914       -0.2361440883
 H          3.8931680880        2.4563092920        1.9079209356
 H          5.2578476489        1.6323776218        1.1456928221
 H          2.8921629192        0.2532566420        2.4799620301
 H          4.5110695423        0.4252309693        3.1625553422
 H          3.0878686787       -2.2834560539        2.5677254689
 H          4.6956593109       -2.1154483938        3.2749606647
 H          4.4704473272       -3.0728394186        1.8095720260
 H          2.5384717116       -1.0981305087        0.4410695545
 H          3.8900657120       -1.9265918141       -0.3659206336
 H          1.8462460911       -1.4273673039       -1.6236568987
 H          1.8630870463       -0.6420559549       -3.2284273816
 H          1.2725165116        1.9177222464       -3.1883544412
 H         -0.6998456244        3.2172278230       -1.7811948564
 H         -0.0940854347        3.0563773343        1.3358485691
 H         -0.2457793509        1.4380288528        2.0167329248
 H         -1.4655197636        2.6776493651        2.3787122087
 H         -2.2098201355        0.5130845368        2.6900256746
 H         -4.1008031155       -0.9332295097        3.1660698038
 H         -5.7867825642       -1.4037340204        1.4232963291
 H         -6.5864144325       -1.1366435106       -0.8311091906
 H         -6.3515096152       -0.1972222059       -3.1002062355
 H         -4.4274164389        1.2534896734       -3.6297585836
 H         -2.7590067346        1.7635978632       -1.9552337187
  70
       -106.38318278
 C          0.8979541719        0.2646649546        3.5802961887
 C          2.0097924259        0.9101525295        2.7491638463
 C          1.4397243665        2.1709467142        2.1066773370
 C          2.6143185902       -0.0723137946        1.7160344656
 H          1.8416626155       -0.3350137601        0.9810051231
 C          3.0492604574       -1.3456973520        2.4597468721
 C          3.9149738084       -2.2980644997        1.6468150077
 C          5.1750571227       -1.5856614127        1.1722723956
 H          5.7023122494       -1.1772729739        2.0418302352
 C          6.1100384356       -2.5327451428        0.4269449763
 C          4.7333174227       -0.4420706661        0.2681711353
 C          3.8092763955        0.5623574022        0.9713360731
 H          4.4072624213        1.1193985254        1.7038002738
 O          3.4460316803        1.5921814063        0.0382008301
 C          2.7519392437        1.2360217489       -1.1184858119
 N          1.4170126529        1.7943583284       -1.1473493056
 C          1.1919809768        3.1425481050       -1.1080004874
 C         -0.1461733649        3.3164299791       -1.1820826527
 N         -0.7037346601        2.0709452915       -1.2777048603
 C         -2.1263079461        1.7846858909       -1.3733052350
 H         -2.2103380369        0.9784651534       -2.1099515291
 C         -2.9298041691        2.9871511716       -1.8633198289
 C         -2.6615194402        1.2992552962       -0.0384532069
 C         -2.2097852854        1.8910059151        1.1141755534
 C         -2.6313583550        1.4544146523        2.3759311852
 C         -3.5182937939        0.4224899427        2.4777961206
 C         -4.0431749614       -0.1881354815        1.3204761780
 C         -4.9745188287       -1.2428302514        1.4207044782
 C         -5.4942528244       -1.8311427288        0.3038050114
 C         -5.1096666641       -1.3758741657       -0.9649442266
 C         -4.2056656309       -0.3589402249       -1.0960917715
 C         -3.6280938353        0.2595597369        0.0350731290
 C          0.2529140442        1.1134942522       -1.2521218312
 Ni        -0.0925766655       -0.9719536079       -1.3103018600
 C          1.4058110252       -1.9269901359       -1.5512381810
 O          2.2562953198       -2.6721114018       -1.7261207460
 C         -0.8384824911       -1.2923051933        0.2777482465
 O         -1.2695261583       -1.5289167569        1.3076173679
 C         -1.1749907957       -1.2989402876       -2.6985127977
 O         -1.8318637815       -1.6134998836       -3.5781972560
 H          0.1360779429       -0.1622709824        2.9326747569
 H          0.4245180273        1.0208903481        4.2033078611
 H          1.2761207317       -0.5121385368        4.2378010328
 H          2.8184070890        1.2068020167        3.4296054516
 H          0.6268073315        1.8973092518        1.4390369187
 H          2.1969135890        2.7100180621        1.5475092053
 H          1.0446741490        2.8334502860        2.8750811309
 H          2.1566191523       -1.8815742226        2.7816731107
 H          3.6078111789       -1.0509273359        3.3526779372
 H          3.3582034479       -2.6677002584        0.7835062053
 H          4.1765946466       -3.1586744160        2.2662235008
 H          5.6050526331       -2.9625487582       -0.4354779555
 H          6.4262195108       -3.3446158560        1.0778168742
 H          6.9955594925       -2.0050389210        0.0797000880
 H          4.2262686522       -0.8814128061       -0.5926817371
 H          5.5984403928        0.1100173371       -0.1075317902
 H          2.6443839915        0.1541434656       -1.2427452653
 H          3.3033620948        1.6463274166       -1.9792428131
 H          1.9933132699        3.8459984359       -1.0221207993
 H         -0.7198738050        4.2186101873       -1.1796387808
 H         -3.9505028583        2.6688612061       -2.0606141483
 H         -2.5069552307        3.3877314243       -2.7825466244
 H         -2.9659165103        3.7692010060       -1.1081611879
 H         -1.5006488193        2.7050969110        1.0599328995
 H         -2.2367225252        1.9335755919        3.2593505572
 H         -3.8354214243        0.0596264356        3.4447096242
 H         -5.2682018389       -1.5761992031        2.4059435612
 H         -6.2031749103       -2.6415770029        0.3878028607
 H         -5.5338794817       -1.8362932021       -1.8453041501
 H         -3.9444196735       -0.0254951977       -2.0886355673
  70
       -106.38314386
 C          1.0433943049        1.6086218397        1.9895955610
 C          2.1645282538        0.8302315646        2.6704777977
 C          3.0541114645        1.8114224297        3.4339092159
 C          2.9350627671       -0.0907128185        1.6926749899
 H          2.1888825858       -0.5814859183        1.0535480900
 C          3.6537659200       -1.1752671056        2.5078426113
 C          4.5080511874       -2.1073788823        1.6595800096
 C          5.5645395310       -1.3060800263        0.9055462005
 H          6.1731145109       -0.7525165120        1.6297219321
 C          6.4771445972       -2.2154787447        0.0885548552
 C          4.8413073421       -0.3148841557       -0.0009978287
 C          3.9369587174        0.6441890209        0.7850528014
 H          4.5793840894        1.2753099662        1.4073622312
 O          3.3273651700        1.5985834571       -0.0940926771
 C          2.6160719500        1.1124048440       -1.1957066254
 N          1.2823023956        1.6619875038       -1.2457629837
 C          1.0486302401        3.0083405644       -1.2918319028
 C         -0.2911091928        3.1675983811       -1.3725040405
 N         -0.8395468617        1.9147210387       -1.3856294130
 C         -2.2583045807        1.6133692099       -1.4723201034
 H         -2.3282414868        0.7438768736       -2.1351764391
 C         -3.0581462356        2.7644953528       -2.0794529736
 C         -2.8178474054        1.2465446263       -0.1102891726
 C         -2.3563823046        1.9031932388        1.0024805772
 C         -2.8244198193        1.5873449864        2.2839948673
 C         -3.7628708501        0.6103377899        2.4460269168
 C         -4.2883882847       -0.0707425331        1.3290481154
 C         -5.2665546660       -1.0741307211        1.4906014521
 C         -5.7851383317       -1.7313886005        0.4122549830
 C         -5.3498053896       -1.4009928850       -0.8785161795
 C         -4.4012159652       -0.4351500671       -1.0684348736
 C         -3.8269814450        0.2539431459        0.0229348513
 C          0.1228275227        0.9675397423       -1.2965107500
 Ni        -0.2209704740       -1.1145821204       -1.1244346050
 C          1.2890743474       -2.0787785822       -1.1917986859
 O          2.1565572599       -2.8246486665       -1.2217391589
 C         -1.0055229304       -1.2647881125        0.4745771346
 O         -1.4640204934       -1.4176976391        1.5078259070
 C         -1.2823934512       -1.5957709454       -2.4819805399
 O         -1.9386519144       -1.9924150269       -3.3282816212
 H          0.4289709231        2.1049824411        2.7384102953
 H          0.4053366053        0.9404595365        1.4136326775
 H          1.4557299425        2.3645861503        1.3273074959
 H          1.6971570228        0.1596459552        3.4025616024
 H          3.9020476866        1.3135398004        3.8971106469
 H          2.4741753564        2.2874237020        4.2220090886
 H          3.4221567586        2.5910430865        2.7714361224
 H          2.9030297063       -1.7581416870        3.0458339938
 H          4.2971803864       -0.6991458159        3.2507427361
 H          3.8800888235       -2.6430654420        0.9446649176
 H          4.9862397939       -2.8482355949        2.3037494095
 H          5.8963332352       -2.7846596293       -0.6340419705
 H          6.9960794218       -2.9162650887        0.7384076922
 H          7.2198684569       -1.6314526792       -0.4504190871
 H          4.2546619523       -0.8913652150       -0.7184504385
 H          5.5610602626        0.2831752080       -0.5656172839
 H          2.5059637528        0.0241066389       -1.1879527096
 H          3.1413147492        1.4159017104       -2.1173450949
 H          1.8467357387        3.7199742644       -1.2543245931
 H         -0.8715749908        4.0639180664       -1.4262025782
 H         -2.6181996045        3.0877996113       -3.0208222181
 H         -3.1123166912        3.6077757242       -1.3945783861
 H         -4.0735049015        2.4253288822       -2.2687819872
 H         -1.6018099323        2.6704095989        0.9028654567
 H         -2.4267082687        2.1171286405        3.1368779979
 H         -4.1198131962        0.3441041694        3.4303731942
 H         -5.5967373617       -1.3126519283        2.4917010300
 H         -6.5303942413       -2.5019967093        0.5433814946
 H         -5.7701190529       -1.9177168132       -1.7290036152
 H         -4.0987814441       -0.2007005199       -2.0774279582
  70
       -106.38314001
 C          1.0438166807        1.5850891811        1.9916982203
 C          2.1749714946        0.8219252811        2.6734136955
 C          3.0541227285        1.8154422472        3.4328950307
 C          2.9550021397       -0.0924647977        1.6971059454
 H          2.2133911659       -0.5942381244        1.0614395521
 C          3.6891409184       -1.1659010887        2.5131678864
 C          4.5496548908       -2.0915350405        1.6639960197
 C          5.5943412207       -1.2813973634        0.9029364144
 H          6.2004661081       -0.7196376318        1.6228581002
 C          6.5126514641       -2.1834617306        0.0842042357
 C          4.8569156894       -0.3000160857       -0.0028799903
 C          3.9462888657        0.6514333651        0.7851477428
 H          4.5845275439        1.2896125208        1.4045692298
 O          3.3242650153        1.5982268731       -0.0931841297
 C          2.6143516593        1.1019213415       -1.1913464327
 N          1.2810804807        1.6517093811       -1.2459229791
 C          1.0480361253        2.9980103536       -1.2964347176
 C         -0.2915235819        3.1574771977       -1.3797320707
 N         -0.8403451873        1.9047309201       -1.3899650050
 C         -2.2589476989        1.6036834452       -1.4779457949
 H         -2.3279723566        0.7305066430       -2.1361145580
 C         -3.0565760725        2.7520571611       -2.0932833277
 C         -2.8225103918        1.2446032074       -0.1155182083
 C         -2.3580662386        1.9003896717        0.9964893463
 C         -2.8321736841        1.5924338125        2.2777053520
 C         -3.7800384458        0.6246562027        2.4401600077
 C         -4.3080688610       -0.0556869079        1.3239109146
 C         -5.2956182713       -1.0497633588        1.4859578641
 C         -5.8159876417       -1.7069003243        0.4084020310
 C         -5.3724155586       -1.3862239834       -0.8819999311
 C         -4.4149055972       -0.4293153250       -1.0723969570
 C         -3.8396560779        0.2602166911        0.0181632398
 C          0.1214873645        0.9574918345       -1.2962579664
 Ni        -0.2243358862       -1.1238466145       -1.1191428332
 C          1.2866048810       -2.0880257655       -1.1641808459
 O          2.1545776223       -2.8337229365       -1.1803605385
 C         -1.0260323673       -1.2714410556        0.4717620975
 O         -1.4938041529       -1.4259289767        1.5005585378
 C         -1.2719311318       -1.6061902838       -2.4867512716
 O         -1.9223107404       -1.9992029122       -3.3393256014
 H          0.4228451615        2.0739662368        2.7400165773
 H          0.4144101560        0.9084751330        1.4159098693
 H          1.4464217881        2.3458285993        1.3288766852
 H          1.7165304567        0.1478707916        3.4079521649
 H          3.4133434406        2.5966237496        2.7674258375
 H          3.9076236555        1.3284329891        3.8974465358
 H          2.4693549030        2.2878651829        4.2195681733
 H          2.9473311205       -1.7550912935        3.0566163871
 H          4.3305962295       -0.6799921148        3.2514050634
 H          3.9242365526       -2.6359392964        0.9534340866
 H          5.0384541912       -2.8253649433        2.3082362394
 H          5.9346630698       -2.7604349372       -0.6344711298
 H          7.0416351985       -2.8771957367        0.7335076561
 H          7.2469681768       -1.5931706651       -0.4594381388
 H          4.2725930346       -0.8838257204       -0.7163764224
 H          5.5680474848        0.3040131506       -0.5720533325
 H          2.5039204917        0.0137330845       -1.1733133626
 H          3.1399294127        1.3964863652       -2.1157974596
 H          1.8464108042        3.7093600419       -1.2595651439
 H         -0.8716638299        4.0537856252       -1.4369293372
 H         -4.0716004086        2.4125560952       -2.2837580221
 H         -2.6136907903        3.0702995299       -3.0350014451
 H         -3.1121781816        3.5988578726       -1.4128775801
 H         -1.5966468890        2.6607687268        0.8967688682
 H         -2.4320499196        2.1212508221        3.1300658784
 H         -4.1424418234        0.3650416157        3.4242797282
 H         -5.6314397325       -1.2812965248        2.4868191209
 H         -6.5684857374       -2.4703714614        0.5399205578
 H         -5.7932498502       -1.9036261963       -1.7318185630
 H         -4.1055892356       -0.2029340397       -2.0811427349
  70
       -106.38313934
 C          1.0441531948        1.5842031304        1.9916827594
 C          2.1762079675        0.8225083675        2.6735555856
 C          3.0546525561        1.8172558137        3.4322365004
 C          2.9568458442       -0.0917065039        1.6975669904
 H          2.2155332306       -0.5943368398        1.0622470078
 C          3.6919976779       -1.1642051598        2.5139371798
 C          4.5529959545       -2.0896050783        1.6649954261
 C          5.5968819174       -1.2790093480        0.9033284734
 H          6.2027759518       -0.7164957984        1.6228569058
 C          6.5156778576       -2.1807552633        0.0848020813
 C          4.8585179181       -0.2985859600       -0.0027655683
 C          3.9474091609        0.6525325279        0.7851030135
 H          4.5853405787        1.2914188778        1.4041102791
 O          3.3244813698        1.5984899562       -0.0934671626
 C          2.6146386634        1.1011256140       -1.1911993301
 N          1.2812083859        1.6504850785       -1.2459967255
 C          1.0478109333        2.9966941729       -1.2971611223
 C         -0.2917845339        3.1557731277       -1.3806598552
 N         -0.8402616964        1.9028751097       -1.3904294089
 C         -2.2587251978        1.6013788733       -1.4786892065
 H         -2.3271846603        0.7273685393       -2.1358411364
 C         -3.0562430116        2.7489084268       -2.0957808911
 C         -2.8230460025        1.2437842771       -0.1161990558
 C         -2.3583343074        1.8996753914        0.9956317203
 C         -2.8336225412        1.5932038221        2.2767738260
 C         -3.7830764111        0.6270058718        2.4393226222
 C         -4.3114264671       -0.0533405725        1.3232210680
 C         -5.3006770503       -1.0457281344        1.4852552128
 C         -5.8212379841       -1.7028783181        0.4077965821
 C         -5.3759841937       -1.3841086898       -0.8824991578
 C         -4.4167850721       -0.4288917572       -1.0728702174
 C         -3.8415668159        0.2608342808        0.0175761227
 C          0.1218072006        0.9559522218       -1.2961756902
 Ni        -0.2239974709       -1.1252415659       -1.1183320430
 C          1.2872046445       -2.0891130869       -1.1605272287
 O          2.1553970252       -2.8345731636       -1.1755880706
 C         -1.0280516673       -1.2721033817        0.4714927749
 O         -1.4966391563       -1.4261848471        1.4999609292
 C         -1.2692068992       -1.6086440182       -2.4873758145
 O         -1.9184446601       -2.0022180776       -3.3405381442
 H          0.4227722420        2.0727791598        2.7398566981
 H          0.4153688385        0.9066899076        1.4162643963
 H          1.4458863262        2.3450608503        1.3284717478
 H          1.7185858609        0.1484526762        3.4086015222
 H          3.4129714911        2.5983925506        2.7662298775
 H          3.9087286776        1.3312712319        3.8968126871
 H          2.4696775604        2.2895824574        4.2188144258
 H          2.9507600782       -1.7536942240        3.0578332077
 H          4.3332495244       -0.6774595988        3.2517977448
 H          3.9278258852       -2.6347846144        0.9548126378
 H          5.0424996280       -2.8227849672        2.3094382680
 H          7.0452440862       -2.8738668443        0.7342965474
 H          7.2494988910       -1.5901826301       -0.4592011364
 H          5.9379555303       -2.7584037631       -0.6335404580
 H          4.2744068509       -0.8831141671       -0.7158506816
 H          5.5690661887        0.3057084227       -0.5723848923
 H          2.5045877513        0.0129135674       -1.1723511001
 H          3.1399866290        1.3951820469       -2.1159486560
 H          1.8460199348        3.7082389712       -1.2605499668
 H         -0.8721582098        4.0519039691       -1.4382711839
 H         -4.0710773057        2.4089928049       -2.2865178158
 H         -2.6128280897        3.0661940225       -3.0375686667
 H         -3.1124483058        3.5964734707       -1.4163701324
 H         -1.5958938594        2.6590107666        0.8958576543
 H         -2.4331912259        2.1220016236        3.1290028899
 H         -4.1464685486        0.3686890344        3.4234184115
 H         -5.6378874068       -1.2757939860        2.4859844136
 H         -6.5752837646       -2.4648224052        0.5392818808
 H         -5.7968324528       -1.9016360379       -1.7322326613
 H         -4.1059290321       -0.2041469134       -2.0815053483
  70
       -106.38313643
 C          2.1095565220        2.7305238856        1.8567570159
 C          1.6030553088        1.3223835221        1.5529928963
 C          0.8023335377        0.7957720034        2.7435562452
 C          2.7156133413        0.3320265866        1.1431963726
 H          2.2065772006       -0.5650107508        0.7658174365
 C          3.6139241704       -0.0964926461        2.3081928791
 C          4.6417963703       -1.1355409847        1.8699419861
 C          5.5314228121       -0.5965128555        0.7521870112
 H          6.0708322195        0.2817786815        1.1252983120
 C          6.5483195122       -1.6412355199        0.3024064165
 C          4.6449236599       -0.1657963988       -0.4147074100
 C          3.6254449858        0.8859994910        0.0341840760
 H          4.1772192750        1.7456330748        0.4296341253
 O          2.9381406354        1.4598902403       -1.0790176884
 C          2.1732241835        0.6142269651       -1.8834078868
 N          0.7915962359        1.0396164063       -1.8970358828
 C          0.4481637941        2.3158528366       -2.2460989499
 C         -0.8998344567        2.3809060636       -2.2002384470
 N         -1.3468489792        1.1424041476       -1.8198275314
 C         -2.7460917854        0.7562666012       -1.7000570059
 H         -2.8687520286       -0.1216171752       -2.3499652275
 C         -3.7020746828        1.8388583287       -2.2024757886
 C         -3.1528212360        0.3274675725       -0.3003698740
 C         -3.8782587302       -0.8358402562       -0.1931157698
 C         -4.3668626188       -1.2936653800        1.0359525171
 C         -4.1253459667       -0.5768715993        2.1715294939
 C         -3.4064997185        0.6340033950        2.1124816281
 C         -3.1872032907        1.3913042251        3.2824708905
 C         -2.5217929274        2.5825441933        3.2381127291
 C         -2.0396752621        3.0593875380        2.0112135199
 C         -2.2244007134        2.3423009139        0.8618704872
 C         -2.9128967679        1.1086891683        0.8636335014
 C         -0.3066128939        0.2962321449       -1.6309317018
 Ni        -0.4074672941       -1.7356622639       -1.0872000728
 C         -1.5074834386       -2.4749109878       -2.2830150793
 O         -2.1756002919       -2.9883938692       -3.0547816159
 C          1.1872277058       -2.5633773558       -1.1249701053
 O          2.1150353761       -3.2313883788       -1.0714350522
 C         -1.0130823901       -1.7085504996        0.5923548118
 O         -1.3429105472       -1.7370721768        1.6841472512
 H          2.5259594913        3.1951587819        0.9671290417
 H          2.8668542337        2.7149228791        2.6369772984
 H          1.2802315504        3.3436186996        2.2034303571
 H          0.9140029195        1.3933240218        0.7041259985
 H         -0.1234654570        1.3565558146        2.8450324134
 H          1.3636717661        0.9021240081        3.6686518922
 H          0.5473362871       -0.2517209547        2.6076804580
 H          3.0029533973       -0.5230361217        3.1028842693
 H          4.1338713203        0.7756917934        2.7099165299
 H          4.1245421535       -2.0306544456        1.5161958637
 H          5.2565281982       -1.4236716924        2.7254317897
 H          6.0410022620       -2.5272585491       -0.0731709573
 H          7.1836615417       -1.9372202020        1.1339716170
 H          7.1802572126       -1.2456157309       -0.4895530065
 H          4.1333570784       -1.0469988807       -0.8080342390
 H          5.2527719988        0.2561602202       -1.2186309831
 H          2.1952932158       -0.4284671783       -1.5548682362
 H          2.5544939947        0.6750898469       -2.9159529633
 H          1.1876646574        3.0519169181       -2.4814937204
 H         -1.5467700803        3.2042488817       -2.4174952275
 H         -3.4705402137        2.1181947006       -3.2283135435
 H         -3.6787080793        2.7205720198       -1.5669495110
 H         -4.7130120243        1.4389686756       -2.1785984741
 H         -4.0838960096       -1.4202537274       -1.0792260482
 H         -4.9237425550       -2.2180012708        1.0726878558
 H         -4.4857583839       -0.9199654769        3.1303927291
 H         -3.5634511076        1.0068123597        4.2196667087
 H         -2.3606696399        3.1586231962        4.1374625639
 H         -1.5134486188        4.0027159877        1.9769344604
 H         -1.8295825126        2.7408931536       -0.0567126462
  70
       -106.38309869
 C          3.2205946250       -0.0579668854       -3.1360942014
 C          3.8307761778       -0.6373535804       -1.8586517586
 C          3.4157729271       -2.1049754598       -1.7481128054
 C          3.3760470460        0.1671512513       -0.6233888516
 H          2.2899323178        0.0221630639       -0.5556366142
 C          3.6622646706        1.6696466924       -0.7139479281
 C          5.1590209215        1.9591573910       -0.7452409377
 C          5.8728816473        1.4290799919        0.5023635008
 H          6.9531534780        1.4664308169        0.3122026789
 C          5.5982034070        2.2992500759        1.7271643874
 C          5.5041526631       -0.0382303712        0.7565508450
 C          4.0047720387       -0.3412557742        0.6864710809
 H          3.8658390498       -1.4295662948        0.7627324101
 O          3.3992766640        0.2362192749        1.8488169184
 C          2.1151859761       -0.1776791084        2.1644601185
 N          1.1030357250        0.7008349734        1.6091827361
 C          1.0783235769        2.0357809961        1.9083382020
 C          0.0725173134        2.5784309689        1.1872034840
 N         -0.4875152294        1.5623329058        0.4626436249
 C         -1.6205844673        1.6895160492       -0.4362133901
 H         -1.3944748408        1.0298460870       -1.2816999128
 C         -1.7901914979        3.1180413768       -0.9505630242
 C         -2.8982874681        1.2169859786        0.2327951995
 C         -3.0720876919        1.4216135988        1.5784531874
 C         -4.2319988310        0.9979789706        2.2390644754
 C         -5.2223586479        0.3688113637        1.5426815600
 C         -5.0973517796        0.1540264540        0.1549076213
 C         -6.1193486183       -0.4945842403       -0.5693561486
 C         -6.0039332769       -0.7056924854       -1.9131914629
 C         -4.8575053013       -0.2670168585       -2.5898693661
 C         -3.8493407688        0.3648529533       -1.9167193873
 C         -3.9258356989        0.5901467407       -0.5242367787
 C          0.1363403266        0.3892338375        0.7161712505
 Ni        -0.4707686313       -1.4953524247       -0.0111893536
 C         -2.0776344890       -1.7234683039        0.7501270152
 O         -3.0639099152       -1.9617259873        1.2702539157
 C         -0.5176500138       -1.3726797146       -1.7913601238
 O         -0.5610461384       -1.3457648960       -2.9332049599
 C          0.6038109074       -2.8306697373        0.5263673901
 O          1.1691300301       -3.7862350724        0.7978148652
 H          3.4474318485       -0.7034060671       -3.9818448530
 H          3.6138582305        0.9298914071       -3.3588578707
 H          2.1387777995        0.0081779745       -3.0401597512
 H          4.9198702243       -0.5954322741       -1.9486271115
 H          3.6232792639       -2.6232041256       -2.6818081291
 H          2.3468690837       -2.1782043035       -1.5488857641
 H          3.9526933259       -2.6230837719       -0.9578736586
 H          3.2250241226        2.1530500503        0.1617590639
 H          3.1795705981        2.0983721103       -1.5924319538
 H          5.3194076741        3.0373340607       -0.8202966575
 H          5.5982899483        1.5026848614       -1.6340983699
 H          6.2060627215        1.9668586670        2.5656816985
 H          4.5569419453        2.2325712781        2.0210273541
 H          5.8442865651        3.3383518845        1.5165909470
 H          5.8641789785       -0.3324015220        1.7439087470
 H          6.0011017765       -0.6687692646        0.0179090007
 H          2.0323362519       -0.1399987175        3.2595840509
 H          1.9041298810       -1.1978289109        1.8141585284
 H          1.7732607870        2.4743206693        2.5941768474
 H         -0.2683477195        3.5907675315        1.1414778266
 H         -0.8540828068        3.4961559031       -1.3567993759
 H         -2.1372712941        3.7798711359       -0.1601364642
 H         -2.5386190203        3.1226181332       -1.7388593793
 H         -2.2976682715        1.9054296654        2.1575102490
 H         -4.3258056879        1.1670527427        3.3016106269
 H         -6.1162189620        0.0244552836        2.0422167066
 H         -6.9979055846       -0.8247964756       -0.0335424868
 H         -6.7877727305       -1.2077999899       -2.4607733892
 H         -4.7728549076       -0.4335349138       -3.6538496457
 H         -2.9846583455        0.6930263664       -2.4725897159
  70
       -106.38309632
 C          2.7461855323        2.4384100500        0.3345470588
 C          3.0226064787        1.0653405331        0.9443138577
 C          3.4267482183        1.2232155030        2.4084951502
 C          4.0694903332        0.2393650882        0.1687156611
 H          4.3545023608       -0.6017215264        0.8093412178
 C          5.3271584425        1.0320556720       -0.1910829387
 C          6.3556599755        0.1540563930       -0.8953148283
 C          5.7733649405       -0.4181712706       -2.1860997636
 H          5.4948427321        0.4158251543       -2.8420349885
 C          6.7908599855       -1.2921382152       -2.9135385611
 C          4.5167324053       -1.2178200713       -1.8510969252
 C          3.4746075651       -0.3776289742       -1.1059794544
 H          3.1105217379        0.4263084587       -1.7603494254
 O          2.3869771848       -1.2254172600       -0.7241383513
 C          1.3051882543       -1.2726408433       -1.5873507377
 N          0.4942475267       -0.0715576489       -1.5439148362
 C          0.5224280633        0.8845700863       -2.5230357908
 C         -0.3453623232        1.8468374589       -2.1459296098
 N         -0.8828358938        1.4535079677       -0.9487069208
 C         -1.8756890280        2.2824145933       -0.2739710448
 H         -2.3398745571        2.8957679535       -1.0609884372
 C         -1.1418426298        3.2265522532        0.6784678487
 C         -2.9822966808        1.4580292680        0.3576184872
 C         -3.3062646049        1.5969685820        1.6840858453
 C         -4.3407477051        0.8545927805        2.2707272975
 C         -5.0604562071       -0.0297556092        1.5236854532
 C         -4.7919701386       -0.1827057847        0.1483273385
 C         -5.5430703331       -1.0849387547       -0.6331573464
 C         -5.3011458994       -1.2309329728       -1.9686925642
 C         -4.3045468868       -0.4585613649       -2.5792820685
 C         -3.5558833288        0.4209474728       -1.8473873756
 C         -3.7535446260        0.5780950963       -0.4572512952
 C         -0.3633546421        0.2736875822       -0.5496480900
 Ni        -0.6485516370       -0.8873446204        1.1788988494
 C         -2.0474206308       -1.9044783172        0.7518815668
 O         -2.8997987654       -2.5938411762        0.4303640850
 C          0.8465115947       -1.8523299780        1.5059038706
 O          1.7255443245       -2.4547250983        1.9094211931
 C         -0.8244832400        0.1572053371        2.6152448520
 O         -0.8524206115        0.6928388486        3.6254794310
 H          3.6052300202        3.0962909823        0.4442227348
 H          1.9052030118        2.8982421404        0.8483366449
 H          2.4955416573        2.3645305654       -0.7219325661
 H          2.0868462747        0.4920622760        0.9246574021
 H          3.5761703699        0.2506478315        2.8711099028
 H          2.6441059185        1.7420169959        2.9577427335
 H          4.3457770364        1.7978087725        2.5035222746
 H          5.7635860792        1.4507025397        0.7165009185
 H          5.0632129159        1.8589394287       -0.8531037244
 H          6.6516934911       -0.6665166040       -0.2385010223
 H          7.2481888647        0.7418051138       -1.1210619346
 H          7.6804850823       -0.7169338391       -3.1596967203
 H          6.3706630608       -1.6864929106       -3.8361559005
 H          7.0867965219       -2.1300610996       -2.2863500926
 H          4.7788897764       -2.0646201688       -1.2137284627
 H          4.0716871756       -1.6186138954       -2.7660484100
 H          0.6928131195       -2.1198712200       -1.2549995499
 H          1.6132074705       -1.4230897661       -2.6339699917
 H          1.1318688196        0.7966765683       -3.3996480293
 H         -0.6222596895        2.7620128644       -2.6293459207
 H         -0.3915986096        3.7853893043        0.1209086228
 H         -0.6398337986        2.6594094186        1.4582776681
 H         -1.8323538298        3.9353178721        1.1263153022
 H         -2.7649321331        2.2842928279        2.3132119374
 H         -4.5487630325        0.9859167089        3.3223036839
 H         -5.8471157617       -0.6217741974        1.9687459556
 H         -6.3158908669       -1.6634983023       -0.1474939639
 H         -5.8746554039       -1.9292866175       -2.5601241838
 H         -4.1286062534       -0.5612035125       -3.6407053098
 H         -2.8071005220        1.0046879178       -2.3592994728
  70
       -106.38304993
 C          5.2262594844       -1.5331971352        1.6059624432
 C          5.6046692552       -0.0981330608        1.2429918109
 C          5.4080510018        0.8167880722        2.4502298454
 C          4.8663002827        0.3824219914       -0.0270219697
 H          4.7627001555       -0.4841434060       -0.6872255148
 C          5.6864334181        1.4496432313       -0.7593303428
 C          5.0460309528        1.8417241615       -2.0857477524
 C          3.6328946330        2.3723220931       -1.8633208624
 H          3.6924049838        3.2700191869       -1.2353328889
 C          2.9652316458        2.7453789425       -3.1837338107
 C          2.8086933371        1.3196664491       -1.1253996621
 C          3.4483573769        0.9268072875        0.2122730925
 H          3.4962851597        1.8158532388        0.8604749087
 O          2.6866502874       -0.0852133667        0.8692543227
 C          1.6361920950        0.3212485992        1.6683686042
 N          0.4666650878        0.7655395522        0.9336171645
 C          0.0161225955        2.0592557043        0.9233039631
 C         -1.0610955522        2.0883698577        0.1081565702
 N         -1.2374853136        0.8147728516       -0.3572503308
 C         -2.2874907162        0.4650636032       -1.3013903162
 H         -2.3791142634       -0.6287152347       -1.2812301443
 C         -1.8317152143        0.8645651968       -2.7041152478
 C         -3.5949109174        1.0726317347       -0.8373862137
 C         -4.2054183860        2.0836369368       -1.5342711879
 C         -5.4026275529        2.6618564657       -1.0879448429
 C         -5.9841556043        2.2302872162        0.0677486834
 C         -5.3955456914        1.1924717381        0.8196380961
 C         -5.9911381584        0.7381073795        2.0148901445
 C         -5.4261954470       -0.2700599825        2.7423049821
 C         -4.2410773290       -0.8702849038        2.2951532439
 C         -3.6384098830       -0.4522085013        1.1412889581
 C         -4.1873362687        0.5944143346        0.3672004697
 C         -0.3012018277       -0.0180599915        0.1387984792
 Ni        -0.0219911709       -2.0755322108       -0.1591645331
 C         -0.9288299283       -2.6703537644       -1.5859134815
 O         -1.4145932381       -3.1684545810       -2.4931926903
 C          1.7304426729       -2.2859706391       -0.5124651290
 O          2.8021417975       -2.5022826950       -0.8307055388
 C         -0.5585183992       -2.7655620547        1.3908541437
 O         -0.9204621581       -3.1564806832        2.4022244028
 H          5.4619203738       -2.2079373900        0.7865081813
 H          4.1634359225       -1.6066010164        1.8134988102
 H          5.7797847609       -1.8565044509        2.4853767591
 H          6.6741333454       -0.0932746199        0.9975686163
 H          6.0906921605        0.5259907757        3.2459247148
 H          4.3944604741        0.7342515317        2.8343610035
 H          5.6100925066        1.8553543263        2.1968853099
 H          6.6915211096        1.0649672066       -0.9427618848
 H          5.7806564630        2.3359982909       -0.1271017344
 H          5.0028509152        0.9689316104       -2.7407734796
 H          5.6552506343        2.6017498716       -2.5798026499
 H          3.5482166518        3.5000734664       -3.7066169795
 H          1.9663413091        3.1408331483       -3.0113052093
 H          2.8812731331        1.8710553072       -3.8253783048
 H          2.7168976654        0.4209144157       -1.7389159224
 H          1.8034552718        1.7092120533       -0.9571777804
 H          1.9259583068        1.1478915839        2.3391061789
 H          1.3600817463       -0.5620137963        2.2595467507
 H          0.4873767205        2.8366354187        1.4892704323
 H         -1.7127486586        2.8930186422       -0.1631482502
 H         -1.6157445879        1.9291171078       -2.7650351982
 H         -2.5910304754        0.6066141990       -3.4368378115
 H         -0.9208862294        0.3179775543       -2.9422710633
 H         -3.7738905451        2.4561137408       -2.4498872646
 H         -5.8523103462        3.4536196706       -1.6687639575
 H         -6.9029801984        2.6732336204        0.4239724829
 H         -6.9089588229        1.2061622245        2.3416564237
 H         -5.8875277191       -0.6132493570        3.6565234781
 H         -3.8026395980       -1.6738240762        2.8683012008
 H         -2.7301875802       -0.9453233157        0.8268438337
  70
       -106.38303567
 C          5.9690912818        1.9267654769        2.0473615487
 C          5.4013016178        0.5096948529        1.9803011082
 C          6.4280368405       -0.4825556729        2.5235352701
 C          4.9261196038        0.0976363405        0.5718410355
 H          4.7242021858       -0.9779682767        0.6069825748
 C          5.9505190479        0.3677977825       -0.5299990276
 C          5.4575398843       -0.1571152651       -1.8739412991
 C          4.1444373287        0.5189471058       -2.2610603468
 H          4.3211697526        1.5987694609       -2.3443378239
 C          3.6310917783        0.0047645994       -3.6027774870
 C          3.1075142496        0.2807622076       -1.1654812753
 C          3.5918987807        0.7678657580        0.2036692615
 H          3.7191723981        1.8612495480        0.1818164506
 O          2.6435637494        0.4245975489        1.2158342199
 C          1.7190760351        1.3890213736        1.5646908056
 N          0.7494001529        1.6825373167        0.5269486124
 C          0.6775154673        2.8821803629       -0.1284067909
 C         -0.3308978410        2.7784840381       -1.0233139151
 N         -0.8386000882        1.5145826055       -0.9015202468
 C         -1.9781884386        0.9767977918       -1.6247782841
 H         -1.6806547644       -0.0328868524       -1.9295250647
 C         -2.3192526157        1.7947860644       -2.8678882057
 C         -3.1834865075        0.8861678157       -0.7055896719
 C         -3.3849640102        1.8666857300        0.2332117486
 C         -4.4700282132        1.8221942580        1.1171637342
 C         -5.3548941071        0.7853111412        1.0583207874
 C         -5.2020005608       -0.2329439870        0.0955293131
 C         -6.1176749557       -1.3037706011        0.0266387068
 C         -5.9812625372       -2.2869123115       -0.9106255279
 C         -4.9239151342       -2.2301227831       -1.8291033142
 C         -4.0182169570       -1.2072115114       -1.7869476386
 C         -4.1123588555       -0.1836664334       -0.8178797546
 C         -0.1821478266        0.8207952123        0.0552107504
 Ni        -0.5561617853       -1.1359462692        0.6932766977
 C          0.9166291846       -1.7399498892        1.5432561760
 O          1.8018526166       -2.2579119753        2.0390931998
 C         -2.0082419010       -0.9494845369        1.7076482437
 O         -2.9541483449       -0.8145817095        2.3334390067
 C         -0.8438144413       -2.1883841282       -0.7160366173
 O         -1.0158715431       -2.9607432603       -1.5421197582
 H          6.1388499354        2.2055208779        3.0852971004
 H          5.2847722891        2.6520403349        1.6131247215
 H          6.9196348186        1.9899851354        1.5233022604
 H          4.5188791722        0.4608279059        2.6274413592
 H          6.0233232720       -1.4915238133        2.5223541946
 H          6.6947576625       -0.2230756381        3.5456482547
 H          7.3363219634       -0.4727574286        1.9253433620
 H          6.8961930287       -0.1118758329       -0.2753607440
 H          6.1268496329        1.4419009006       -0.6143980339
 H          5.3025324925       -1.2362611675       -1.8124411853
 H          6.2106707553        0.0305223415       -2.6425832723
 H          2.7054102923        0.5058896800       -3.8777618103
 H          3.4375716091       -1.0641094751       -3.5484989147
 H          4.3643494114        0.1822368515       -4.3863346562
 H          2.8883972571       -0.7858315859       -1.0825048192
 H          2.1760923980        0.7850834080       -1.4299752930
 H          2.2048953317        2.3441652412        1.8283613354
 H          1.1887910334        0.9860892174        2.4369730793
 H          1.3322670038        3.7003449275        0.0923271687
 H         -0.7049137589        3.5002882762       -1.7177669228
 H         -3.0907410675        1.2737777295       -3.4291847550
 H         -1.4466850407        1.9142177899       -3.5073457224
 H         -2.7092938988        2.7734736410       -2.5965279038
 H         -2.6882375545        2.6899589809        0.3144139603
 H         -4.5874100360        2.6075718534        1.8492284760
 H         -6.1850707834        0.7275072487        1.7472084789
 H         -6.9320559972       -1.3292063197        0.7367457502
 H         -6.6827583875       -3.1069730743       -0.9541368289
 H         -4.8265182799       -3.0053465389       -2.5750666250
 H         -3.2235609753       -1.1908643256       -2.5168077599
  70
       -106.38302925
 C          4.9497159086        2.8362878211       -1.8265743422
 C          3.8595987237        1.8429653380       -1.4206673109
 C          2.6781457472        2.6159906272       -0.8445600980
 C          4.4711176710        0.7621537784       -0.4929969095
 H          5.2688973902        1.2268728327        0.0953621358
 C          5.0665705664       -0.3300355698       -1.3946827395
 C          5.7712644675       -1.4391514556       -0.6266784983
 C          4.7868359976       -2.1068643332        0.3266591492
 H          3.9575713854       -2.5229193690       -0.2573502893
 C          5.4416898104       -3.2341382223        1.1182731635
 C          4.2374335019       -1.0357750623        1.2610308661
 C          3.5219751042        0.1038237337        0.5210917050
 H          2.6307535774       -0.2817529205        0.0024336036
 O          3.1229666155        1.0710255142        1.5047442900
 C          1.9647935340        0.7775321172        2.2128936615
 N          0.7884939442        1.3692823341        1.6058428225
 C          0.4676533436        2.6884838828        1.7796877194
 C         -0.5989113634        2.9397042211        0.9899195905
 N         -0.8971097363        1.7710897516        0.3437086004
 C         -1.9766582455        1.5946680793       -0.6090655626
 H         -1.6226472303        0.8207013166       -1.3025543672
 C         -2.2491313743        2.8818208967       -1.3887838622
 C         -3.2461827283        1.1058582373        0.0634575833
 C         -3.4973021290        1.4202080744        1.3743558839
 C         -4.6653424504        0.9921937146        2.0192225822
 C         -5.5871113605        0.2496640691        1.3415450414
 C         -5.3764055415       -0.0925292023       -0.0099068312
 C         -6.3234225088       -0.8651091176       -0.7140858103
 C         -6.1210589847       -1.2072768727       -2.0201086934
 C         -4.9555656613       -0.7874453130       -2.6756229738
 C         -4.0198051025       -0.0350887616       -2.0218051407
 C         -4.1932916373        0.3393439418       -0.6706619023
 C         -0.0518820146        0.7851393271        0.7190659805
 Ni        -0.1642275796       -1.2134788723        0.0536218291
 C          0.8198279646       -2.3448892563        1.0363284811
 O          1.3644991897       -3.1909405551        1.5781901487
 C         -1.8722222337       -1.7184506068        0.3181859963
 O         -2.8852963239       -2.1741682586        0.5746639279
 C          0.4465388821       -1.0819272742       -1.6160240183
 O          0.9247855445       -0.9388874254       -2.6443941617
 H          4.5734457267        3.5255673059       -2.5795712078
 H          5.8179233943        2.3281922098       -2.2384194880
 H          5.2682359548        3.4151345614       -0.9620228071
 H          3.5007171538        1.3376313350       -2.3252026064
 H          2.9372458265        3.0693707102        0.1074870214
 H          1.8246153086        1.9588900097       -0.7076370268
 H          2.3870313407        3.4032345529       -1.5387832728
 H          5.7658252301        0.1284611174       -2.0954282792
 H          4.2558601836       -0.7733398028       -1.9792394899
 H          6.6070299379       -1.0268859486       -0.0567973469
 H          6.1726849957       -2.1722990864       -1.3294673684
 H          6.2597973911       -2.8488847643        1.7235230669
 H          5.8387514295       -3.9903766722        0.4449646297
 H          4.7186992573       -3.7081564119        1.7780864596
 H          5.0583758183       -0.5961860374        1.8334927494
 H          3.5486148729       -1.4919738164        1.9752858362
 H          2.0798125359        1.2157398781        3.2117605263
 H          1.7857451586       -0.3016526019        2.3024332786
 H          1.0228209900        3.3262400761        2.4353797475
 H         -1.1486525925        3.8453863236        0.8457709744
 H         -2.9128433268        2.6639926380       -2.2211345002
 H         -1.3213164816        3.2947786730       -1.7797905670
 H         -2.7384107464        3.6234639435       -0.7613812133
 H         -2.7837033967        2.0011092213        1.9412967981
 H         -4.8211305961        1.2544964529        3.0552557629
 H         -6.4894811200       -0.0907663479        1.8284439518
 H         -7.2142721670       -1.1853538936       -0.1926958448
 H         -6.8480716912       -1.8027664340       -2.5522500530
 H         -4.7970506565       -1.0665215126       -3.7071520270
 H         -3.1324496091        0.2641465922       -2.5577502743
  70
       -106.38302626
 C          5.6062093640        2.6515869485        1.1560927318
 C          5.5385651674        1.1282120983        1.2594150935
 C          6.9171946667        0.5773747250        1.6205764263
 C          4.9822372544        0.4448587041       -0.0060347321
 H          5.1443000792       -0.6310746817        0.1172234323
 C          5.6544520723        0.8963315961       -1.3037086691
 C          5.1284608899        0.1067456985       -2.4985752578
 C          3.6176382154        0.2836141484       -2.6441119813
 H          3.4057561311        1.3466275286       -2.8158375205
 C          3.0778519692       -0.5184426130       -3.8242254192
 C          2.9375781437       -0.1454647139       -1.3471306500
 C          3.4637288000        0.6405426847       -0.1445235146
 H          3.2449417568        1.7077745238       -0.2864285390
 O          2.8053154082        0.1688947751        1.0360293528
 C          1.9462021053        1.0557778814        1.6599397926
 N          0.8629527178        1.5145439432        0.8127501116
 C          0.7252957867        2.8143478023        0.4047047965
 C         -0.3717305011        2.8631671819       -0.3838896565
 N         -0.8671725422        1.5904873372       -0.4494668056
 C         -2.0715325176        1.1769959049       -1.1489911942
 H         -1.8093209189        0.2391614522       -1.6517367776
 C         -2.5175172391        2.1971210826       -2.1937637260
 C         -3.1911894369        0.9139895091       -0.1579055008
 C         -3.3021977864        1.7096577305        0.9546352701
 C         -4.3080303167        1.5011704826        1.9062701532
 C         -5.2053386002        0.4871249122        1.7384674520
 C         -5.1440824682       -0.3427335851        0.6005493195
 C         -6.0718992093       -1.3900109983        0.4210400872
 C         -6.0223002184       -2.1924408512       -0.6822662973
 C         -5.0433522093       -1.9698164765       -1.6604469856
 C         -4.1287713558       -0.9643824758       -1.5152443509
 C         -4.1346316889       -0.1260104104       -0.3782805382
 C         -0.1170125901        0.7414960209        0.2881101763
 Ni        -0.4465532978       -1.3041924892        0.5848348043
 C         -0.7943886254       -2.0765025818       -0.9824605226
 O         -0.9966684131       -2.6649326411       -1.9425049019
 C          1.0657376757       -2.0280425623        1.2514542806
 O          1.9688020794       -2.6127735876        1.6253942360
 C         -1.8351480396       -1.3353707294        1.7044934363
 O         -2.7275922632       -1.3485589931        2.4169778401
 H          6.3766098370        2.9577581490        0.4526918788
 H          5.8506641767        3.0765576297        2.1276471633
 H          4.6572929109        3.0739407626        0.8327587154
 H          4.8555950756        0.8652722853        2.0752517081
 H          7.2584068412        1.0081417077        2.5593758776
 H          7.6481680326        0.8202609514        0.8529399292
 H          6.8808361492       -0.5032443745        1.7342545348
 H          6.7336396402        0.7596379978       -1.2251222659
 H          5.4585833840        1.9577364734       -1.4690693704
 H          5.3532937216       -0.9533501837       -2.3638336785
 H          5.6294817254        0.4419578886       -3.4095955367
 H          3.5503024214       -0.2019035906       -4.7515586813
 H          2.0030008402       -0.3821544075       -3.9201168510
 H          3.2748429112       -1.5785025852       -3.6819715750
 H          3.1224590826       -1.2053923376       -1.1635133967
 H          1.8544474480       -0.0139781861       -1.4184469387
 H          2.4727906063        1.9574363936        2.0167343853
 H          1.5293517646        0.5080504361        2.5141993870
 H          1.3984301425        3.5895371809        0.7101845543
 H         -0.8140391392        3.6954517737       -0.8886257468
 H         -1.7032812991        2.4390232243       -2.8742353312
 H         -2.8802726305        3.1073253502       -1.7209927240
 H         -3.3361037335        1.7733361615       -2.7699848977
 H         -2.5935251594        2.5095420181        1.1211083298
 H         -4.3547536218        2.1419841878        2.7744199508
 H         -5.9750040727        0.3029942138        2.4738685899
 H         -6.8245913390       -1.5447614530        1.1810309970
 H         -6.7320505458       -2.9963463003       -0.8105310658
 H         -5.0137059765       -2.6025418512       -2.5355022666
 H         -3.3956116025       -0.8176725806       -2.2932970988
  70
       -106.38302365
 C          4.6381924059        3.4686386324       -0.1727618174
 C          3.7114058036        2.2638885110       -0.3447435930
 C          2.3089638643        2.6552419036        0.1087525994
 C          4.3285158262        1.0349658042        0.3703099265
 H          4.8656518974        1.3870028657        1.2569243421
 C          5.3192170076        0.3851411469       -0.6078376184
 C          6.0573493890       -0.8114377208       -0.0247696634
 C          5.0527543081       -1.8785215080        0.3946266746
 H          4.4758282359       -2.1850099233       -0.4858377006
 C          5.7430408166       -3.1067284415        0.9789131318
 C          4.1022337744       -1.2561178883        1.4101069037
 C          3.3442363119       -0.0372711470        0.8641057737
 H          2.6834089818       -0.3426055781        0.0390214917
 O          2.5541832548        0.4932491372        1.9386156239
 C          1.3567568526       -0.1618252724        2.1962203153
 N          0.2322464389        0.4699995247        1.5335675803
 C         -0.3500047201        1.6053818737        2.0303880421
 C         -1.2951354302        1.9803482889        1.1426087904
 N         -1.2664695945        1.0653507803        0.1276912015
 C         -2.1155547636        1.1837060092       -1.0473519217
 H         -2.1236955769        0.2000979051       -1.5376891536
 C         -1.4633374439        2.1727085829       -2.0137212594
 C         -3.5279003879        1.5313018492       -0.6212250018
 C         -4.1069492334        2.7243168384       -0.9717947535
 C         -5.4126532246        3.0511264766       -0.5782851838
 C         -6.1414032998        2.1784436738        0.1745301562
 C         -5.5909520405        0.9396674457        0.5628800025
 C         -6.3389872690        0.0306150107        1.3398723949
 C         -5.8122796259       -1.1711816394        1.7174327466
 C         -4.5091496136       -1.5102644670        1.3290814649
 C         -3.7579932871       -0.6503165296        0.5769548824
 C         -4.2677316738        0.6014174048        0.1660921603
 C         -0.3259479827        0.1222415651        0.3482075347
 Ni         0.1563014217       -1.4816331925       -0.9559623702
 C          1.0386740819       -2.7838377861       -0.0974941686
 O          1.5775063583       -3.6967363732        0.3286300647
 C         -1.3490528661       -2.2353557783       -1.5941785153
 O         -2.2042210033       -2.8497120632       -2.0342362199
 C          1.1535226152       -0.6393822762       -2.1711928345
 O          1.8239464260       -0.0539915973       -2.8874959223
 H          4.2867905077        4.3052268878       -0.7729577919
 H          5.6548830435        3.2374436413       -0.4798238406
 H          4.6563933022        3.7798343561        0.8697463765
 H          3.6490632976        2.0277521467       -1.4137487294
 H          2.0101754009        3.5757147811       -0.3909359850
 H          2.2779509597        2.8154267592        1.1823521378
 H          1.5921451081        1.8844827482       -0.1572599594
 H          6.0419811364        1.1342566020       -0.9339413645
 H          4.7652849243        0.0550392709       -1.4908649716
 H          6.6435794832       -0.5023390267        0.8435411585
 H          6.7467425645       -1.2140620950       -0.7698851255
 H          5.0109278251       -3.8614413398        1.2569170648
 H          6.3130949410       -2.8369385594        1.8656156314
 H          6.4245513535       -3.5416641394        0.2514136255
 H          4.6686126600       -0.9294635083        2.2860686280
 H          3.3836532943       -2.0069096385        1.7467250459
 H          1.1807741614       -0.0993754948        3.2773733483
 H          1.3769922867       -1.2147507854        1.8885500009
 H         -0.0396974912        2.0413624731        2.9567341901
 H         -1.9834989402        2.7997567810        1.1529968862
 H         -1.3327969886        3.1491848284       -1.5524199107
 H         -2.0595419231        2.2715472376       -2.9163353760
 H         -0.4816305562        1.7943509165       -2.2916145556
 H         -3.5655594185        3.4427600543       -1.5660695988
 H         -5.8293967895        4.0009752021       -0.8789796470
 H         -7.1480805967        2.4197385494        0.4836908844
 H         -7.3429274816        0.3074668929        1.6289916148
 H         -6.3910897037       -1.8635256758        2.3106847736
 H         -4.0960330459       -2.4627237108        1.6269719071
 H         -2.7584287877       -0.9483938831        0.3005908377
  70
       -106.38301624
 C          6.0324519070        1.9531774232        1.5493130754
 C          5.6209315689        0.4932333698        1.3636318407
 C          6.8223606562       -0.4157062811        1.6173768127
 C          4.9838896549        0.1977060672       -0.0095822785
 H          4.9057379940       -0.8910655193       -0.0956148489
 C          5.7924610299        0.7262852461       -1.1946317281
 C          5.1587397299        0.3110591560       -2.5181996086
 C          3.7342228495        0.8514460349       -2.6240658906
 H          3.7737373637        1.9473340504       -2.5818747918
 C          3.0812508341        0.4377191307       -3.9394641297
 C          2.9143959161        0.3491736009       -1.4380725133
 C          3.5469225756        0.7374408725       -0.0987553752
 H          3.5583271991        1.8332795615       -0.0024139130
 O          2.7892953747        0.1752589793        0.9758476978
 C          1.9210026518        1.0244216810        1.6346944369
 N          0.8368371075        1.5152912058        0.8065750682
 C          0.7043151023        2.8242413367        0.4286404037
 C         -0.4010297091        2.8974019006       -0.3466726661
 N         -0.9061199465        1.6296613508       -0.4346133441
 C         -2.1235236814        1.2392336078       -1.1250286593
 H         -1.8708560390        0.3197696678       -1.6650954304
 C         -2.5910499340        2.2941966711       -2.1246412476
 C         -3.2221035080        0.9416164166       -0.1200642528
 C         -3.3120146601        1.7023853424        1.0185484769
 C         -4.2958023060        1.4601219423        1.9850754323
 C         -5.1916341977        0.4466116548        1.8064657045
 C         -5.1523374144       -0.3473016531        0.6422587729
 C         -6.0793892608       -1.3931705626        0.4509104920
 C         -6.0524585212       -2.1592872833       -0.6786818267
 C         -5.0988038615       -1.8993658549       -1.6725484760
 C         -4.1852550793       -0.8946622263       -1.5162886832
 C         -4.1667296459       -0.0946474457       -0.3521368772
 C         -0.1528712567        0.7596427706        0.2747957033
 Ni        -0.4735850453       -1.2927066473        0.5219631887
 C         -0.8940226006       -2.0225017363       -1.0484229779
 O         -1.1412187676       -2.5949477184       -2.0074881962
 C          1.0703397275       -2.0373806658        1.0854739115
 O          1.9963613090       -2.6315824365        1.3805629976
 C         -1.8176140566       -1.3516541464        1.6903925585
 O         -2.6915736434       -1.3729595738        2.4253477345
 H          6.8794094573        2.2016014617        0.9144376648
 H          6.3264052434        2.1235522420        2.5830019937
 H          5.2148164289        2.6317327270        1.3167727532
 H          4.8589912779        0.2512801185        2.1128241774
 H          7.2111222533       -0.2512988566        2.6199040347
 H          7.6219878754       -0.2136593395        0.9084480344
 H          6.5374296766       -1.4611365280        1.5291952662
 H          6.8119117759        0.3424275622       -1.1425232890
 H          5.8380322926        1.8163298468       -1.1525654975
 H          5.1357705726       -0.7784276076       -2.5881582824
 H          5.7598375775        0.6877965899       -3.3488682449
 H          3.6587562999        0.8038038420       -4.7854388004
 H          2.0729461042        0.8398590268       -4.0107248321
 H          3.0214712022       -0.6461144928       -4.0068484681
 H          2.8395484875       -0.7395817939       -1.4699395620
 H          1.8982981198        0.7451312088       -1.4944963194
 H          2.4418058659        1.9103605581        2.0369686303
 H          1.4997158277        0.4339824909        2.4579375984
 H          1.3877790202        3.5872791994        0.7410175911
 H         -0.8435137120        3.7435919769       -0.8275722270
 H         -1.7926794515        2.5570520577       -2.8160904162
 H         -2.9401571080        3.1888996528       -1.6135392023
 H         -3.4240217866        1.8910773131       -2.6950535002
 H         -2.6031065406        2.5001828394        1.1939543860
 H         -4.3264892502        2.0742903216        2.8729735896
 H         -5.9436401486        0.2358569033        2.5529063195
 H         -6.8134759717       -1.5759750582        1.2227888723
 H         -6.7614645504       -2.9623487371       -0.8160944066
 H         -5.0879780073       -2.5025597985       -2.5686332238
 H         -3.4725626428       -0.7176456768       -2.3069601720
  70
       -106.38298841
 C          0.7471047226        1.5365122897        4.1056071495
 C          1.8597107361        1.6933423722        3.0628297856
 C          1.6269138171        3.0162127169        2.3379011830
 C          1.9383388224        0.4682564019        2.1191340715
 H          1.0113082214        0.3984921129        1.5396697161
 C          2.0894137397       -0.7899866429        2.9918702641
 C          2.3201614311       -2.0792129718        2.2152250354
 C          3.5676728198       -1.9598802337        1.3506992110
 H          4.4313492783       -1.7545907848        1.9936264228
 C          3.8312435602       -3.2390307101        0.5627477892
 C          3.3482159024       -0.7863998754        0.4049391762
 C          3.1357491753        0.5349295093        1.1416352486
 H          4.0332867130        0.7583485831        1.7351167759
 O          3.0961446882        1.6447261220        0.2248104539
 C          2.5287500476        1.5265750557       -1.0392810895
 N          1.0824315957        1.6342113511       -1.0549014961
 C          0.4571104587        2.8056682907       -0.7211679086
 C         -0.8702910403        2.5745155551       -0.7960168395
 N         -1.0215259749        1.2719338843       -1.1837015449
 C         -2.3387677555        0.6906977498       -1.3974214093
 H         -2.2022850038       -0.3965752429       -1.4804252500
 C         -2.8869205068        1.1960746722       -2.7319162146
 C         -3.2097495420        0.9963627567       -0.1927771641
 C         -4.2731571549        1.8587908006       -0.2784113050
 C         -5.0597862008        2.1698559511        0.8401161056
 C         -4.7770125175        1.6171838470        2.0542753179
 C         -3.7004918314        0.7175463301        2.1937986008
 C         -3.4109688327        0.1258311137        3.4412782936
 C         -2.3864809554       -0.7668590265        3.5750286782
 C         -1.6035189899       -1.0972819032        2.4603591325
 C         -1.8451880463       -0.5235912458        1.2432683606
 C         -2.9013389371        0.3959503057        1.0621440289
 C          0.1764487816        0.6739385440       -1.3645866417
 Ni         0.4606202095       -1.2451389882       -2.2456018436
 C          2.1290107869       -1.4083798174       -2.8898503990
 O          3.1348059985       -1.6437228116       -3.3759931239
 C          0.0903635191       -2.5092459685       -1.0401955876
 O         -0.1204125299       -3.3988132960       -0.3552441560
 C         -0.6365219279       -1.3348108527       -3.6644102730
 O         -1.2212345064       -1.5210932093       -4.6266164541
 H         -0.1900263965        1.2614100219        3.6246781518
 H          0.5968483323        2.4818726801        4.6226620707
 H          0.9886886300        0.7897025459        4.8558574967
 H          2.8201434052        1.7608292865        3.5880463311
 H          1.6421136725        3.8346592669        3.0555261070
 H          0.6531043508        3.0070220696        1.8525202708
 H          2.3983670467        3.1963702482        1.5980016893
 H          1.1913562652       -0.9088216071        3.5956527549
 H          2.9327322380       -0.6363409223        3.6708240685
 H          1.4613451033       -2.2867362105        1.5739451057
 H          2.4223714968       -2.9096276483        2.9175518786
 H          4.7291660633       -3.1398310112       -0.0430932429
 H          2.9949521445       -3.4555696014       -0.0992704755
 H          3.9620901445       -4.0827097768        1.2364140547
 H          2.4585454338       -1.0126759653       -0.1930947728
 H          4.2062816614       -0.6794551443       -0.2643444774
 H          2.7998806928        0.6019011722       -1.5593455097
 H          2.9323433209        2.3803097917       -1.6000348009
 H          1.0079177604        3.6873189255       -0.4700974098
 H         -1.7055847367        3.2145291797       -0.6002530512
 H         -2.2138978791        0.8909073648       -3.5301309770
 H         -2.9543693273        2.2814647148       -2.7488732433
 H         -3.8669743503        0.7684102847       -2.9241680474
 H         -4.5323174721        2.3195747082       -1.2182059882
 H         -5.8876282441        2.8538680394        0.7254600187
 H         -5.3735100111        1.8534733211        2.9234804741
 H         -4.0259155061        0.3898657959        4.2898567382
 H         -2.1751652840       -1.2226415505        4.5310474737
 H         -0.8046222502       -1.8153105189        2.5670003859
 H         -1.2158512740       -0.7921288656        0.4087465747
  70
       -106.38296583
 C          0.7664618226        0.1807078931        2.2214929938
 C          2.1353803808       -0.2407926938        2.7510678873
 C          2.6260346210        0.8115726506        3.7440683426
 C          3.1464940268       -0.5534272602        1.6224263201
 H          2.6247830684       -1.1696103473        0.8804028317
 C          4.3035802842       -1.3874464245        2.1890601255
 C          5.3336140971       -1.7624505388        1.1310733299
 C          5.9242510891       -0.5050267390        0.4993803394
 H          6.3920679213        0.0974890851        1.2862626648
 C          6.9798999367       -0.8495343533       -0.5468259437
 C          4.7854040934        0.2963704331       -0.1253783839
 C          3.7195464816        0.6831479750        0.9078358812
 H          4.1840693841        1.3370542895        1.6530066636
 O          2.7289900974        1.5316384638        0.3224889793
 C          2.1010570348        1.0687545403       -0.8395430676
 N          0.7041420693        1.4281487952       -0.8079901688
 C          0.2631022634        2.6455125041       -0.3691380634
 C         -1.0848422174        2.6214097795       -0.4598630160
 N         -1.4276023543        1.3938629394       -0.9558143238
 C         -2.8075368920        1.0250602026       -1.2313362291
 H         -2.8213788484       -0.0597907350       -1.3920786107
 C         -3.2435474955        1.6878220986       -2.5375878930
 C         -3.6587031031        1.3481128050       -0.0200887908
 C         -4.5477455087        2.3922923708       -0.0270355479
 C         -5.3167786409        2.7076891035        1.1024196547
 C         -5.1870372112        1.9766911813        2.2464884326
 C         -4.2871430920        0.8925100521        2.3033890132
 C         -4.1499834606        0.1284117741        3.4811189241
 C         -3.2854074359       -0.9270483505        3.5370869114
 C         -2.5235139867       -1.2620142706        2.4094363447
 C         -2.6301659389       -0.5382540972        1.2543806453
 C         -3.5094434711        0.5628222981        1.1592561219
 C         -0.3316272124        0.6400695703       -1.1786565494
 Ni        -0.1680131808       -1.2959088826       -2.0106767376
 C         -1.7045919064       -1.7875008803       -2.8010749870
 O         -2.5964341854       -2.2069964125       -3.3771702906
 C          1.1015694731       -1.0989678552       -3.2563541509
 O          1.8974545588       -0.9344627709       -4.0583016731
 C          0.2310841586       -2.3916130793       -0.6590091016
 O          0.4462249925       -3.1330798826        0.1829470428
 H          0.4210722755       -0.4936662641        1.4412584991
 H          0.8085504889        1.1879128253        1.8186050868
 H          0.0325302477        0.1693438098        3.0251502751
 H          2.0003309538       -1.1830850321        3.2969448721
 H          1.9281557852        0.8762989981        4.5761717663
 H          2.6758771539        1.7890970512        3.2711610700
 H          3.6050068234        0.5628112886        4.1453492365
 H          3.8950819564       -2.2952331955        2.6378666600
 H          4.8043519195       -0.8231838963        2.9780549242
 H          4.8635499994       -2.3709846613        0.3549729535
 H          6.1256436438       -2.3589566070        1.5883635717
 H          6.5445679371       -1.4497070052       -1.3430051043
 H          7.7914791833       -1.4159443067       -0.0961198728
 H          7.3945548609        0.0548072027       -0.9862876379
 H          4.3357701220       -0.3075039276       -0.9168010578
 H          5.1712942687        1.2115995247       -0.5809533726
 H          2.1524279024       -0.0231401947       -0.9408978454
 H          2.5644624392        1.5351552132       -1.7277699688
 H          0.9420727991        3.3965431447       -0.0241737441
 H         -1.8167500660        3.3595128431       -0.2051646872
 H         -4.2786351701        1.4419669392       -2.7577239877
 H         -2.6185005804        1.3125797879       -3.3458850559
 H         -3.1290333070        2.7684916424       -2.4951938409
 H         -4.6769501521        2.9957721517       -0.9117250205
 H         -6.0075820891        3.5364426665        1.0533370506
 H         -5.7711843937        2.2138746590        3.1239418036
 H         -4.7488127100        0.3964917963        4.3400901500
 H         -3.1862591403       -1.5088796546        4.4416700132
 H         -1.8463189603       -2.1019648281        2.4565858473
 H         -2.0252879425       -0.8263701501        0.4071128574
  70
       -106.38293951
 C          1.1689096686       -1.8115708256       -1.7347708626
 C          2.6884360736       -1.7422243759       -1.8553533131
 C          3.1721876154       -2.6940046040       -2.9492983165
 C          3.4297087193       -1.9895262967       -0.5265170103
 H          4.4872260667       -1.7761193745       -0.7195607242
 C          3.3229319617       -3.4196922169        0.0065861829
 C          4.2047939123       -3.6041352817        1.2383632427
 C          3.8265212765       -2.6186615296        2.3422999843
 H          2.7927763742       -2.8213020727        2.6489664689
 C          4.7360587782       -2.7795134791        3.5573443110
 C          3.8955139668       -1.1912915890        1.7993233645
 C          2.9745545950       -1.0311247731        0.5850574361
 H          1.9469761843       -1.2915476299        0.8819734219
 O          2.9876075605        0.2921932596        0.0508396754
 C          2.4343955896        1.2967556533        0.8344130853
 N          1.0362427727        1.1024078179        1.1613480146
 C          0.6147743938        0.5313803416        2.3348960950
 C         -0.7354820122        0.5491572611        2.3158524959
 N         -1.1051579719        1.1212293575        1.1305312193
 C         -2.4900742278        1.4337378737        0.8088828433
 H         -2.5463182264        1.5527193573       -0.2815270820
 C         -2.8319621826        2.7886272599        1.4296693109
 C         -3.3865072555        0.2873581435        1.2278593960
 C         -4.2730605864        0.4154312539        2.2668593908
 C         -5.1056694218       -0.6437109773        2.6560694565
 C         -5.0491452094       -1.8378365072        1.9997018098
 C         -4.1535609430       -2.0202890979        0.9259262664
 C         -4.0935041860       -3.2495823504        0.2369329164
 C         -3.2323021764       -3.4271797649       -0.8076866900
 C         -2.3896205725       -2.3784299774       -1.2006218608
 C         -2.4179926494       -1.1770809162       -0.5482554837
 C         -3.3023817816       -0.9518322981        0.5298015830
 C         -0.0250317447        1.4667066324        0.4001245868
 Ni         0.0230616146        2.3909867863       -1.4853108259
 C         -1.3203549360        1.8170718287       -2.5215267861
 O         -2.0859007691        1.5014160652       -3.3089752896
 C         -0.0711606832        4.1196133917       -1.0663107088
 O         -0.1396702916        5.2140789520       -0.7451913031
 C          1.5533937924        1.8900975313       -2.2849849648
 O          2.4727784806        1.5917311899       -2.8873518794
 H          0.7235246575       -1.7153411123       -2.7230219423
 H          0.7908083185       -0.9953467610       -1.1235302098
 H          0.8458549348       -2.7566483436       -1.3036612315
 H          2.9519467445       -0.7255048437       -2.1582909714
 H          2.7905310333       -3.7002401889       -2.7919443306
 H          4.2588772216       -2.7320244838       -2.9780006146
 H          2.8192284125       -2.3503234477       -3.9189704491
 H          3.6366655339       -4.1246975768       -0.7624972078
 H          2.2860128700       -3.6411054288        0.2677278536
 H          5.2499786524       -3.4471528377        0.9619749622
 H          4.1087259030       -4.6264073171        1.6107077371
 H          5.7701439138       -2.5784931626        3.2860560999
 H          4.6751209221       -3.7929744666        3.9469619896
 H          4.4495963853       -2.0905272295        4.3491909514
 H          4.9184679411       -0.9542036986        1.4994569937
 H          3.6129011990       -0.4940367323        2.5916808741
 H          2.5265208035        2.2115197635        0.2363988476
 H          2.9743100103        1.4261577675        1.7858530201
 H          1.2962836411        0.1747815269        3.0794615269
 H         -1.4511661365        0.2013600728        3.0318108195
 H         -3.8634672247        3.0531265873        1.2153346708
 H         -2.1838622531        3.5448957748        0.9906096053
 H         -2.6720470695        2.7852743657        2.5057717528
 H         -4.3515660336        1.3444558607        2.8086807951
 H         -5.7901713991       -0.4988055845        3.4787387544
 H         -5.6882762314       -2.6595652157        2.2888004392
 H         -4.7494197508       -4.0483237282        0.5531419306
 H         -3.1950904564       -4.3688631111       -1.3352644361
 H         -1.7125290377       -2.5223964695       -2.0285874855
 H         -1.7487068962       -0.3960405523       -0.8748927072
  70
       -106.38293378
 C          1.1633642306       -1.8763223071       -1.6885327743
 C          2.6810197136       -1.7971249081       -1.8255786127
 C          3.1625320052       -2.7728624644       -2.8991977074
 C          3.4375444278       -2.0031116232       -0.4983819565
 H          4.4914330152       -1.7876790618       -0.7082732091
 C          3.3466546784       -3.4188059569        0.0747067085
 C          4.2429324481       -3.5631327157        1.3014400957
 C          3.8694619905       -2.5503033110        2.3820437412
 H          2.8406824584       -2.7518804350        2.7056699002
 C          4.7934410387       -2.6710973908        3.5908323202
 C          3.9219423493       -1.1378922284        1.7994844952
 C          2.9870128267       -1.0177710758        0.5912963268
 H          1.9646134819       -1.2775381141        0.9060914472
 O          2.9845701392        0.2903171885        0.0207221034
 C          2.4324518175        1.3127140149        0.7817345874
 N          1.0379141153        1.1203523047        1.1249420841
 C          0.6285296858        0.5656863477        2.3105683553
 C         -0.7219068155        0.5804348415        2.3037014644
 N         -1.1037388064        1.1347688961        1.1137943686
 C         -2.4922080888        1.4397913498        0.8008043671
 H         -2.5582645122        1.5463213901       -0.2902163166
 C         -2.8325202733        2.8007416064        1.4089702999
 C         -3.3812659471        0.2952181733        1.2395231471
 C         -4.2584906346        0.4309755092        2.2854032186
 C         -5.0840688139       -0.6268404258        2.6927435036
 C         -5.0295750530       -1.8272488602        2.0477433302
 C         -4.1433150453       -2.0176257176        0.9675967675
 C         -4.0854376139       -3.2536662939        0.2905961159
 C         -3.2331646987       -3.4390370544       -0.7599772600
 C         -2.3979380536       -2.3914564184       -1.1714731711
 C         -2.4245212469       -1.1834736689       -0.5313807994
 C         -3.2994677648       -0.9504404942        0.5527978243
 C         -0.0311576763        1.4716705641        0.3685628898
 Ni         0.0020104962        2.3741043287       -1.5274361612
 C         -1.3794589263        1.8342327441       -2.5321771893
 O         -2.1710396775        1.5404149435       -3.3021498291
 C         -0.0379249915        4.1076324851       -1.1213685689
 O         -0.0755967568        5.2049603293       -0.8050082630
 C          1.5008867140        1.8180331627       -2.3495989112
 O          2.3999470199        1.4822289497       -2.9629728874
 H          0.8518573209       -2.8153141403       -1.2361016969
 H          0.7082519004       -1.8032395456       -2.6742881604
 H          0.7839212406       -1.0515458263       -1.0899031669
 H          2.9324933121       -0.7863656128       -2.1573780125
 H          2.7920458721       -3.7780800618       -2.7115480486
 H          4.2491791409       -2.8016585087       -2.9380947201
 H          2.7965836486       -2.4581054269       -3.8738557029
 H          3.6571880740       -4.1425159067       -0.6781416784
 H          2.3141617728       -3.6399966542        0.3529940486
 H          5.2839311170       -3.4065663421        1.0094645982
 H          4.1582694278       -4.5753945983        1.7027686387
 H          4.7442827939       -3.6738270655        4.0088356752
 H          4.5106394886       -1.9625740980        4.3666000217
 H          5.8229737575       -2.4703307188        3.3025612612
 H          4.9398315080       -0.9017251226        1.4821656479
 H          3.6426149709       -0.4211627044        2.5754964884
 H          2.5145801859        2.2115004309        0.1584509049
 H          2.9794701926        1.4703529969        1.7248180835
 H          1.3175973390        0.2218500393        3.0541788599
 H         -1.4302484776        0.2414740599        3.0311127875
 H         -2.1905976101        3.5536311087        0.9550868004
 H         -2.6629441123        2.8104728732        2.4835487617
 H         -3.8667294998        3.0596861966        1.2009755396
 H         -4.3348501356        1.3652224951        2.8185275387
 H         -5.7616292278       -0.4759119000        3.5200671201
 H         -5.6633572949       -2.6480756951        2.3508410023
 H         -4.7358388727       -4.0512499127        0.6208061415
 H         -3.1974854060       -4.3859190298       -1.2782692018
 H         -1.7278453713       -2.5418517603       -2.0039557641
 H         -1.7611716299       -0.4035370354       -0.8727729228
  70
       -106.38289927
 C          1.2738644151       -0.2941678111       -2.4709874689
 C          2.7854805741       -0.0866101738       -2.4529145688
 C          3.3304983582       -0.0793362136       -3.8809727938
 C          3.5432449163       -1.0948188542       -1.5668850554
 H          4.5850120103       -0.7558003436       -1.5366970961
 C          3.5266216770       -2.5354900222       -2.0815392667
 C          4.4212435030       -3.4252026916       -1.2229462431
 C          3.9853685441       -3.4013149266        0.2408060405
 H          2.9673957153       -3.8053741945        0.3060168981
 C          4.9070194043       -4.2601789530        1.1024485584
 C          3.9628573204       -1.9580659772        0.7444026158
 C          3.0312257626       -1.1000208887       -0.1181167723
 H          2.0228030555       -1.5410295625       -0.0990762971
 O          2.9601022250        0.2553557796        0.3228467407
 C          2.3448617737        0.4941000088        1.5451753822
 N          0.9568969043        0.0829732257        1.6088461525
 C          0.5598403685       -1.1454023344        2.0719292066
 C         -0.7895752044       -1.1654414868        2.0198527427
 N         -1.1827220040        0.0451721985        1.5208421308
 C         -2.5802792865        0.4441277468        1.4433457520
 H         -2.6369668349        1.2726782203        0.7253474972
 C         -2.9969880412        0.9987024419        2.8058038573
 C         -3.4150423274       -0.7096149501        0.9294654595
 C         -4.3046619503       -1.3665621556        1.7410292852
 C         -5.0781449819       -2.4359405928        1.2671426071
 C         -4.9584225314       -2.8482412888       -0.0273546999
 C         -4.0569432050       -2.2059531872       -0.9010277214
 C         -3.9321505636       -2.6219519127       -2.2429774569
 C         -3.0646043713       -1.9980631030       -3.0929747869
 C         -2.2810833544       -0.9326600985       -2.6289435845
 C         -2.3730515145       -0.5096276743       -1.3319154839
 C         -3.2656296183       -1.1239549904       -0.4254712771
 C         -0.1184394186        0.8302030086        1.2568981767
 Ni        -0.0922615785        2.7960143844        0.5201951812
 C         -0.0792831614        3.7561379429        2.0195769836
 O         -0.0751872866        4.3142590257        3.0167071166
 C          1.3770102094        2.9406288260       -0.5046332628
 O          2.2561691633        3.0915314431       -1.2128063824
 C         -1.5079665118        3.1382828490       -0.5245724842
 O         -2.3252904989        3.4956998929       -1.2389008451
 H          1.0119859348       -1.3025406536       -2.7841471401
 H          0.8235424822        0.4085701293       -3.1690417692
 H          0.8427626620       -0.1051195083       -1.4908892209
 H          2.9802664782        0.8967925454       -2.0169853151
 H          4.4171867541       -0.0323192708       -3.8813335807
 H          2.9532956733        0.7898754492       -4.4149126149
 H          3.0182813641       -0.9676831769       -4.4253096197
 H          3.8816034129       -2.5639607210       -3.1111891624
 H          2.5059758041       -2.9232522789       -2.0633037275
 H          5.4538980235       -3.0758985986       -1.2939087065
 H          4.3900595343       -4.4505774670       -1.5978089706
 H          4.9109940247       -5.2882444494        0.7479386324
 H          4.5806334275       -4.2571502665        2.1403585341
 H          5.9255706287       -3.8803030414        1.0627762963
 H          4.9681459181       -1.5331857572        0.7070476881
 H          3.6386805939       -1.9490914626        1.7879008120
 H          2.3891319533        1.5816942578        1.6813195495
 H          2.8691079501       -0.0012296718        2.3778267563
 H          1.2550117135       -1.8875908943        2.4064669217
 H         -1.4898907306       -1.9303393784        2.2849019808
 H         -2.3892552004        1.8754941893        3.0230356399
 H         -2.8401885808        0.2696371786        3.5978849538
 H         -4.0408277793        1.2987378264        2.7885037129
 H         -4.4317537495       -1.0673277106        2.7692871474
 H         -5.7693883296       -2.9228457782        1.9390379884
 H         -5.5525096768       -3.6680766092       -0.4045195872
 H         -4.5431563574       -3.4454656645       -2.5845949729
 H         -2.9781447603       -2.3164864797       -4.1213735912
 H         -1.6007493256       -0.4398025726       -3.3063026215
 H         -1.7490520094        0.3108094137       -1.0111543227
  70
       -106.38289750
 C          6.2152253502        0.9818956031       -1.8653186103
 C          5.8831659252        1.7744592100       -0.6024983428
 C          7.1537241342        2.4173973997       -0.0481629213
 C          5.1666125935        0.9416069311        0.4807374809
 H          5.1472768810        1.5515337263        1.3909810015
 C          5.8615276820       -0.3830979598        0.7972938629
 C          5.1603042437       -1.1122498622        1.9381438689
 C          3.7106862377       -1.4072326529        1.5626862529
 H          3.7062021791       -2.0390817486        0.6676416931
 C          2.9799116993       -2.1464958958        2.6795082730
 C          2.9936042404       -0.0998485876        1.2321189770
 C          3.6996343565        0.6705747605        0.1126961832
 H          3.6490973645        0.0797706684       -0.8143318948
 O          3.0849451946        1.9401360609       -0.1231877085
 C          1.8819880392        1.9312727972       -0.8099286883
 N          0.7460106347        1.7438870686        0.0739759050
 C          0.5453458152        2.5579228949        1.1544893419
 C         -0.5214560787        2.0600702924        1.8148795766
 N         -0.9442786463        0.9554463866        1.1249407781
 C         -2.0382952518        0.1322699950        1.6102535848
 H         -2.2879159339        0.5323606467        2.6023576786
 C         -1.5364231147       -1.3091045542        1.7770155668
 C         -3.2897589281        0.2244824013        0.7542301949
 C         -3.2913105800        0.8831273589       -0.4488569178
 C         -4.4242625264        0.9018685303       -1.2749434639
 C         -5.5621538623        0.2557608183       -0.8931684012
 C         -5.6321746915       -0.3759087113        0.3656196313
 C         -6.8243898432       -0.9963818600        0.7936169251
 C         -6.9188663149       -1.5634908173        2.0319858821
 C         -5.8222685014       -1.5109412227        2.9027538645
 C         -4.6467176575       -0.9326930722        2.5103323049
 C         -4.4967543340       -0.3701910359        1.2222705523
 C         -0.1684848451        0.7457076183        0.0346941968
 Ni        -0.3229276220       -0.6191751638       -1.6018186874
 C         -1.8942735671       -1.5081420757       -1.5685413422
 O         -2.8499380099       -2.1130461762       -1.7109344132
 C         -0.3687108426        0.4384223666       -3.0459916881
 O         -0.4897718670        1.0982991255       -3.9699181549
 C          1.0889974652       -1.7081948059       -1.4485976821
 O          1.9854805656       -2.4109325004       -1.3585707774
 H          6.5800260229        1.6572157008       -2.6363697980
 H          5.3380932654        0.4717745320       -2.2549411664
 H          6.9903143740        0.2447278760       -1.6708362462
 H          5.1928979763        2.5790910938       -0.8757914503
 H          7.8887127106        1.6622050100        0.2203531436
 H          6.9320034304        3.0129113217        0.8344711849
 H          7.5993959275        3.0691273388       -0.7962557172
 H          6.9010259936       -0.1942373775        1.0677093409
 H          5.8503399933       -1.0227933785       -0.0864033997
 H          5.1841618968       -0.4968975791        2.8407781680
 H          5.6833263300       -2.0459755467        2.1556089392
 H          1.9580433409       -2.3719509081        2.3815672319
 H          2.9508504371       -1.5404262109        3.5831262178
 H          3.4834758046       -3.0822987511        2.9103585552
 H          2.9536720959        0.5364852050        2.1203100116
 H          1.9687284011       -0.3268485560        0.9294478962
 H          1.8446382743        1.1406220647       -1.5768007175
 H          1.7910718425        2.9157575979       -1.2881915774
 H          1.1823438243        3.3935094058        1.3556145146
 H         -1.0064760436        2.3988496703        2.7073884357
 H         -2.3542402127       -1.9881471740        1.9922404303
 H         -0.8078208226       -1.3563128843        2.5845936607
 H         -1.0536983037       -1.6359335285        0.8569101552
 H         -2.4084064544        1.4005635980       -0.7946310956
 H         -4.3720764549        1.4167404891       -2.2227283645
 H         -6.4302562932        0.2328456267       -1.5357112528
 H         -7.6688180158       -1.0039436978        0.1192651097
 H         -7.8348926970       -2.0366287903        2.3532307852
 H         -5.9117172920       -1.9291092747        3.8949247187
 H         -3.8326430053       -0.8898401694        3.2169028187
  70
       -106.38287064
 C          2.1169635446        1.8465489060       -1.9193577997
 C          3.5062002808        1.2158372718       -2.0110766251
 C          3.4227686143       -0.0828285672       -2.8101646886
 C          4.1450317080        1.0526823660       -0.6162101428
 H          3.9794029529        1.9929948859       -0.0767570320
 C          5.6620806920        0.8500167748       -0.7052657866
 C          6.1940274636        0.3912862382        0.6465838385
 C          5.7506337697       -1.0464094924        0.9376420813
 H          6.4500335638       -1.7348595113        0.4492840099
 C          5.7856983020       -1.3198732503        2.4389447349
 C          4.3522278211       -1.3039617336        0.3514522296
 C          3.4959491920       -0.0399033872        0.2558772932
 H          2.5197196526       -0.3119259758       -0.1658148571
 O          3.2727887672        0.5083718029        1.5678544284
 C          2.0591436930        0.1859983069        2.1509063113
 N          0.9813205034        0.9894598188        1.6073521026
 C          0.8751603360        2.3264765165        1.8793374031
 C         -0.1589321276        2.7934812933        1.1459095889
 N         -0.6508561244        1.7338204652        0.4351499062
 C         -1.7823640528        1.7772688335       -0.4732775661
 H         -1.5060120498        1.1284350986       -1.3123409529
 C         -2.0424386022        3.1864847458       -1.0021143243
 C         -3.0293219549        1.2225867564        0.1903185075
 C         -3.2248788391        1.4199197542        1.5339939523
 C         -4.3561447234        0.9188155462        2.1901259811
 C         -5.2957008353        0.2185629480        1.4912768994
 C         -5.1475427154        0.0069031336        0.1053304384
 C         -6.1169644226       -0.7153455166       -0.6215453221
 C         -5.9789462107       -0.9237263376       -1.9636667268
 C         -4.8622188728       -0.4083442545       -2.6359637578
 C         -3.9050799726        0.2959984002       -1.9602287623
 C         -4.0056454561        0.5215226932       -0.5692897814
 C          0.0453258273        0.6062479324        0.7086014508
 Ni        -0.3952515476       -1.3105478665       -0.0699132014
 C          0.8133068009       -2.5489732341        0.4030828671
 O          1.5015942434       -3.4396472165        0.6019613111
 C         -1.9814549320       -1.6801461628        0.6778783045
 O         -2.9526644411       -1.9768854443        1.1959596820
 C         -0.4393191166       -1.1664726534       -1.8493734641
 O         -0.4662386192       -1.1586747363       -2.9917279474
 H          1.7434510045        2.0783204462       -2.9147279784
 H          2.1444281557        2.7668925747       -1.3385008613
 H          1.4150342783        1.1599546045       -1.4495491954
 H          4.1530014442        1.9097124073       -2.5624575347
 H          2.7443810046       -0.7899143145       -2.3380755717
 H          4.3980862028       -0.5509932590       -2.9114925352
 H          3.0458361537        0.1251963672       -3.8093983197
 H          6.1315744946        1.7906655363       -1.0001859673
 H          5.9102505346        0.1056850519       -1.4629956498
 H          5.7972892709        1.0521859149        1.4190232592
 H          7.2834764777        0.4538819255        0.6717144147
 H          5.5439569217       -2.3601964226        2.6476073585
 H          5.0658832681       -0.6846844911        2.9487742306
 H          6.7765657667       -1.1119581528        2.8378376170
 H          3.8324084467       -2.0411551876        0.9666093469
 H          4.4351082146       -1.7188489147       -0.6529837913
 H          2.1555271272        0.4126674428        3.2192807530
 H          1.7893077771       -0.8719344977        2.0206512185
 H          1.5410486570        2.8214011511        2.5552468047
 H         -0.5643024512        3.7809269443        1.0846252651
 H         -2.4361110275        3.8321480287       -0.2202027460
 H         -2.7853660580        3.1343714548       -1.7938394860
 H         -1.1303542653        3.6193603151       -1.4082534397
 H         -2.4896845871        1.9592817351        2.1151112494
 H         -4.4677541017        1.0853814664        3.2513523251
 H         -6.1660101310       -0.1857676614        1.9874684149
 H         -6.9733214342       -1.1042077416       -0.0891375489
 H         -6.7222059393       -1.4822143006       -2.5132435836
 H         -4.7596756352       -0.5733465097       -3.6986132504
 H         -3.0622939048        0.6818994264       -2.5126670614
  70
       -106.38281159
 C          6.6875698398        1.2818158989       -0.3580155181
 C          5.5574564067        0.6908805043        0.4821681491
 C          6.1202908990       -0.3360815285        1.4636171303
 C          4.4178785914        0.0806737029       -0.3589956327
 H          3.7937979779       -0.5060610190        0.3251515818
 C          4.8965579782       -0.8580909814       -1.4681129179
 C          3.7140009446       -1.5114551966       -2.1757362823
 C          2.7953282751       -0.4581410458       -2.7935250449
 H          3.3591794779        0.0971580823       -3.5523370894
 C          1.5873238400       -1.1125699116       -3.4576139189
 C          2.3392374316        0.5214363677       -1.7124440859
 C          3.5311876881        1.1626519889       -1.0003826914
 H          4.1253979401        1.7212553201       -1.7326007530
 O          3.1428598505        2.1891929148       -0.0823681843
 C          2.2305418829        1.8692725785        0.9145078542
 N          0.8596430606        2.0564421843        0.4693743077
 C          0.4911790372        3.1602085873       -0.2482908263
 C         -0.8337496899        3.0404981911       -0.4773759206
 N         -1.2425358675        1.8745923189        0.1122344154
 C         -2.6420883545        1.4849539249        0.1180861855
 H         -3.1778003541        2.3164841228       -0.3597276811
 C         -3.1185525244        1.3712204122        1.5738791278
 C         -2.9321501500        0.2359148742       -0.6966150010
 C         -1.9267858373       -0.5268983727       -1.2337936191
 C         -2.1968792890       -1.7201017290       -1.9190107750
 C         -3.4810851922       -2.1529479732       -2.0646665477
 C         -4.5527754813       -1.3679959869       -1.5922099710
 C         -5.8873616885       -1.7789428118       -1.7909493636
 C         -6.9327181769       -0.9991065413       -1.3872182043
 C         -6.6789026713        0.2408373350       -0.7858226698
 C         -5.3960039859        0.6585891363       -0.5623008381
 C         -4.2874355186       -0.1387088680       -0.9278429256
 C         -0.1968898754        1.2436105423        0.7007952063
 Ni        -0.0546464299       -0.6110857602        1.7528875883
 C          1.1886263164       -1.6855211256        1.0396590295
 O          1.8284103821       -2.5597571002        0.6728543975
 C          0.3020250574       -0.0225958635        3.4023264333
 O          0.5426894598        0.4373370373        4.4192173820
 C         -1.5721258249       -1.5675110399        1.5650385419
 O         -2.4439610209       -2.2979502595        1.4880806629
 H          7.2324569548        0.5021769918       -0.8842883131
 H          7.3888051997        1.8038697150        0.2894015671
 H          6.3037912244        1.9955039299       -1.0821718090
 H          5.1155933742        1.5069550051        1.0653481393
 H          6.5921163606       -1.1609746482        0.9349052685
 H          5.3336908421       -0.7394124351        2.0979616773
 H          6.8685670066        0.1269598490        2.1027914951
 H          5.5367277664       -1.6317397276       -1.0424437305
 H          5.4805263532       -0.2962714271       -2.1990158476
 H          3.1463808845       -2.1115528331       -1.4619809458
 H          4.0783588185       -2.1826410837       -2.9564436973
 H          0.9274822759       -0.3623651322       -3.8884218028
 H          1.0230513084       -1.6856877903       -2.7248710620
 H          1.9048314974       -1.7876860261       -4.2488895686
 H          1.7279345252       -0.0191580600       -0.9845026103
 H          1.7214508688        1.3056915220       -2.1589535400
 H          2.4232730689        2.5712854561        1.7380437058
 H          2.3264977817        0.8418257581        1.2913269134
 H          1.2018807202        3.9081752977       -0.5310837813
 H         -1.5079602484        3.6850111649       -1.0033797136
 H         -3.1633040174        2.3590857616        2.0287272445
 H         -2.4150358130        0.7646146281        2.1419243572
 H         -4.0959103179        0.9047837941        1.6337802225
 H         -0.8946789444       -0.2264518935       -1.1324556584
 H         -1.3735710812       -2.2987995642       -2.3106175015
 H         -3.6993586327       -3.0886206951       -2.5584977774
 H         -6.0643645672       -2.7254421179       -2.2815764612
 H         -7.9521295950       -1.3198499206       -1.5423932422
 H         -7.5079667585        0.8722224665       -0.5008043163
 H         -5.2408158457        1.6298481016       -0.1192648313
  70
       -106.38278507
 C          2.8048639722        3.6535272822        1.3228179170
 C          3.2219283150        2.4912952396        2.2185874704
 C          4.7377747952        2.5374997547        2.4069070224
 C          2.6986039176        1.1219733412        1.7178525815
 H          1.6685635095        1.2544711614        1.3671337366
 C          2.6734625024        0.1542303185        2.9100991032
 C          2.2124017718       -1.2484739401        2.5407999294
 C          3.1299356549       -1.8251717413        1.4683565870
 H          4.1580914428       -1.8341675063        1.8497923528
 C          2.7348424132       -3.2497094441        1.0935934535
 C          3.0536696173       -0.9137086209        0.2477001315
 C          3.5096403003        0.5088779211        0.5588721807
 H          4.5643650631        0.4715809018        0.8560135610
 O          3.5319071200        1.3620159752       -0.6041156664
 C          2.6793249416        1.1446193610       -1.6808188588
 N          1.3304303579        1.6456916702       -1.4832558698
 C          1.0785503278        2.9847469781       -1.3567231493
 C         -0.2451141663        3.1158618058       -1.1218336483
 N         -0.7749851219        1.8553543681       -1.1333305967
 C         -2.1606230152        1.5195540129       -0.8526220507
 H         -2.4657033079        0.8193423113       -1.6388964345
 C         -3.0777937791        2.7397669944       -0.8946238168
 C         -2.2714183707        0.8293374069        0.4954528219
 C         -1.4060682856        1.1722536250        1.5037376567
 C         -1.4567361295        0.5494767091        2.7568464285
 C         -2.3919377610       -0.4133690190        3.0017569712
 C         -3.3235492029       -0.7764780024        2.0077364116
 C         -4.2986204442       -1.7641910537        2.2590877322
 C         -5.2007386985       -2.1224805236        1.2991137828
 C         -5.1645704820       -1.5002023972        0.0435967613
 C         -4.2315410315       -0.5397907579       -0.2318503689
 C         -3.2768338436       -0.1473243400        0.7324920934
 C          0.1857065146        0.9302915164       -1.3704891772
 Ni        -0.2235732928       -1.1133113807       -1.7487275013
 C         -1.5572239269       -1.1350156069       -2.9486251642
 O         -2.3779593887       -1.2733169557       -3.7309098983
 C          1.1791330531       -1.9633629462       -2.4846689839
 O          1.9659280991       -2.6235655747       -2.9846265425
 C         -0.7029096252       -1.8068622503       -0.1749652146
 O         -0.9881881266       -2.3013018718        0.8135858369
 H          3.2911856342        3.5645205577        0.3566913044
 H          3.1040958992        4.5974347090        1.7746745588
 H          1.7261391908        3.6711250160        1.1815968996
 H          2.7573621863        2.6508864873        3.2003154482
 H          5.0963604929        1.7000893794        2.9997250635
 H          5.0118732406        3.4552269171        2.9233443275
 H          5.2408403567        2.5294588607        1.4435788141
 H          2.0136680482        0.5644156549        3.6780422998
 H          3.6755838615        0.0887740818        3.3389279252
 H          1.1872703616       -1.2173861136        2.1650646000
 H          2.2242359025       -1.8826458596        3.4297515662
 H          1.7255972111       -3.2695484861        0.6879144954
 H          2.7662743389       -3.8971553162        1.9668573939
 H          3.4119078132       -3.6513399230        0.3428665094
 H          2.0110213041       -0.9012093450       -0.0877841526
 H          3.6777710322       -1.3187207215       -0.5535388930
 H          2.6010114144        0.0923742545       -1.9758518348
 H          3.1292647463        1.7136061293       -2.5052919960
 H          1.8494375874        3.7196868197       -1.4506936955
 H         -0.8247187431        3.9990847124       -0.9589809353
 H         -2.9823498108        3.2665465953       -1.8420565739
 H         -2.8596634581        3.4202823620       -0.0742266383
 H         -4.1073665292        2.4082289765       -0.7857639982
 H         -0.6554368223        1.9326278925        1.3376276298
 H         -0.7452629109        0.8351394546        3.5173961234
 H         -2.4340923389       -0.9119902721        3.9591748373
 H         -4.3133299568       -2.2351551257        3.2316686093
 H         -5.9420561421       -2.8825841929        1.4967150700
 H         -5.8814248517       -1.7872485862       -0.7118697957
 H         -4.2354310825       -0.0808990382       -1.2086019688
  70
       -106.38276402
 C          0.9576000394       -1.6397954314        2.6521603006
 C          1.5206581051       -0.2777825721        3.0473318119
 C          0.6032703919        0.8277937006        2.5286063995
 C          2.9958638126       -0.1213957742        2.6138765505
 H          3.4762674370       -1.0967292910        2.7415448953
 C          3.7095020861        0.8916707629        3.5169664784
 C          5.1970181360        0.9947023558        3.2017773890
 C          5.4113964517        1.3974436893        1.7455092841
 H          4.9576734496        2.3833774348        1.5858678232
 C          6.8969151833        1.4837721691        1.4076340017
 C          4.7085512529        0.3853199165        0.8441485506
 C          3.2075896416        0.2920999501        1.1493807768
 H          2.7440238337        1.2745161049        0.9909821760
 O          2.5911997019       -0.6812433526        0.3038688386
 C          2.3687745949       -0.3326175812       -1.0221866896
 N          1.1754049787        0.4712858902       -1.2026096338
 C          1.1375526868        1.8265166554       -0.9988451773
 C         -0.1514187883        2.2057800072       -1.1363004486
 N         -0.8660537839        1.0770288940       -1.4274955429
 C         -2.3014412794        1.1129897679       -1.6579500814
 H         -2.6399443391        0.0719409898       -1.7139100192
 C         -2.5749608060        1.7522490453       -3.0183350709
 C         -2.9655051406        1.7827272460       -0.4715579921
 C         -3.4629655245        3.0577396905       -0.5589802086
 C         -4.0545612992        3.6912461114        0.5431636452
 C         -4.1459992791        3.0414070224        1.7386943458
 C         -3.6538574177        1.7272985697        1.8778519684
 C         -3.7618519382        1.0442392180        3.1073608971
 C         -3.3067874558       -0.2362074107        3.2418398368
 C         -2.7118392282       -0.8796062443        2.1480316122
 C         -2.5742463596       -0.2385888116        0.9482275246
 C         -3.0481157371        1.0798269333        0.7653415151
 C         -0.0640891824       -0.0044222782       -1.4817127520
 Ni        -0.5024197452       -1.9592409534       -2.1424995177
 C          0.0336766033       -3.0768743541       -0.8480984971
 O          0.3109884983       -3.8447546495       -0.0533211410
 C         -2.2482159267       -2.2320344481       -2.4674130837
 O         -3.2992818188       -2.5845286579       -2.7438856942
 C          0.4157214799       -2.0315135232       -3.6715052554
 O          0.9748523151       -2.0227461021       -4.6672773324
 H          0.9387953702       -1.7389917248        1.5721575536
 H         -0.0551896356       -1.7458383342        3.0333109225
 H          1.5660303914       -2.4425290697        3.0622213345
 H          1.5177653148       -0.2241447762        4.1434605535
 H          0.4301426516        0.7124587240        1.4626706921
 H          1.0187178722        1.8155013159        2.7168005371
 H         -0.3632787459        0.7687375808        3.0246247181
 H          3.5812004035        0.5913415721        4.5586136937
 H          3.2469734042        1.8742431525        3.3967793116
 H          5.6757131155        0.0296390267        3.3813375115
 H          5.6635837064        1.7279599242        3.8630064163
 H          7.3746440896        0.5171870429        1.5511726141
 H          7.3916115439        2.2092901429        2.0492007946
 H          7.0406971547        1.7867047861        0.3727704163
 H          5.1487909474       -0.6039852276        0.9849868295
 H          4.8587825835        0.6672599789       -0.2012000226
 H          2.2168561890       -1.2780139536       -1.5588783560
 H          3.2148883880        0.2141167797       -1.4629792782
 H          2.0152932940        2.4070346562       -0.8021625659
 H         -0.6107055645        3.1675110047       -1.0393062500
 H         -3.6452798604        1.8173491016       -3.1928983500
 H         -2.1346070734        1.1267444192       -3.7926716553
 H         -2.1363517824        2.7444065385       -3.0943766766
 H         -3.4142552577        3.6014559919       -1.4895918354
 H         -4.4349479555        4.6958669199        0.4310457166
 H         -4.6005259398        3.5191823609        2.5946310273
 H         -4.2215625272        1.5563399682        3.9409024724
 H         -3.4009243468       -0.7571367810        4.1834561302
 H         -2.3591831932       -1.8946743475        2.2542501132
 H         -2.0901402603       -0.7676589091        0.1399922724
  70
       -106.38275234
 C          1.6966570991        1.4800508139       -2.1196810265
 C          2.7282777381        2.2858696804       -1.3331814581
 C          3.3151325177        3.3806096729       -2.2229790854
 C          3.8428937650        1.4225077296       -0.7092914775
 H          4.6164556095        2.1107876496       -0.3508310036
 C          4.4802404701        0.4339126697       -1.6876505817
 C          5.6353482302       -0.3205969654       -1.0364481342
 C          5.1569053782       -1.0861669888        0.1961929303
 H          4.3957463937       -1.8113076547       -0.1166520289
 C          6.3031919384       -1.8404243014        0.8622940166
 C          4.5130249666       -0.1038689997        1.1719018802
 C          3.3488768708        0.6381907564        0.5136392454
 H          2.5923055934       -0.0926678720        0.1935717789
 O          2.7554045215        1.5422644656        1.4556261885
 C          1.6668057892        1.0358525026        2.1495627263
 N          0.4630093903        1.0344179420        1.3420889451
 C         -0.1913764414        2.1943607874        1.0249565868
 C         -1.2195984755        1.8553610790        0.2182873807
 N         -1.1664318991        0.4977705586        0.0580554213
 C         -2.1138572624       -0.2645062612       -0.7434542920
 H         -1.9682424135       -1.3096522870       -0.4343962907
 C         -1.7502168796       -0.2010382654       -2.2319045996
 C         -3.5375068238        0.0960267347       -0.3470765617
 C         -4.0828752332       -0.6911654741        0.6407274001
 C         -5.3773403820       -0.4929262983        1.1321102840
 C         -6.1458926810        0.5113331442        0.6216764528
 C         -5.6360167194        1.3561949948       -0.3838703794
 C         -6.4344713918        2.4019389176       -0.8946401807
 C         -5.9635964080        3.2485918944       -1.8555076371
 C         -4.6615620383        3.0765257322       -2.3425553072
 C         -3.8653982926        2.0692956934       -1.8721248068
 C         -4.3130566179        1.1649929530       -0.8809601784
 C         -0.1289881983       -0.0283107343        0.7466439644
 Ni         0.4360290931       -2.0719960243        0.7825888977
 C          1.7736121795       -2.4331048197        1.9235110385
 O          2.5926369295       -2.8532957957        2.5997258615
 C         -0.9868816870       -2.9832250805        1.3807961359
 O         -1.8238128617       -3.6061892678        1.8441904799
 C          0.9991549341       -2.3423469701       -0.8882581098
 O          1.4603486009       -2.4652698525       -1.9266923778
 H          2.1254574991        1.0911495378       -3.0399016967
 H          0.8576082723        2.1219197238       -2.3838466243
 H          1.3162432508        0.6452893002       -1.5361422543
 H          2.2154326607        2.7761637516       -0.4982646064
 H          2.5223839552        4.0253574945       -2.5967366222
 H          3.8320370337        2.9517049843       -3.0781785183
 H          4.0196240337        3.9938242566       -1.6659566300
 H          4.8442286846        0.9684651691       -2.5661321355
 H          3.7310436835       -0.2884530909       -2.0158225508
 H          6.4154010304        0.3850329721       -0.7408039748
 H          6.0698527394       -1.0167103541       -1.7571251701
 H          7.0728383137       -1.1466392647        1.1942749196
 H          6.7522904560       -2.5444334984        0.1654065719
 H          5.9443192526       -2.3947815064        1.7263826337
 H          5.2506606211        0.6302571464        1.5033452298
 H          4.1543689837       -0.6341869875        2.0567693292
 H          1.5100030482        1.7020003336        3.0055847215
 H          1.8330610690        0.0088376390        2.5053184083
 H          0.1301917155        3.1449960726        1.3966057813
 H         -1.9800485136        2.4622710411       -0.2257755265
 H         -0.9878878802       -0.9469003204       -2.4457603566
 H         -1.3400202275        0.7649269045       -2.5131672086
 H         -2.6224573395       -0.4169878832       -2.8424677316
 H         -3.4972331155       -1.4970247353        1.0585228027
 H         -5.7551302302       -1.1427167322        1.9068108440
 H         -7.1513838239        0.6785191084        0.9794401248
 H         -7.4341168709        2.5187870188       -0.5011532915
 H         -6.5804490133        4.0467538855       -2.2404088000
 H         -4.2839541776        3.7488343605       -3.0993220047
 H         -2.8742638504        1.9775238672       -2.2782949722
  70
       -106.38274244
 C          2.5658959807        2.2814448525       -1.1516324660
 C          3.1254751152        2.5225200307        0.2477594919
 C          3.8522231333        3.8660084014        0.2939879246
 C          4.0326289859        1.3885208849        0.7669176459
 H          4.4505863859        1.7454167324        1.7151761053
 C          5.1948293222        1.0034007013       -0.1658125913
 C          4.9153444191       -0.2726718452       -0.9556312877
 C          4.7276859228       -1.4894663613       -0.0336660609
 H          4.0095475989       -2.1686592704       -0.5077137000
 C          6.0359426483       -2.2488974848        0.1687846873
 C          4.1563888331       -1.0489470657        1.3198742981
 C          3.2176229721        0.1404328407        1.1308910672
 H          2.4989980381       -0.1006014996        0.3369295739
 O          2.4926591819        0.4296976368        2.3329794653
 C          1.2522101706       -0.1835440221        2.4276183473
 N          0.2723059297        0.4491028900        1.5675452135
 C         -0.1957750329        1.7115767068        1.8192382206
 C         -1.0349545827        2.0240581288        0.8086842653
 N         -1.0575712756        0.9467353176       -0.0322934835
 C         -1.8602309554        0.9216181126       -1.2457928779
 H         -1.9470795523       -0.1321647943       -1.5476740746
 C         -1.1042045746        1.6558221936       -2.3527372799
 C         -3.2446011627        1.4645105298       -0.9469449474
 C         -3.6980369470        2.6215824832       -1.5278652889
 C         -4.9763448489        3.1297439160       -1.2555448535
 C         -5.8052851385        2.4763303380       -0.3923565829
 C         -5.3858357960        1.2845707940        0.2336918457
 C         -6.2377354629        0.6017824700        1.1268546659
 C         -5.8383168896       -0.5531546573        1.7358453553
 C         -4.5630053050       -1.0708578858        1.4723912108
 C         -3.7137864209       -0.4318981111        0.6122304138
 C         -4.0906077304        0.7637500827       -0.0384933711
 C         -0.2468949451       -0.0365057578        0.4141578489
 Ni         0.1494701385       -1.8731410608       -0.5806285261
 C          1.0977216337       -3.0038758457        0.4381251283
 O          1.6789477400       -3.8413524075        0.9534269648
 C         -1.4099696432       -2.6857631224       -0.9466129694
 O         -2.3204769957       -3.3290083884       -1.1895840291
 C          1.0983312298       -1.3796902552       -2.0067702630
 O          1.7667783612       -1.0901992203       -2.8871079697
 H          1.8909720749        3.0916354530       -1.4218655916
 H          2.0055423545        1.3508658621       -1.1967639329
 H          3.3606049873        2.2444233436       -1.8920451548
 H          2.2804343618        2.5802921334        0.9445647857
 H          4.2145827190        4.0718612135        1.2985129050
 H          3.1785202181        4.6688487640        0.0019447356
 H          4.7017699967        3.8751656533       -0.3846716302
 H          6.0993825199        0.8538110668        0.4260390406
 H          5.4005480552        1.8191117317       -0.8589193662
 H          5.7441600602       -0.4624590758       -1.6405928814
 H          4.0218211452       -0.1302730654       -1.5628850965
 H          5.8907846914       -3.0772205230        0.8588669296
 H          6.7996945681       -1.5909993885        0.5779662736
 H          6.3963114595       -2.6499691476       -0.7759805390
 H          4.9594677962       -0.7533469591        1.9972335283
 H          3.6220556074       -1.8769187371        1.7892933692
 H          0.9314053133       -0.0693469411        3.4692327542
 H          1.2870086535       -1.2505527555        2.1650907090
 H          0.1094674719        2.2641658964        2.6833812247
 H         -1.6187480127        2.9027579134        0.6279625459
 H         -0.8894268895        2.6841233276       -2.0707476829
 H         -1.6773278217        1.6427802433       -3.2753853948
 H         -0.1592682928        1.1477858308       -2.5313100092
 H         -3.0760594043        3.1701001421       -2.2167764399
 H         -5.2918923052        4.0429004683       -1.7381278990
 H         -6.7923338991        2.8581871437       -0.1753923587
 H         -7.2182475836        1.0145431162        1.3174905504
 H         -6.4963065420       -1.0720015852        2.4170938945
 H         -4.2499886814       -1.9855878575        1.9539067861
 H         -2.7396599146       -0.8614269812        0.4380379925
  70
       -106.38273634
 C          5.4435422438       -1.6982122898       -0.7332973318
 C          4.0520464770       -1.4681514151       -0.1447057818
 C          3.4366957130       -2.8031564866        0.2721631427
 C          3.0972954340       -0.6966716730       -1.0844574284
 H          2.0725584114       -0.8540427226       -0.7256218981
 C          3.1531696993       -1.1979537538       -2.5314707112
 C          2.1834443673       -0.4438168510       -3.4362595094
 C          2.5216132304        1.0452745264       -3.4253606451
 H          3.5639612944        1.1659913954       -3.7434137946
 C          1.6389591661        1.8533388454       -4.3709156515
 C          2.3863114049        1.5454531717       -1.9895926840
 C          3.3690509280        0.8151792035       -1.0685960210
 H          4.3868593338        1.0009212789       -1.4329369971
 O          3.4111108288        1.4148994404        0.2335283491
 C          2.4272591809        1.1197874798        1.1662135070
 N          1.1505868433        1.7647783242        0.9149278110
 C          1.0580458754        3.0713920153        0.5246152092
 C         -0.2580363390        3.3379305923        0.3946943550
 N         -0.9362633326        2.1906919008        0.7201503192
 C         -2.3944273044        2.2169332884        0.7881396645
 H         -2.7160659731        2.9384637395        0.0211164409
 C         -2.7715564288        2.7887637614        2.1573212766
 C         -3.0546163804        0.8930256517        0.4522116948
 C         -3.9817140126        0.3339302712        1.2971694883
 C         -4.6294120067       -0.8710125012        0.9905359904
 C         -4.3515048124       -1.5219544351       -0.1739808183
 C         -3.4438489981       -0.9666413741       -1.0981500821
 C         -3.1817429830       -1.6182133654       -2.3209559338
 C         -2.3379801849       -1.0694985925       -3.2425462208
 C         -1.7331799894        0.1655981861       -2.9763768221
 C         -1.9476849380        0.8121466700       -1.7907204123
 C         -2.7961736595        0.2657236137       -0.8016815193
 C         -0.0763667807        1.2048489344        1.0600837687
 Ni        -0.3960751787       -0.7759357753        1.7179661236
 C         -0.4894450094       -1.6554262484        0.1711844073
 O         -0.4985125125       -2.1799961934       -0.8436641594
 C          0.9139770480       -1.2890762916        2.8418540479
 O          1.6117956895       -1.6976110331        3.6493713451
 C         -1.8324301115       -0.8781545329        2.7881169601
 O         -2.5934937078       -1.1065187400        3.6081834794
 H          5.4121662364       -2.4138951211       -1.5507157934
 H          6.1003276855       -2.0976515551        0.0365569585
 H          5.8754541390       -0.7676341895       -1.0931530681
 H          4.1864770914       -0.8611316216        0.7573873610
 H          3.3094961903       -3.4563147887       -0.5880135069
 H          2.4613376102       -2.6558919657        0.7345731011
 H          4.0797926623       -3.3078302736        0.9895812518
 H          2.9136286188       -2.2620048065       -2.5479026447
 H          4.1621516451       -1.0697350781       -2.9260866431
 H          1.1587630536       -0.5904716254       -3.0869716717
 H          2.2524832243       -0.8381864868       -4.4524170129
 H          0.6041471550        1.8352939672       -4.0384827197
 H          1.6862061572        1.4472486547       -5.3788382433
 H          1.9653554954        2.8906980211       -4.4031918212
 H          1.3630181949        1.3662476124       -1.6515955576
 H          2.5838740659        2.6185680168       -1.9401634832
 H          2.8257115320        1.4943539016        2.1197658126
 H          2.2248312793        0.0450791720        1.2585555013
 H          1.9279138188        3.6742901010        0.3682139028
 H         -0.7596221071        4.2364223016        0.0973095913
 H         -2.2534384980        3.7344951208        2.3082605972
 H         -2.4688860463        2.1053670175        2.9473463455
 H         -3.8400270291        2.9731769282        2.2195722517
 H         -4.2292466838        0.8063150289        2.2335803394
 H         -5.3384557681       -1.2787851527        1.6957097686
 H         -4.8280977702       -2.4615921907       -0.4132477993
 H         -3.6685695527       -2.5636440505       -2.5134197468
 H         -2.1377623911       -1.5715511990       -4.1774273414
 H         -1.0930161337        0.6060514137       -3.7264635091
 H         -1.4650564072        1.7633149794       -1.6236685196
  70
       -106.38270565
 C          4.3839037731        1.0476518708       -2.3806319960
 C          5.0810573304        1.4327412914       -1.0771303825
 C          6.5664272818        1.6753968274       -1.3426392977
 C          4.8841534796        0.4126522150        0.0630426341
 H          5.5548714240        0.7122895561        0.8764243066
 C          5.2057934806       -1.0298546396       -0.3303558946
 C          5.0869959238       -1.9639862268        0.8697300628
 C          3.6745720231       -1.9220069974        1.4498630286
 H          2.9706831577       -2.2532926736        0.6775958357
 C          3.5443154714       -2.8467508071        2.6565465111
 C          3.3287190420       -0.4839570754        1.8310601985
 C          3.4571562414        0.4546570737        0.6295234514
 H          2.7481618648        0.1343561254       -0.1438785987
 O          3.1314957245        1.7930991286        1.0270437746
 C          1.9302748595        2.2773572894        0.5346588014
 N          0.7895256350        1.6239648834        1.1447168162
 C          0.5200482157        1.7745949969        2.4783129316
 C         -0.5181232030        0.9582521415        2.7532070794
 N         -0.8533789146        0.3237035954        1.5866226662
 C         -1.9297464348       -0.6517164397        1.5552627139
 H         -2.1769996389       -0.8436657242        2.6083064384
 C         -1.4223738707       -1.9574313345        0.9319018655
 C         -3.1874621475       -0.1289837786        0.8817337218
 C         -3.1890130504        1.0499555633        0.1810240061
 C         -4.3312898722        1.5012748265       -0.4956451609
 C         -5.4784188063        0.7655364641       -0.4708612904
 C         -5.5446785246       -0.4226298874        0.2857470339
 C         -6.7430947462       -1.1629666689        0.3578792892
 C         -6.8316610134       -2.2881201094        1.1261842626
 C         -5.7215645784       -2.7058156510        1.8722652869
 C         -4.5407398426       -2.0186822280        1.8106505891
 C         -4.3983431705       -0.8702808818        0.9990244428
 C         -0.0518514844        0.7284993198        0.5712173513
 Ni        -0.1084640494        0.3066188962       -1.5343140547
 C         -1.7504626554       -0.2627405910       -2.0322192881
 O         -2.7096113303       -0.6085926379       -2.5416190075
 C          0.1426687359        1.8677486402       -2.3829369640
 O          0.2113384353        2.8242787953       -3.0028815829
 C          1.1108529942       -0.9692476051       -1.8227618706
 O          1.8406747359       -1.8234652906       -2.0320786889
 H          4.8447377266        0.1688640093       -2.8247098600
 H          4.4635320024        1.8654516491       -3.0941798914
 H          3.3263900866        0.8431056460       -2.2268656923
 H          4.6498983807        2.3762118599       -0.7230436572
 H          7.0780599218        1.9750768723       -0.4308201682
 H          6.6900118000        2.4662735009       -2.0791131048
 H          7.0448509641        0.7785965797       -1.7290239017
 H          6.2171644951       -1.0844956136       -0.7347137538
 H          4.5121478083       -1.3616503129       -1.1042697189
 H          5.8020007593       -1.6653640146        1.6401407180
 H          5.3294699765       -2.9845082317        0.5657011467
 H          3.7729183961       -3.8725929432        2.3770215676
 H          2.5327597584       -2.8172456584        3.0561133604
 H          4.2322634905       -2.5440795351        3.4432618858
 H          4.0010738517       -0.1345582149        2.6176752171
 H          2.3085547501       -0.4382733177        2.2198076795
 H          1.8466917828        2.1469056950       -0.5553756874
 H          1.9048304645        3.3442149939        0.7855318820
 H          1.0939842480        2.4292769625        3.1000872830
 H         -1.0384165269        0.7815041700        3.6723276225
 H         -0.6567654640       -2.3992700981        1.5671355844
 H         -0.9847592954       -1.7525399511       -0.0436355352
 H         -2.2322329780       -2.6669931553        0.8004356462
 H         -2.2983075917        1.6587213469        0.1249727364
 H         -4.2800124646        2.4272772475       -1.0488262148
 H         -6.3558396019        1.0862767992       -1.0132733754
 H         -7.5964899988       -0.8126668343       -0.2050267719
 H         -7.7524023051       -2.8500741031        1.1767514522
 H         -5.8045107044       -3.5780811203        2.5043285684
 H         -3.7153550949       -2.3588090224        2.4163311258
  70
       -106.38269309
 C          1.6336122803        2.2996759433       -1.9741494269
 C          3.0031191914        2.5910886690       -1.3640733951
 C          3.6873703750        3.7141421151       -2.1418184441
 C          3.9116980504        1.3494799524       -1.2612814448
 H          4.9037285487        1.7045238529       -0.9606794348
 C          4.0470005474        0.5755851874       -2.5733144367
 C          5.0411146637       -0.5720573301       -2.4321903254
 C          4.5824374760       -1.5469143471       -1.3499459475
 H          3.6110726912       -1.9582537260       -1.6442933764
 C          5.5679526304       -2.7000516941       -1.1872957472
 C          4.4141645794       -0.7934624631       -0.0320750150
 C          3.4449094883        0.3847207232       -0.1614825839
 H          2.4402197804        0.0105678507       -0.4013983689
 O          3.3962848585        1.0968950059        1.0819547875
 C          2.4351032817        0.6671728535        1.9840957797
 N          1.1282744462        1.2229085459        1.6812007619
 C          0.9299726402        2.5747649029        1.6090750626
 C         -0.3710548858        2.7541770869        1.2999468987
 N         -0.9385337919        1.5120700821        1.1992172604
 C         -2.3655068561        1.3580949800        0.9697198238
 H         -2.7664863493        2.3804006846        0.9498073671
 C         -2.9828082422        0.6161321074        2.1644489820
 C         -2.7133880330        0.7150979576       -0.3615883080
 C         -1.7571189738        0.1492691184       -1.1644895342
 C         -2.0895266840       -0.5033151701       -2.3599428062
 C         -3.3917441173       -0.5919791244       -2.7524477780
 C         -4.4060108594        0.0273004231       -1.9934360737
 C         -5.7498793406       -0.0162013717       -2.4196444318
 C         -6.7330258712        0.6211271551       -1.7188076787
 C         -6.4016807318        1.3487041878       -0.5680385777
 C         -5.1104336566        1.3961508803       -0.1199705563
 C         -4.0704740690        0.7187265461       -0.7964886124
 C         -0.0167606756        0.5451898440        1.4292175234
 Ni        -0.1523934767       -1.5881342187        1.4337075316
 C         -1.7366421524       -2.1400578575        0.7706723718
 O         -2.6658857951       -2.6359583696        0.3342635723
 C          1.0333247910       -2.2887032344        0.2870274982
 O          1.6081546890       -2.8983496281       -0.4900085261
 C          0.1054048484       -1.9538117381        3.1647970691
 O          0.2744087285       -2.1200809832        4.2817286197
 H          1.7189954755        2.0745363834       -3.0341821311
 H          0.9866713888        3.1680718425       -1.8650512875
 H          1.1509522489        1.4602751729       -1.4809588160
 H          2.8524175136        2.9439128046       -0.3389929995
 H          4.6536651596        3.9534527503       -1.7039938943
 H          3.0714708907        4.6107326505       -2.1223894893
 H          3.8391852579        3.4336726187       -3.1812837862
 H          4.3782780047        1.2500261647       -3.3637857751
 H          3.0759910541        0.1674635899       -2.8593945599
 H          6.0250210651       -0.1761741153       -2.1699158401
 H          5.1348708140       -1.0968419884       -3.3853775696
 H          5.2186386785       -3.3973332949       -0.4293577304
 H          6.5449470598       -2.3268108430       -0.8869595964
 H          5.6797073719       -3.2403662562       -2.1245275594
 H          5.3800891625       -0.4022074172        0.2955292461
 H          4.0534414595       -1.4754309096        0.7422292746
 H          2.7513998870        1.0344746470        2.9684398392
 H          2.3319461622       -0.4283984445        2.0158830887
 H          1.7217499608        3.2723290915        1.7850015380
 H         -0.9304294338        3.6547832251        1.1496237730
 H         -2.9599770303        1.2502308963        3.0488769932
 H         -2.4057428052       -0.2834410813        2.3730725048
 H         -4.0072275919        0.3245159706        1.9590522363
 H         -0.7154894471        0.1841464170       -0.8828697161
 H         -1.3023986950       -0.9487944103       -2.9499692906
 H         -3.6657740929       -1.1201846263       -3.6540684037
 H         -5.9834484519       -0.5611602006       -3.3231808795
 H         -7.7599175429        0.5833152636       -2.0507637557
 H         -7.1766189450        1.8791239502       -0.0338565222
 H         -4.8919429724        1.9839934782        0.7577664004
  70
       -106.38268322
 C          1.1655683415        1.6387810250       -2.1779431476
 C          2.2876851321        2.4221911848       -1.4998944044
 C          2.6732346007        3.6216098907       -2.3643896340
 C          3.5217074144        1.5652086945       -1.1540054892
 H          4.3079859122        2.2550716753       -0.8279072164
 C          4.0508121895        0.7408721183       -2.3282201289
 C          5.3274436914        0.0006329730       -1.9441585336
 C          5.0649173217       -0.9494932578       -0.7776258498
 H          4.3132222223       -1.6818010866       -1.0903862943
 C          6.3326332488       -1.6968191361       -0.3751343981
 C          4.5101601455       -0.1560700747        0.4037351635
 C          3.2489360871        0.6263148166        0.0288704749
 H          2.4475130853       -0.0762647090       -0.2368816053
 O          2.8269228913        1.4167849215        1.1485620514
 C          1.9451466968        0.7897719626        2.0157836575
 N          0.5877414947        0.8093421063        1.5043373417
 C         -0.0886858993        1.9816823654        1.3063547257
 C         -1.2792359410        1.6562978978        0.7576872525
 N         -1.2960356137        0.2948889530        0.6175632044
 C         -2.4114684525       -0.4879814985        0.0930660056
 H         -2.6151951419       -1.2480830362        0.8609325903
 C         -2.0250618446       -1.2535898665       -1.1794137132
 C         -3.6863655858        0.3071056993       -0.0912472049
 C         -4.7511233136       -0.0312494632        0.7084459714
 C         -6.0081345430        0.5699770904        0.5680522463
 C         -6.2049472986        1.5145074197       -0.3962488885
 C         -5.1436000090        1.9082121242       -1.2363309961
 C         -5.3430455734        2.8947574260       -2.2256510593
 C         -4.3208686829        3.3016608068       -3.0336342390
 C         -3.0459638153        2.7430137152       -2.8700460608
 C         -2.8214969347        1.7826588030       -1.9236325517
 C         -3.8587449486        1.3145065843       -1.0839616647
 C         -0.1529523957       -0.2488680670        1.0988543277
 Ni         0.3564944965       -2.2782706895        1.4433387974
 C          0.9908572794       -2.3386923439        3.1207509883
 O          1.3452093362       -2.4391459280        4.2011483683
 C         -1.1141618185       -3.3102972377        1.4062696092
 O         -1.9571483727       -4.0771330476        1.4718104119
 C          1.5127768280       -2.7070249702        0.1571768746
 O          2.2259089581       -3.0034510982       -0.6848769370
 H          1.4565719262        1.3274629282       -3.1782479601
 H          0.2856226474        2.2735588800       -2.2650350413
 H          0.8952183211        0.7541718613       -1.6054713402
 H          1.9065229772        2.8084576990       -0.5485573618
 H          1.8100092040        4.2661190404       -2.5170059967
 H          3.0306820575        3.3008735449       -3.3399907756
 H          3.4550210730        4.2064039713       -1.8855448148
 H          4.2499265792        1.3965403969       -3.1768448674
 H          3.2990572013        0.0099410380       -2.6310407103
 H          6.0985267147        0.7202087963       -1.6589956175
 H          5.6974123734       -0.5638779617       -2.8026986679
 H          7.1017835683       -0.9969527568       -0.0547276117
 H          6.7187056028       -2.2710884546       -1.2141837743
 H          6.1292021802       -2.3821475965        0.4445202531
 H          5.2598600215        0.5564435077        0.7554287702
 H          4.2819913039       -0.8343025169        1.2300141779
 H          1.9766173533        1.3566342661        2.9536916805
 H          2.2167280026       -0.2592594202        2.2057267262
 H          0.3306340548        2.9295194691        1.5720254784
 H         -2.1007680815        2.2825311476        0.4826325031
 H         -1.1356010084       -1.8521723496       -0.9821693198
 H         -1.8264871687       -0.5999618797       -2.0212140686
 H         -2.8403335308       -1.9207097228       -1.4479259180
 H         -4.6260731452       -0.7913351127        1.4667537843
 H         -6.8138732302        0.2697830883        1.2207573062
 H         -7.1718859765        1.9770928998       -0.5304352711
 H         -6.3284962537        3.3266342634       -2.3258839026
 H         -4.4820435322        4.0563822337       -3.7887736262
 H         -2.2335144928        3.0801330375       -3.4973516453
 H         -1.8223222164        1.3966204968       -1.8081546228
  70
       -106.38267932
 C          0.8844996475        1.3309995645       -2.4513604111
 C          2.0434949404        2.2187284616       -2.0026909995
 C          2.2882058422        3.3102142681       -3.0435846228
 C          3.3389559126        1.4407307301       -1.6969032658
 H          4.1300014773        2.1839556798       -1.5472970860
 C          3.7671663862        0.4889804798       -2.8146090170
 C          5.1043212917       -0.1683485672       -2.4902554860
 C          5.0050793911       -0.9724793927       -1.1956341838
 H          4.2514222553       -1.7552882426       -1.3313398388
 C          6.3358579741       -1.6341547095       -0.8509178853
 C          4.5531174032       -0.0516788746       -0.0639932178
 C          3.2311582914        0.6494747828       -0.3865913769
 H          2.4316294010       -0.0982888241       -0.4745868448
 O          2.9052991167        1.5606482970        0.6718966388
 C          2.1358438764        1.0266825259        1.6943948524
 N          0.7308564849        0.9777934135        1.3364128056
 C          0.0104302102        2.1166458750        1.1015379370
 C         -1.2257426883        1.7245432190        0.7242059839
 N         -1.2271819708        0.3559220566        0.7206755655
 C         -2.3752845424       -0.4883416203        0.4027743316
 H         -2.4702113183       -1.1765677377        1.2549311726
 C         -2.1171838841       -1.3640364985       -0.8305594674
 C         -3.6831080652        0.2668929860        0.2979147189
 C         -4.6380334298       -0.0106211767        1.2460279596
 C         -5.9181006268        0.5556255379        1.2015737185
 C         -6.2507632787        1.4025078878        0.1852661786
 C         -5.3054345785        1.7314913270       -0.8073487840
 C         -5.6445606495        2.6184832869       -1.8514467277
 C         -4.7348393528        2.9632706307       -2.8089238553
 C         -3.4358301684        2.4406282357       -2.7483804430
 C         -3.0776952041        1.5760672139       -1.7521056063
 C         -3.9967305824        1.1735969645       -0.7554200277
 C         -0.0258052110       -0.1240524585        1.1212204606
 Ni         0.5645017770       -2.1062475200        1.5918402957
 C          1.5665656793       -2.6491191343        0.2220726026
 O          2.1806377763       -3.0191211217       -0.6676365819
 C          1.3997843275       -2.0050328459        3.1765555718
 O          1.8851718180       -2.0042834722        4.2096871272
 C         -0.8794461025       -3.1482667445        1.8331473283
 O         -1.6915139354       -3.9148528963        2.0694288948
 H         -0.0213497084        1.9305789562       -2.5206524128
 H          0.7068540067        0.5209688695       -1.7473537527
 H          1.0788066977        0.9012363591       -3.4310077666
 H          1.7533872157        2.7110742280       -1.0682288021
 H          1.3904289098        3.9107742680       -3.1746607559
 H          2.5487264121        2.8792409622       -4.0073501380
 H          3.0954953492        3.9677947727       -2.7299965281
 H          3.8484783335        1.0383112578       -3.7533871181
 H          3.0143059695       -0.2911016406       -2.9400466179
 H          5.8749660621        0.5985654405       -2.3823526559
 H          5.3991147389       -0.8261696854       -3.3106395306
 H          7.1089047159       -0.8821076278       -0.7063769406
 H          6.6492733966       -2.2993428531       -1.6522533256
 H          6.2483892555       -2.2165255147        0.0634628739
 H          5.3101548711        0.7157891896        0.1130102011
 H          4.4403284042       -0.6270348845        0.8585281635
 H          2.2560509701        1.6946402396        2.5554552566
 H          2.4485127710        0.0079377145        1.9671568016
 H          0.4351120848        3.0910452282        1.2242129914
 H         -2.0865679903        2.3109091478        0.4836869044
 H         -2.9447477946       -2.0594877436       -0.9458768142
 H         -1.2007724019       -1.9348487587       -0.6797445664
 H         -2.0233826772       -0.7888942700       -1.7446875389
 H         -4.4056592885       -0.6943552478        2.0503420781
 H         -6.6339905021        0.3056725936        1.9699254166
 H         -7.2383398002        1.8361456171        0.1253317358
 H         -6.6458784198        3.0241766641       -1.8728290870
 H         -5.0027643720        3.6414333503       -3.6052409796
 H         -2.7113933858        2.7294952967       -3.4960313219
 H         -2.0624056929        1.2169049440       -1.7215482744
  70
       -106.38264261
 C          5.1683087885       -0.5250723037       -1.6203442223
 C          5.2637249066        0.0885004039       -0.2252950712
 C          6.7101486193        0.0357805718        0.2652048713
 C          4.3111642856       -0.5443134768        0.8102859648
 H          4.5915993452       -0.1183786895        1.7802187618
 C          4.3866121610       -2.0765572705        0.9112033277
 C          3.2591347418       -2.7642169334        0.1482824548
 C          1.8822788385       -2.4055564344        0.7274049165
 H          1.1545291805       -2.4154579359       -0.0892623239
 C          1.4260968188       -3.4199897064        1.7726807363
 C          1.8973529801       -0.9975550752        1.3365417585
 C          2.8623124660       -0.0844580514        0.5800117726
 H          2.6108908703       -0.1022135741       -0.4876461948
 O          2.7932891597        1.2705373580        1.0367486633
 C          1.9225683916        2.1073874039        0.3624442493
 N          0.5397518074        1.9122888589        0.7557819205
 C          0.1473509631        1.9792235343        2.0655709183
 C         -1.1714572088        1.6904532061        2.0882078599
 N         -1.5487765421        1.4569651372        0.7935313821
 C         -2.9242530299        1.1465458356        0.4355368832
 H         -2.9139728577        0.8059387421       -0.6064572063
 C         -3.7527572652        2.4295270363        0.4878486921
 C         -3.4163409370        0.0152465386        1.3161616211
 C         -4.2976421508        0.2424235531        2.3423421705
 C         -4.7353529828       -0.7956781514        3.1769865482
 C         -4.2854524225       -2.0682504841        2.9812464692
 C         -3.3833688127       -2.3544215508        1.9359984686
 C         -2.9284604339       -3.6716800800        1.7165046906
 C         -2.0733710257       -3.9580089232        0.6914757744
 C         -1.6296460892       -2.9290366872       -0.1503342562
 C         -2.0355038550       -1.6387255002        0.0482910118
 C         -2.9321449279       -1.3052445206        1.0879869025
 C         -0.5019562940        1.5906880976       -0.0468330699
 Ni        -0.4318935992        1.4140948247       -2.1494118248
 C          0.3638995738        2.9186989146       -2.7092525488
 O          0.8186523417        3.8992098251       -3.0748783444
 C          0.4512011098       -0.1141581859       -2.4045688738
 O          0.9851979309       -1.1171911814       -2.5280064091
 C         -2.0779632115        1.3828819334       -2.8710306450
 O         -3.0443985706        1.4085106721       -3.4783516571
 H          5.4914660778       -1.5628806693       -1.6152941649
 H          5.8112150963        0.0236805935       -2.3056843914
 H          4.1540903307       -0.4785742740       -2.0089794262
 H          4.9761005114        1.1443032399       -0.2966713248
 H          7.3648088102        0.5442206792       -0.4390038303
 H          7.0527482106       -0.9917645365        0.3630056392
 H          6.8052876481        0.5223661038        1.2331648187
 H          4.3290698985       -2.3746508967        1.9595787271
 H          5.3480781890       -2.4246530973        0.5341108973
 H          3.3987379563       -3.8463575203        0.1890758359
 H          3.3021421821       -2.4704237397       -0.8999250024
 H          2.1495835368       -3.4873748490        2.5823100992
 H          1.3164259976       -4.4057945320        1.3264228162
 H          0.4650317513       -3.1268090564        2.1908519056
 H          2.2137005898       -1.0368069784        2.3808071248
 H          0.8862426655       -0.5883973497        1.3135841875
 H          1.9747203143        1.9706904167       -0.7307589083
 H          2.2217052452        3.1311208471        0.6224478202
 H          0.8406525476        2.2055519679        2.8483810653
 H         -1.8589561583        1.6207844711        2.9053927380
 H         -3.6898448665        2.9088392861        1.4619681138
 H         -4.7925459498        2.2144716324        0.2577340292
 H         -3.3689351583        3.1248110459       -0.2564128580
 H         -4.6794101800        1.2345400067        2.5259355838
 H         -5.4303880917       -0.5730120031        3.9730247782
 H         -4.6156764238       -2.8761876959        3.6180270449
 H         -3.2801059642       -4.4527848114        2.3755644189
 H         -1.7365385389       -4.9698589430        0.5222730262
 H         -0.9630616080       -3.1640402944       -0.9668574458
 H         -1.6586891872       -0.8723442120       -0.6141813295
  70
       -106.38260623
 C          1.0505605656       -0.5547572023        2.3391815744
 C          2.0998808489        0.5006397285        2.6793634336
 C          1.6352983969        1.8692753378        2.1862056780
 C          3.5133929657        0.1119761186        2.1879317652
 H          3.6375541722       -0.9598567215        2.3726086621
 C          4.5711217775        0.8728750772        2.9977977915
 C          5.9927809258        0.4742005087        2.6222528013
 C          6.2436904468        0.7352360690        1.1400417433
 H          6.1077329372        1.8060631777        0.9449487207
 C          7.6620795192        0.3417632856        0.7384424455
 C          5.2145128092       -0.0463474761        0.3293518449
 C          3.7702584302        0.3299532829        0.6891577104
 H          3.5950733146        1.3850329276        0.4375784900
 O          2.8849382632       -0.5076285203       -0.0577631320
 C          2.6004422875       -0.1209293110       -1.3579989542
 N          1.4331828660        0.7369021842       -1.4417339013
 C          1.4897008341        2.1037235164       -1.5117370770
 C          0.2126480671        2.5458089515       -1.5655449220
 N         -0.5903122690        1.4393775976       -1.5296018824
 C         -2.0413788593        1.4404504648       -1.5770038173
 H         -2.3072045643        0.5403530437       -2.1453022100
 C         -2.5857039839        2.6732189177       -2.2977136518
 C         -2.6403622542        1.3348450444       -0.1866515929
 C         -1.9804519767        1.8808291021        0.8840907494
 C         -2.4984307257        1.7971129288        2.1827832981
 C         -3.6889034117        1.1693196352        2.4041889058
 C         -4.4135535070        0.6106852779        1.3316123847
 C         -5.6467561902       -0.0365241555        1.5543919685
 C         -6.3510061063       -0.5832801504        0.5205824683
 C         -5.8461212103       -0.5014579420       -0.7843551923
 C         -4.6541207222        0.1199135397       -1.0335167177
 C         -3.8944942883        0.6939710882        0.0098985986
 C          0.1476653060        0.3113940697       -1.4439097954
 Ni        -0.5904996827       -1.6420835069       -1.2436134113
 C         -1.7035626170       -1.6179588061        0.1586638276
 O         -2.3127304961       -1.7384379318        1.1158816755
 C         -1.3322834964       -2.0237755698       -2.8219471024
 O         -1.8076676824       -2.2573962678       -3.8353870015
 C          0.7634465648       -2.7236126003       -0.7586428771
 O          1.5415259907       -3.4665411958       -0.3820314723
 H          0.0895086258       -0.2810416745        2.7716538170
 H          1.3401406631       -1.5255223852        2.7343930176
 H          0.9260666196       -0.6507620557        1.2632516636
 H          2.1673156410        0.5510935259        3.7739684950
 H          2.3848318952        2.6372232914        2.3649996481
 H          0.7278279423        2.1558177133        2.7129213688
 H          1.4100059633        1.8379933941        1.1238409207
 H          4.4089498136        0.6791630411        4.0599093401
 H          4.4508435874        1.9465006561        2.8353873168
 H          6.1439924846       -0.5868598342        2.8312706811
 H          6.7045251152        1.0400987803        3.2271659263
 H          7.8252884246       -0.7187390090        0.9165864371
 H          8.3914340048        0.9031509499        1.3178582849
 H          7.8340007565        0.5423688710       -0.3167808768
 H          5.3368304077       -1.1155821934        0.5141145650
 H          5.3779055839        0.1233841392       -0.7384208205
 H          2.3778335918       -1.0363594819       -1.9203967818
 H          3.4381961768        0.4096256983       -1.8323813011
 H          2.4148477808        2.6431280879       -1.5324993135
 H         -0.1632978568        3.5449533687       -1.6291094429
 H         -2.4506496555        3.5694849848       -1.6960841510
 H         -3.6517897934        2.5451183974       -2.4654147594
 H         -2.0948294179        2.8051441001       -3.2600325269
 H         -1.0327647412        2.3788197281        0.7408051984
 H         -1.9432378792        2.2300223722        3.0022185981
 H         -4.0949846594        1.0891384442        3.4022062660
 H         -6.0211230433       -0.0935813749        2.5666501670
 H         -7.2923710867       -1.0818250639        0.6986283895
 H         -6.4060629175       -0.9385174698       -1.5982637159
 H         -4.2961130348        0.1608063464       -2.0505499284
  70
       -106.38260177
 C          3.1918255629        1.3613258178       -2.9936485953
 C          3.6402901418        0.2600553975       -2.0311053282
 C          2.7992420656       -0.9902758484       -2.2943381292
 C          3.5072346305        0.7423608447       -0.5727266562
 H          2.4721123304        1.0833334211       -0.4605806114
 C          4.4333121012        1.9100702553       -0.2138722421
 C          5.9041037470        1.5084572234       -0.2339602400
 C          6.2017741607        0.3622221451        0.7370720570
 H          7.2060959328       -0.0181644091        0.5105852906
 C          6.2106221402        0.8333132992        2.1896570513
 C          5.2154351615       -0.7911517126        0.5205585074
 C          3.7443483201       -0.3698917147        0.4661110911
 H          3.1423874133       -1.2496233624        0.2079651471
 O          3.3366283552        0.0518933898        1.7744266717
 C          2.0342132041       -0.2367424303        2.1404146109
 N          1.0678166388        0.6718791067        1.5554371626
 C          1.0882044252        2.0132351484        1.8272483333
 C          0.1105669748        2.5760734007        1.0835565628
 N         -0.4772556161        1.5660139965        0.3722431968
 C         -1.6202409126        1.7096375806       -0.5120459326
 H         -1.4131059821        1.0523181648       -1.3643364434
 C         -1.7878086204        3.1418726203       -1.0152778181
 C         -2.8863361353        1.2406702536        0.1830671863
 C         -3.0388285812        1.4680338282        1.5278362845
 C         -4.1764513978        1.0336448602        2.2193833755
 C         -5.1625829029        0.3629132538        1.5565681170
 C         -5.0619228731        0.1283131728        0.1700819012
 C         -6.0825927152       -0.5566439820       -0.5220100665
 C         -5.9975343505       -0.7731956435       -1.8672540957
 C         -4.8877852564       -0.2976874222       -2.5793428027
 C         -3.8801700990        0.3663829644       -1.9372628440
 C         -3.9194834784        0.5874618783       -0.5425787718
 C          0.1044831175        0.3764495949        0.6520159876
 Ni        -0.5734720706       -1.5111135704       -0.0075622616
 C         -2.0179041147       -1.7265418327        1.0243576808
 O         -2.9429848585       -1.8635409566        1.6770586412
 C         -1.0040187755       -1.4673882525       -1.7431379905
 O         -1.2904486706       -1.6059807892       -2.8402768966
 C          0.6722407662       -2.7885342343        0.1957386768
 O          1.3785460167       -3.6871231204        0.2112964045
 H          2.1568560184        1.6348061709       -2.7962107181
 H          3.2611038928        1.0106893494       -4.0210062159
 H          3.8094195648        2.2504883899       -2.9041868203
 H          4.6852919891        0.0216868916       -2.2464823052
 H          3.2481003250       -1.8783584260       -1.8567033677
 H          2.7093123810       -1.1615229867       -3.3648966330
 H          1.7953980114       -0.8704100829       -1.8829763992
 H          4.1707665803        2.2470495526        0.7902390534
 H          4.2708426854        2.7490603228       -0.8913331692
 H          6.5180307559        2.3728613624        0.0293422963
 H          6.1859015952        1.2073980094       -1.2448221422
 H          6.5251723669        0.0227893583        2.8433282505
 H          5.2205128680        1.1489111080        2.4985610566
 H          6.9051415555        1.6619598940        2.3141366837
 H          5.3347123094       -1.5221727248        1.3224549131
 H          5.4454275719       -1.2882029402       -0.4234191783
 H          1.9955230746       -0.1279528254        3.2317553492
 H          1.7332529909       -1.2580764007        1.8593831260
 H          1.7935547505        2.4416563521        2.5084492591
 H         -0.1945814016        3.5984458149        1.0148629876
 H         -2.1118272089        3.8026893148       -0.2142808052
 H         -2.5534487922        3.1564480370       -1.7867907021
 H         -0.8582584053        3.5148698464       -1.4411383637
 H         -2.2628323214        1.9769397831        2.0830728954
 H         -4.2537415799        1.2227499047        3.2798564199
 H         -6.0352463502        0.0026811153        2.0816779618
 H         -6.9368028091       -0.9078744482        0.0392642594
 H         -6.7800070006       -1.3032746677       -2.3898623693
 H         -4.8316314721       -0.4603931352       -3.6457376087
 H         -3.0475600414        0.7295343578       -2.5198914753
  70
       -106.38259110
 C          4.8432390339        0.1753568269       -0.9679914834
 C          4.9088163969        0.5042268244        0.5223643174
 C          6.3396263262        0.3203110073        1.0265648261
 C          3.9129439237       -0.3033728389        1.3798729880
 H          4.1838841695       -0.1364869948        2.4285108031
 C          3.9364786873       -1.8067156630        1.1002774714
 C          3.0025198783       -2.5556681874        2.0450706889
 C          1.5665023735       -2.0598682914        1.8874714319
 H          1.2424065964       -2.2479177088        0.8577542359
 C          0.6200602829       -2.7893901930        2.8361366127
 C          1.5215274373       -0.5545203007        2.1392442886
 C          2.4734542483        0.2053811046        1.2116342445
 H          2.1535056648        0.0576370481        0.1719160145
 O          2.4167965567        1.6055474376        1.5219032852
 C          1.8009618408        2.4014474719        0.5674004963
 N          0.3905433101        2.1009327485        0.4448587888
 C         -0.4883128597        2.3391060423        1.4679666991
 C         -1.6648657662        1.7831817740        1.1079447138
 N         -1.4754807176        1.2187378581       -0.1247349588
 C         -2.4944791890        0.4441992467       -0.8177321954
 H         -1.9815520433        0.0196004369       -1.6926627386
 C         -3.6033776138        1.3513154264       -1.3565193090
 C         -2.8656181954       -0.7475143577        0.0558263831
 C         -2.0712598169       -1.8557924848       -0.1311288325
 C         -2.2278744327       -3.0292033243        0.6126400293
 C         -3.2010484518       -3.0964636936        1.5661618047
 C         -4.0394439447       -1.9901321972        1.8063784930
 C         -5.0364713721       -2.0685145513        2.8023000457
 C         -5.8573216025       -1.0116516649        3.0683206685
 C         -5.7071170364        0.1738454790        2.3373786591
 C         -4.7529678086        0.2800722597        1.3637804493
 C         -3.8806689142       -0.7887418897        1.0532616907
 C         -0.2075349583        1.4036815248       -0.5507172378
 Ni         0.6077449526        0.8098206181       -2.4144481242
 C          1.9955115766        1.8571594187       -2.8682245885
 O          2.8399250085        2.4849580315       -3.3103738939
 C          1.0799207281       -0.8901156675       -2.1543297413
 O          1.4212571361       -1.9612766193       -1.9479274346
 C         -0.6602327256        1.1264129850       -3.6457648637
 O         -1.3960634648        1.3811633779       -4.4803706324
 H          5.2378049353       -0.8184733452       -1.1646898043
 H          5.4396970277        0.8911253623       -1.5302132972
 H          3.8230224264        0.2216408552       -1.3443796701
 H          4.6454203134        1.5598153334        0.6549538987
 H          6.6635057923       -0.7114059698        0.9115139676
 H          6.4164713822        0.5917999035        2.0769779693
 H          7.0197919296        0.9520964273        0.4596845546
 H          4.9526748669       -2.1857151488        1.2157602069
 H          3.6195299170       -1.9926132231        0.0730470391
 H          3.3249284366       -2.4040646595        3.0779674959
 H          3.0479291904       -3.6262522017        1.8339963385
 H          0.9145483330       -2.6202026035        3.8698148741
 H          0.6402705837       -3.8599946437        2.6456823132
 H         -0.4010010632       -2.4363293220        2.7059908443
 H          1.8087459445       -0.3425179603        3.1715754260
 H          0.5014630706       -0.1895435750        1.9963284335
 H          2.2536131340        2.2800694572       -0.4287689543
 H          1.9225650678        3.4354443749        0.9093573140
 H         -0.1949327856        2.8633123674        2.3535398652
 H         -2.5956555051        1.7307561043        1.6325616410
 H         -3.2752076721        1.7964850623       -2.2936980190
 H         -3.8308141532        2.1694354153       -0.6777822695
 H         -4.5041281253        0.7747522469       -1.5478608807
 H         -1.2925709459       -1.8242736714       -0.8801508397
 H         -1.5767331328       -3.8685261201        0.4223550839
 H         -3.3423135720       -3.9920346487        2.1535160556
 H         -5.1338702120       -2.9926360733        3.3539656823
 H         -6.6173288140       -1.0795869027        3.8321755889
 H         -6.3551803314        1.0127197792        2.5462895344
 H         -4.6831058301        1.2078163281        0.8255835768
  70
       -106.38256130
 C          4.6388195767       -2.4564717405        0.5881600264
 C          5.3598081865       -1.1190932154        0.7503495645
 C          5.4369467089       -0.7389659712        2.2274885519
 C          4.7233301736       -0.0260905839       -0.1371320193
 H          4.3677701769       -0.5170742456       -1.0473951212
 C          5.7577612804        1.0298175535       -0.5392613410
 C          5.1754730292        2.0321723543       -1.5294268044
 C          3.9587930727        2.7353840883       -0.9340557506
 H          4.2785065231        3.2892689161       -0.0426368071
 C          3.3480515717        3.7205473025       -1.9266675979
 C          2.9259755141        1.6924534357       -0.5100852694
 C          3.5157665322        0.6891578179        0.4876846835
 H          3.8391747511        1.2402845588        1.3864022290
 O          2.5666120081       -0.2988054841        0.8824798149
 C          1.5889021640        0.0910073927        1.7763199406
 N          0.4227615280        0.6765687647        1.1384653412
 C         -0.0429975587        1.9387975146        1.3945882024
 C         -1.1098820669        2.1294047970        0.5874048044
 N         -1.2655135044        0.9808353629       -0.1371774760
 C         -2.2874500287        0.8334522667       -1.1608002644
 H         -2.3718780401       -0.2405757584       -1.3709102131
 C         -1.7936025728        1.5098282586       -2.4390440081
 C         -3.6115082489        1.3320637320       -0.6214496617
 C         -4.2173396806        2.4522764067       -1.1299910439
 C         -5.4360662332        2.9220856048       -0.6194801302
 C         -6.0458309307        2.2681822043        0.4103002842
 C         -5.4622614686        1.1117323219        0.9679989625
 C         -6.0884304849        0.4289319958        2.0316491576
 C         -5.5285492137       -0.6929345628        2.5723871534
 C         -4.3157877545       -1.1781759087        2.0642461910
 C         -3.6824541356       -0.5391012788        1.0345392010
 C         -4.2290424349        0.6265251424        0.4518950874
 C         -0.3295624288        0.0677259441        0.1909113647
 Ni         0.0109416710       -1.8580500169       -0.5699541554
 C         -1.4103799311       -2.5086277251       -1.4605563954
 O         -2.2165658795       -3.0853778665       -2.0304338574
 C          1.4405411415       -1.6138452721       -1.6029270879
 O          2.3702056457       -1.4359651050       -2.2405684943
 C          0.3914040647       -2.9028257447        0.8246616530
 O          0.6679350458       -3.6151223747        1.6734581254
 H          4.6890803194       -2.7935531070       -0.4448725425
 H          3.5937789188       -2.3604073565        0.8659879992
 H          5.1025977111       -3.2137445292        1.2170028370
 H          6.3874765001       -1.2530192424        0.3895744301
 H          6.0351255963       -1.4721681794        2.7643466573
 H          4.4448974259       -0.7255571875        2.6715200425
 H          5.9010494861        0.2360894554        2.3604358454
 H          6.6190873768        0.5340493392       -0.9908992182
 H          6.1075550974        1.5585237434        0.3508682687
 H          4.8772801672        1.5094801055       -2.4407786639
 H          5.9345034921        2.7697575495       -1.7990541460
 H          3.0149761872        3.1984615434       -2.8210403314
 H          4.0797365383        4.4699260259       -2.2196694658
 H          2.4920642455        4.2290767486       -1.4876353078
 H          2.5692056124        1.1468920919       -1.3857251983
 H          2.0697324675        2.2016856513       -0.0625503096
 H          1.9672509403        0.8244323500        2.5070264822
 H          1.2727310233       -0.8201892222        2.3021631254
 H          0.4098811469        2.5827007455        2.1208404698
 H         -1.7662620433        2.9681138905        0.4800632394
 H         -0.8773697562        1.0160842318       -2.7581569593
 H         -1.5756086241        2.5629378421       -2.2746846681
 H         -2.5316422322        1.4108555043       -3.2299011521
 H         -3.7651027655        2.9978054692       -1.9430609855
 H         -5.8808298447        3.8065776600       -1.0511033323
 H         -6.9835169589        2.6227210936        0.8132774051
 H         -7.0254149193        0.8140125776        2.4084848832
 H         -6.0137016499       -1.2120556610        3.3857685045
 H         -3.8791708428       -2.0692764910        2.4906038159
 H         -2.7508206464       -0.9484826245        0.6723220807
  70
       -106.38248380
 C          5.8653428961        1.7729233899        2.7091126041
 C          5.0207073952        2.1626883014        1.4921323761
 C          4.0393195782        3.2509255732        1.9304597852
 C          4.3110430900        0.9386316255        0.8648596497
 H          3.5328573759        0.5998702196        1.5556004289
 C          5.3090966296       -0.2123373563        0.6652129610
 C          4.6991979534       -1.4320177715       -0.0155379889
 C          4.1507283060       -1.0643987182       -1.3884678118
 H          4.9674139661       -0.6688160396       -2.0037393328
 C          3.5441818246       -2.2747061081       -2.0908529791
 C          3.1003333215        0.0207958657       -1.1891099226
 C          3.6686612810        1.2648001632       -0.5006444227
 H          4.4432990853        1.7047543233       -1.1418040049
 O          2.6851469773        2.3070732986       -0.4587501916
 C          1.4663007350        2.0396807076        0.1544889560
 N          0.4915218646        1.5108062864       -0.7813089618
 C          0.2246864832        2.1490171049       -1.9598809891
 C         -0.6968535614        1.4022775630       -2.6058212509
 N         -0.9775832999        0.3300494311       -1.7997956499
 C         -1.9116967707       -0.7397518380       -2.1226170250
 H         -1.3259772632       -1.6694180919       -2.0948348454
 C         -2.5005066926       -0.6062138131       -3.5273857861
 C         -3.0379284902       -0.8951184675       -1.1140509651
 C         -3.3170809974       -2.1709875126       -0.6837022659
 C         -4.3720749033       -2.4428985472        0.1949160934
 C         -5.1556468411       -1.4230149317        0.6502553255
 C         -4.9202112115       -0.0987799492        0.2290246645
 C         -5.7347479854        0.9537150854        0.6966428389
 C         -5.5276213400        2.2403462535        0.2907945067
 C         -4.4928053521        2.5222149157       -0.6107755313
 C         -3.6836071456        1.5250443626       -1.0796712158
 C         -3.8566292366        0.1822875264       -0.6759233772
 C         -0.2361501817        0.3765570644       -0.6683859801
 Ni        -0.2144873678       -1.0299746873        0.9033576751
 C          1.1050782093       -0.8294858758        2.1102119962
 O          1.8317726535       -0.9006924885        2.9908923075
 C         -1.7718238353       -0.7172379664        1.7252853196
 O         -2.7347331745       -0.4662365636        2.2816899740
 C         -0.0131377712       -2.6108707628        0.1045485214
 O          0.1813475794       -3.6324714321       -0.3708089376
 H          6.2180859327        2.6712359995        3.2112161980
 H          6.7378455943        1.1897218651        2.4301017423
 H          5.2702687838        1.2015253025        3.4183575681
 H          5.6875973186        2.5882017073        0.7329921777
 H          4.5784784873        4.0542825376        2.4285020029
 H          3.3112529008        2.8460667256        2.6309823490
 H          3.5149013755        3.6737406055        1.0811105396
 H          5.6947007619       -0.5240997165        1.6346999873
 H          6.1484213833        0.1501294358        0.0657111534
 H          3.8878573756       -1.8303478725        0.5986627518
 H          5.4596229744       -2.2103048767       -0.1087714814
 H          4.2906843060       -3.0546399912       -2.2217977829
 H          3.1593224921       -1.9982350187       -3.0702330906
 H          2.7242930004       -2.6799368609       -1.5017259499
 H          2.2928578613       -0.4007782228       -0.5813385823
 H          2.6792639897        0.3225075067       -2.1522550635
 H          1.0920716630        3.0036094141        0.5261827802
 H          1.5407861717        1.3375234725        0.9932723504
 H          0.7224169256        3.0557134637       -2.2337823746
 H         -1.1533449744        1.5633817327       -3.5592152393
 H         -1.7152859237       -0.5754380752       -4.2799619626
 H         -3.1288557473        0.2767103901       -3.6146013690
 H         -3.1220251137       -1.4773122088       -3.7206922215
 H         -2.7112945237       -2.9961534531       -1.0315836770
 H         -4.5480305315       -3.4601545689        0.5113800115
 H         -5.9664730513       -1.6119998152        1.3386956995
 H         -6.5296655939        0.7166582734        1.3893194939
 H         -6.1533067289        3.0415022640        0.6555487960
 H         -4.3340889520        3.5403890403       -0.9362983484
 H         -2.8996790372        1.7858389669       -1.7703698081
  70
       -106.38248154
 C          1.8340053566       -0.7280230054       -2.7290431105
 C          3.2133684448       -0.8678876488       -2.0942185409
 C          4.2161787653       -1.3736253449       -3.1312055071
 C          3.2282247515       -1.7465363309       -0.8285016551
 H          4.2725348305       -1.7877251831       -0.4971715812
 C          2.7422964598       -3.1788454373       -1.0561915609
 C          2.9472011027       -4.0266513593        0.1944344980
 C          2.2068303728       -3.4194707168        1.3834354282
 H          1.1336837842       -3.4051979377        1.1553161013
 C          2.4254821361       -4.2446670694        2.6486557530
 C          2.6678571900       -1.9768312049        1.5948784917
 C          2.4256848141       -1.1386302396        0.3356678025
 H          1.3504676029       -1.1637405658        0.0991360416
 O          2.8350149634        0.2246206947        0.4671859805
 C          2.3402251703        0.9641773172        1.5345428770
 N          0.8996907421        0.9242367615        1.6875774287
 C          0.2820212267        0.3377681969        2.7621300688
 C         -1.0478134450        0.4321624383        2.5502292071
 N         -1.2097586042        1.0695293734        1.3526502803
 C         -2.5238576372        1.3445579244        0.7908235281
 H         -2.3728720205        1.5736646860       -0.2740130254
 C         -3.0904946544        2.5976322021        1.4563617877
 C         -3.3787456130        0.0990479649        0.9231368265
 C         -4.5211605431        0.0911370317        1.6821645332
 C         -5.2860346210       -1.0729149187        1.8467137550
 C         -4.8931982070       -2.2410489697        1.2631418980
 C         -3.7294853967       -2.2844399492        0.4678782275
 C         -3.3169977755       -3.4880325282       -0.1413183838
 C         -2.2007858540       -3.5320083544       -0.9264780734
 C         -1.4599802495       -2.3625851185       -1.1440694463
 C         -1.8283842788       -1.1821590437       -0.5610102632
 C         -2.9643396048       -1.1012225419        0.2748826324
 C         -0.0187680359        1.3938578057        0.8072634697
 Ni         0.2867047317        2.5940772299       -0.8898079277
 C         -0.6484612676        1.9722261939       -2.2827393943
 O         -1.1585722467        1.6370302657       -3.2485786315
 C         -0.2108745057        4.2128096789       -0.3255523760
 O         -0.4937212167        5.2579361455        0.0397522194
 C          2.0354371539        2.5468082018       -1.3006370173
 O          3.1200477818        2.5956766294       -1.6447447857
 H          1.8898267854       -0.0558311392       -3.5830024451
 H          1.1251535719       -0.3061761676       -2.0194706429
 H          1.4624596987       -1.6872708134       -3.0827939205
 H          3.5403915253        0.1236937246       -1.7721271261
 H          3.8870298550       -2.3104543091       -3.5751761266
 H          5.1951376797       -1.5267261069       -2.6823798601
 H          4.3190843635       -0.6436163795       -3.9307441392
 H          3.2879778458       -3.6246423003       -1.8876567543
 H          1.6808879363       -3.1718347757       -1.3086279411
 H          4.0133372766       -4.0861637848        0.4256458545
 H          2.5872451878       -5.0423843166        0.0166023597
 H          3.4814409010       -4.2675931128        2.9098537423
 H          2.0882091156       -5.2674420577        2.4982526236
 H          1.8731610097       -3.8224094943        3.4855781710
 H          3.7335678570       -1.9578802332        1.8360492516
 H          2.1203245335       -1.5613163689        2.4417065570
 H          2.6549240388        1.9953729843        1.3300671224
 H          2.7718667812        0.6410485915        2.4956925285
 H          0.8249753510       -0.0714710266        3.5892646929
 H         -1.8761181169        0.0957523010        3.1386817430
 H         -4.0575739396        2.8489958756        1.0304564019
 H         -2.4108629010        3.4273740050        1.2742133951
 H         -3.1880474360        2.4662661207        2.5319080749
 H         -4.8579258577        0.9886151159        2.1755426874
 H         -6.1808905696       -1.0319636208        2.4498853428
 H         -5.4656840927       -3.1474660726        1.3967652017
 H         -3.9096447513       -4.3765558166        0.0241638327
 H         -1.8899767414       -4.4565749691       -1.3903073037
 H         -0.5935816304       -2.3933298149       -1.7875818063
 H         -1.2389764867       -0.3008634646       -0.7623603706
  70
       -106.38245368
 C          0.6527538982        0.1329661353       -2.3777098647
 C          1.7286162397        0.9463754209       -1.6633122370
 C          1.8495089271        2.3237594759       -2.3103623531
 C          3.0983130283        0.2418641796       -1.5948696231
 H          3.8285852528        0.9906668708       -1.2700456585
 C          3.5549372178       -0.3425841387       -2.9320559210
 C          4.9452154328       -0.9585116056       -2.8210144238
 C          4.9517240517       -2.0763972052       -1.7804942975
 H          4.2383780227       -2.8480717038       -2.0949810933
 C          6.3343998859       -2.7104715809       -1.6581219394
 C          4.4967693643       -1.5112074172       -0.4365998134
 C          3.1120551061       -0.8603251330       -0.5255242610
 H          2.3590417648       -1.6215948882       -0.7765938989
 O          2.7793343878       -0.2482755141        0.7232763410
 C          2.2517351698       -1.0795069349        1.6945449083
 N          0.8915565580       -1.5084646936        1.4252133741
 C          0.5671523542       -2.7935453915        1.0829590552
 C         -0.7801357639       -2.8480227620        0.9988504714
 N         -1.2478721252       -1.5914696520        1.2786634435
 C         -2.6520550209       -1.2230173326        1.4130507519
 H         -2.7299131758       -0.7414670100        2.3980944566
 C         -3.5819166096       -2.4368116365        1.4183563223
 C         -3.1307887151       -0.2032481667        0.3941844606
 C         -3.8127206849        0.8877037234        0.8798241043
 C         -4.3477610023        1.8642868425        0.0318145594
 C         -4.1921500528        1.7497121803       -1.3188342037
 C         -3.5205510745        0.6392050546       -1.8683823257
 C         -3.3835432136        0.5062254049       -3.2662494188
 C         -2.7670977513       -0.5809747635       -3.8152590564
 C         -2.2553548433       -1.5811928238       -2.9783781061
 C         -2.3562028305       -1.4725950412       -1.6193072105
 C         -2.9877747999       -0.3654762565       -1.0108900875
 C         -0.2239282672       -0.7490830969        1.5468362495
 Ni        -0.3097809493        1.2999118437        1.9476489717
 C         -1.2932862826        1.4636350035        3.4290161357
 O         -1.9181487961        1.5738653434        4.3809961738
 C          1.3651016202        1.9518916537        2.1160262294
 O          2.3655284039        2.4950649518        2.1719198012
 C         -0.9899787147        2.0154706349        0.4607629038
 O         -1.3209027481        2.5057482947       -0.5162444594
 H         -0.3126750728        0.6179214621       -2.2545101027
 H          0.5732192996       -0.8706642148       -1.9658991507
 H          0.8552174374        0.0586727760       -3.4437029314
 H          1.4042527186        1.0935121076       -0.6260500826
 H          2.5733996102        2.9367096538       -1.7783148446
 H          0.8879415683        2.8310647228       -2.2827328826
 H          2.1596543692        2.2431600139       -3.3501942747
 H          3.5621236140        0.4438045545       -3.6875118781
 H          2.8532854748       -1.1145009233       -3.2531811517
 H          5.6660263344       -0.1913420645       -2.5303144654
 H          5.2514067742       -1.3555547688       -3.7913876058
 H          6.3274107413       -3.5143592309       -0.9251468603
 H          7.0649182624       -1.9678391807       -1.3450477089
 H          6.6510906051       -3.1208447198       -2.6142121491
 H          5.2041896262       -0.7509216146       -0.0988567440
 H          4.4851919672       -2.3082307245        0.3120067417
 H          2.2522704203       -0.4926828089        2.6209762990
 H          2.8527677869       -1.9911898423        1.8372361879
 H          1.3048077241       -3.5576173261        0.9435606622
 H         -1.4109004901       -3.6832650978        0.7778935828
 H         -3.6168255414       -2.9238839585        0.4472430909
 H         -4.5870248865       -2.0949159615        1.6532334274
 H         -3.2794867152       -3.1545176927        2.1784753382
 H         -3.9436748113        1.0040766825        1.9465467403
 H         -4.8679358371        2.7083276934        0.4592724511
 H         -4.5845927266        2.5017980330       -1.9877775109
 H         -3.7844083766        1.2873849594       -3.8963627849
 H         -2.6701295099       -0.6775811200       -4.8864539921
 H         -1.7709989844       -2.4426369338       -3.4154399938
 H         -1.9367961523       -2.2543303715       -1.0095562442
  70
       -106.38244518
 C          3.8083004456        1.8285357627       -2.0178379974
 C          4.2289492532        0.6469402985       -1.1420297539
 C          4.2096462945       -0.6205175350       -1.9973447251
 C          3.2984813539        0.5144068573        0.0815864908
 H          2.3038570079        0.2804830466       -0.3199599714
 C          3.1955042213        1.7876563771        0.9276171169
 C          4.5291881091        2.1451804743        1.5747028669
 C          5.0459355157        1.0257793165        2.4843547437
 H          6.0933600186        1.2469314467        2.7262143131
 C          4.2792845457        0.9669404703        3.8040392552
 C          5.0211619424       -0.3238536575        1.7550477810
 C          3.7107371510       -0.6306903079        1.0245311823
 H          3.8439161836       -1.5554167480        0.4439578507
 O          2.7231012425       -0.9071026501        2.0237599183
 C          1.5503855381       -1.5153663932        1.6061923001
 N          0.5102026334       -0.5500721692        1.3051105784
 C          0.1004012319        0.3613078296        2.2411488803
 C         -0.8166445344        1.1498514131        1.6404561725
 N         -0.9479448629        0.6930885823        0.3591833718
 C         -1.8061182140        1.3436617286       -0.6190398359
 H         -1.9868735953        0.6121797809       -1.4209805610
 C         -1.0315488076        2.5172858164       -1.2204094510
 C         -3.1304888547        1.7120253236        0.0209655056
 C         -3.5326554984        3.0190197543        0.1303741277
 C         -4.7552480713        3.3652849661        0.7238217382
 C         -5.5798047840        2.3966082204        1.2147988316
 C         -5.2134550096        1.0378939079        1.1263656220
 C         -6.0613381138        0.0277312001        1.6267409136
 C         -5.7137404386       -1.2898569555        1.5393497386
 C         -4.4968594690       -1.6484395085        0.9438223439
 C         -3.6526550209       -0.6921979094        0.4520642909
 C         -3.9761594594        0.6804320220        0.5233484236
 C         -0.1316852219       -0.3578626351        0.1290459775
 Ni        -0.0021645718       -1.4705483336       -1.6764919548
 C          1.2431840066       -2.7605880215       -1.5882202269
 O          1.9672019896       -3.6384305825       -1.6888820131
 C         -1.5749857860       -2.2975429925       -1.9143556692
 O         -2.4934193044       -2.9330711627       -2.1472828758
 C          0.3958760724       -0.2886894480       -2.9564104705
 O          0.6790317612        0.4069207426       -3.8166547402
 H          3.9620870638        2.7786724968       -1.5142879811
 H          2.7584995549        1.7427760303       -2.2903189786
 H          4.3956369245        1.8396836990       -2.9333698580
 H          5.2563342878        0.8171756956       -0.8085856454
 H          3.1848965574       -0.8816152390       -2.2595674767
 H          4.6630786966       -1.4654100779       -1.4856620756
 H          4.7640020978       -0.4573878411       -2.9190380323
 H          2.4546029321        1.6175922311        1.7109080563
 H          2.8375622689        2.6209213401        0.3224735274
 H          4.4146152291        3.0600618499        2.1608522224
 H          5.2674189133        2.3484896237        0.7968227916
 H          3.2513741108        0.6648837884        3.6392780342
 H          4.2917654234        1.9392111730        4.2930168509
 H          4.7396785230        0.2422911122        4.4718680250
 H          5.2032991126       -1.1233831972        2.4751825761
 H          5.8233375751       -0.3504424460        1.0161953045
 H          1.2042052374       -2.1379677337        2.4429881439
 H          1.6967607912       -2.1438687771        0.7167526339
 H          0.4970101665        0.3646175322        3.2351316715
 H         -1.3854997495        1.9757128818        2.0144567624
 H         -0.7645248442        3.2450368232       -0.4571116730
 H         -1.6142883094        3.0012066480       -1.9988990054
 H         -0.1120941247        2.1406777917       -1.6635964833
 H         -2.9129530977        3.8176735238       -0.2440176178
 H         -5.0312769227        4.4075023356        0.7863216890
 H         -6.5231462617        2.6522274614        1.6751262277
 H         -6.9972327589        0.3215681629        2.0804787431
 H         -6.3688579808       -2.0581667261        1.9224524098
 H         -4.2264615077       -2.6916579714        0.8717384466
 H         -2.7244029643       -1.0052220765        0.0009137304
  70
       -106.38244494
 C          3.8155255126        1.8241355798       -2.0179430706
 C          4.2324562637        0.6415134029       -1.1417437570
 C          4.2106118533       -0.6260010826       -1.9969190550
 C          3.3008452451        0.5113391971        0.0812625162
 H          2.3061445537        0.2785054686       -0.3207751753
 C          3.1989905580        1.7853867905        0.9262161511
 C          4.5327599440        2.1415415876        1.5738735330
 C          5.0473129191        1.0222338189        2.4848818185
 H          6.0948676598        1.2421197157        2.7273380084
 C          4.2796093179        0.9655794953        3.8040434032
 C          5.0211637508       -0.3279735381        1.7566958210
 C          3.7109006237       -0.6335814413        1.0253682272
 H          3.8433335784       -1.5589231518        0.4455874830
 O          2.7221303307       -0.9079230992        2.0240298784
 C          1.5489008176       -1.5147892567        1.6058902210
 N          0.5097210024       -0.5483896240        1.3048606101
 C          0.1002693465        0.3628144420        2.2412245562
 C         -0.8169248383        1.1515387742        1.6409872803
 N         -0.9486401216        0.6950660225        0.3596626965
 C         -1.8076014746        1.3454429711       -0.6179744878
 H         -1.9875586097        0.6143323925       -1.4204454087
 C         -1.0344116388        2.5203657320       -1.2185902063
 C         -3.1324317305        1.7117828905        0.0222881401
 C         -3.5365111306        3.0181910017        0.1316652660
 C         -4.7597377272        3.3626998877        0.7248263225
 C         -5.5830026364        2.3928415093        1.2156285880
 C         -5.2146424432        1.0346599188        1.1273181470
 C         -6.0611740630        0.0233119533        1.6276049401
 C         -5.7117027348       -1.2937870599        1.5403246483
 C         -4.4942681425       -1.6506481134        0.9449080151
 C         -3.6513423162       -0.6932266710        0.4532486540
 C         -3.9767241698        0.6789627386        0.5245113833
 C         -0.1324984667       -0.3558735740        0.1290414045
 Ni        -0.0025846375       -1.4668230954       -1.6775558931
 C          1.2400771874       -2.7594025082       -1.5886120299
 O          1.9620580407       -3.6390278419       -1.6882147969
 C         -1.5766639393       -2.2902777412       -1.9198075713
 O         -2.4958476698       -2.9233185591       -2.1564213501
 C          0.3992110111       -0.2837104179       -2.9550820378
 O          0.6844000527        0.4133266314       -3.8135114032
 H          3.9719267688        2.7739248759       -1.5145411282
 H          2.7655822604        1.7414029369       -2.2907718030
 H          4.4032155570        1.8333636381       -2.9332719941
 H          5.2600227630        0.8091602262       -0.8075372915
 H          3.1854589533       -0.8842394363       -2.2603757236
 H          4.6609815229       -1.4721254527       -1.4845664688
 H          4.7665743028       -0.4645879743       -2.9179453008
 H          2.4573492137        1.6169330231        1.7091623091
 H          2.8425731920        2.6186502449        0.3201728230
 H          4.4191245762        3.0571054987        2.1591295620
 H          5.2717958047        2.3430791026        0.7962999606
 H          4.7385426587        0.2408897328        4.4728349529
 H          3.2514214961        0.6647545008        3.6387571168
 H          4.2930131621        1.9382592057        4.2921847979
 H          5.2015446259       -1.1271477652        2.4776651748
 H          5.8239186977       -0.3563832647        1.0185428481
 H          1.2017600236       -2.1373488934        2.4423344313
 H          1.6949020700       -2.1431454832        0.7163028621
 H          0.4972178626        0.3658910804        3.2350718836
 H         -1.3856442762        1.9773338026        2.0153455461
 H         -0.7684563217        3.2480122917       -0.4548255947
 H         -1.6175781238        3.0040224893       -1.9969275185
 H         -0.1144068744        2.1451509817       -1.6618233335
 H         -2.9179474755        3.8177494991       -0.2426736221
 H         -5.0372791070        4.4045166563        0.7872647073
 H         -6.5268020394        2.6470958651        1.6757734801
 H         -6.9976059524        0.3158366237        2.0810833795
 H         -6.3658328432       -2.0630219872        1.9232602897
 H         -4.2223832009       -2.6934853987        0.8728544280
 H         -2.7226110897       -1.0050294123        0.0022482683
  70
       -106.38243866
 C          5.3910183229        0.8076731781       -1.4501343697
 C          4.9509682017       -0.6355707278       -1.6955962020
 C          4.1388544864       -0.7182597634       -2.9864813024
 C          4.2292228510       -1.2169996687       -0.4626636430
 H          4.8383899570       -0.9610676877        0.4120461249
 C          4.1460627954       -2.7463665309       -0.5152307335
 C          3.1837227389       -3.2398115315        0.5574403331
 C          1.7428310346       -2.8978964593        0.1690886923
 H          1.3850049679       -3.6494885597       -0.5442625502
 C          0.8322220031       -2.9470034747        1.3918877102
 C          1.6896875812       -1.5298334516       -0.5310813995
 C          2.8470794668       -0.5897511718       -0.1855838312
 H          2.7266578036        0.3176198419       -0.7926910535
 O          2.8352767487       -0.1812812330        1.1900787292
 C          2.1970954627        1.0104938759        1.4826684127
 N          0.7726974045        0.8544875842        1.7107866283
 C          0.2918394084        0.1799924749        2.8002734976
 C         -1.0511478589        0.1386897356        2.6704286657
 N         -1.3554451390        0.7898001029        1.5063855390
 C         -2.7294713367        0.9484253875        1.0524298858
 H         -2.6869233261        1.2611659058        0.0015313513
 C         -3.3859242445        2.0773885131        1.8451191385
 C         -3.4193571544       -0.3985355690        1.1392243424
 C         -4.3911304387       -0.6492544753        2.0737815238
 C         -4.9827471614       -1.9150762349        2.1943938885
 C         -4.5843275234       -2.9389237433        1.3862493252
 C         -3.5944010715       -2.7297344012        0.4040473655
 C         -3.1792963940       -3.7807883847       -0.4402100042
 C         -2.2340700589       -3.5764325394       -1.4043188066
 C         -1.6732006023       -2.3028277513       -1.5689003764
 C         -2.0468863483       -1.2659794883       -0.7595240312
 C         -3.0083565243       -1.4419694265        0.2601322414
 C         -0.2399201518        1.2486062397        0.9014968314
 Ni        -0.0906255092        2.4521884050       -0.8331446583
 C          1.0879344037        3.7441478409       -0.4490301663
 O          1.7936056336        4.6151047525       -0.2331528904
 C          0.3967470789        1.3329099908       -2.1327022721
 O          0.6883576442        0.6140695860       -2.9715688925
 C         -1.6657391186        3.2502775325       -1.1627387375
 O         -2.5853793079        3.8606393216       -1.4540933141
 H          5.9832011847        1.1680118807       -2.2883236942
 H          5.9944855969        0.8788481930       -0.5479721908
 H          4.5327276039        1.4666799909       -1.3394266133
 H          5.8561597567       -1.2400405411       -1.8315074351
 H          4.7426540113       -0.3698115388       -3.8217638806
 H          3.2499509122       -0.0953636505       -2.9350346526
 H          3.8334980462       -1.7394264886       -3.1982962533
 H          5.1426427343       -3.1623296301       -0.3553063133
 H          3.7994132374       -3.0850641136       -1.4923844572
 H          3.4299693843       -2.7488580258        1.5006425646
 H          3.2825335939       -4.3177021622        0.6985402365
 H         -0.2009284911       -2.7425529975        1.1151414338
 H          1.1500810565       -2.2101200941        2.1240061707
 H          0.8742854747       -3.9314435324        1.8537949808
 H          0.7468090740       -1.0343934484       -0.2940347034
 H          1.7188424406       -1.6706364388       -1.6120247342
 H          2.3245037981        1.7532154181        0.6793115314
 H          2.6488735639        1.3863585082        2.4098240539
 H          0.9408777953       -0.2012898849        3.5610098305
 H         -1.8016454124       -0.3025547115        3.2927525076
 H         -4.4166971505        2.2107286845        1.5287755108
 H         -2.8428226476        3.0013735974        1.6549412276
 H         -3.3569804713        1.8827102511        2.9147519692
 H         -4.7220689256        0.1297327327        2.7423098259
 H         -5.7473083401       -2.0684806615        2.9415284640
 H         -5.0215468330       -3.9222085029        1.4820047016
 H         -3.6311681582       -4.7536787658       -0.3087583318
 H         -1.9210319310       -4.3855726484       -2.0472957970
 H         -0.9395608453       -2.1408899922       -2.3442598387
 H         -1.5976490284       -0.2968937050       -0.9202528430
  70
       -106.38242029
 C          5.3447002232        1.5853810713       -1.5891193363
 C          5.4224946489        0.1601426101       -1.0422259315
 C          5.0271332553       -0.8224227254       -2.1419340068
 C          4.6099291932       -0.0207173964        0.2613018346
 H          4.7386029509        0.8895201550        0.8609368813
 C          5.1721865300       -1.1938382502        1.0744601987
 C          4.4495979024       -1.3728911846        2.4048370880
 C          2.9560469095       -1.6001754154        2.1835263405
 H          2.8219305605       -2.5122781855        1.5921871726
 C          2.2179768138       -1.7647248975        3.5083407656
 C          2.3891728691       -0.4215457978        1.3953023788
 C          3.1036728252       -0.2610088216        0.0519087508
 H          2.9705969993       -1.1869587453       -0.5164811771
 O          2.4849413183        0.7096121304       -0.7957228833
 C          2.2332147778        1.9736836552       -0.2931793718
 N          0.9921512558        2.0614610163        0.4605173637
 C          0.8930857849        2.6421797246        1.6955589365
 C         -0.4002729384        2.5338883282        2.0751434723
 N         -1.0570554532        1.8959265997        1.0602990677
 C         -2.4591485150        1.5169732995        1.0551661137
 H         -2.8145914953        1.7385185263        0.0426969480
 C         -3.2820958720        2.3169667478        2.0621451482
 C         -2.6008210669        0.0281221204        1.3183959184
 C         -1.7584195676       -0.5780369081        2.2164662699
 C         -1.8350568123       -1.9517274214        2.4777884221
 C         -2.7538452753       -2.7209096987        1.8256296448
 C         -3.6555792610       -2.1384391026        0.9123356221
 C         -4.6161932803       -2.9266821862        0.2446098614
 C         -5.5069044618       -2.3642583528       -0.6236039856
 C         -5.4801467558       -0.9808377608       -0.8480856895
 C         -4.5582448602       -0.1905428117       -0.2205333304
 C         -3.6029044381       -0.7386838975        0.6640280947
 C         -0.2099792571        1.5974740841        0.0489537735
 Ni        -0.6252871645        0.4650334706       -1.6614081813
 C          0.7062489185        0.7203588216       -2.8423042232
 O          1.5364377141        0.8232245976       -3.6172197320
 C         -0.6242034709       -1.1704582000       -0.9736379141
 O         -0.5778275058       -2.1998918740       -0.4785539497
 C         -2.1921874067        0.9465377867       -2.3918359544
 O         -3.1461569831        1.1622435694       -2.9845307182
 H          5.5867311900        2.3162545495       -0.8191917496
 H          4.3511746291        1.7916522208       -1.9746968682
 H          6.0553677111        1.7063819078       -2.4039036063
 H          6.4705095306       -0.0302521615       -0.7767547233
 H          5.0595955539       -1.8497018203       -1.7874241514
 H          5.7177426107       -0.7324116679       -2.9776220713
 H          4.0260049279       -0.6040202506       -2.5031110927
 H          6.2353216771       -1.0241757351        1.2592232375
 H          5.0785598701       -2.1122100974        0.4920159085
 H          4.5911136144       -0.4819235858        3.0224624017
 H          4.8790849090       -2.2205842574        2.9427511274
 H          1.1587511642       -1.9323445917        3.3309137814
 H          2.3279809542       -0.8719947271        4.1216498807
 H          2.6133278015       -2.6122339830        4.0635489765
 H          2.5061768710        0.4851530247        1.9948296847
 H          1.3236636690       -0.5753359876        1.2072050080
 H          2.1470609840        2.6314685401       -1.1697760949
 H          3.0379160487        2.3432893203        0.3571634670
 H          1.7306209865        3.0859103653        2.1944488579
 H         -0.8793882870        2.8637583936        2.9723377642
 H         -3.1307908111        3.3858611725        1.9245548197
 H         -3.0269956963        2.0414635916        3.0832197289
 H         -4.3352155173        2.0934985068        1.9114525061
 H         -1.0042999508        0.0037517197        2.7295463372
 H         -1.1549458235       -2.3953658185        3.1904552367
 H         -2.8069720168       -3.7855983743        2.0009750805
 H         -4.6315919263       -3.9900515193        0.4375558136
 H         -6.2367366056       -2.9741858894       -1.1352638868
 H         -6.1963178822       -0.5390540587       -1.5253607920
 H         -4.5759024946        0.8719335165       -0.4080830586
  70
       -106.38241405
 C          6.8984947382        0.5667266145        0.6560827405
 C          5.6241778699        0.4477972434       -0.1833215902
 C          5.3805060755        1.7931776712       -0.8647485263
 C          4.4597996143       -0.0703089948        0.6971599778
 H          4.5029040656        0.4393222706        1.6648788663
 C          4.6456455142       -1.5799309954        0.9020199990
 C          3.5539188542       -2.2071664527        1.7568830470
 C          2.1973883528       -2.0079264047        1.0911285171
 H          2.2213259135       -2.4687193208        0.0969172493
 C          1.0774875271       -2.6527073499        1.9000880948
 C          1.9551248585       -0.5120721233        0.9274543986
 C          3.0555322608        0.1973517842        0.1270965910
 H          3.0169604331       -0.1384680694       -0.9205641252
 O          2.8316463723        1.6093060315        0.1776331177
 C          1.8867829059        2.1298375016       -0.6891946297
 N          0.5597401986        2.2040042186       -0.1078570222
 C          0.3060759703        3.0027478738        0.9722930063
 C         -1.0088499146        2.8745729724        1.2514611783
 N         -1.5263046732        1.9941249741        0.3375306692
 C         -2.9281732857        1.6100938051        0.2423066949
 H         -3.2321207520        1.8477863978       -0.7867876249
 C         -3.8242660700        2.4127595740        1.1861392307
 C         -3.1809517189        0.1251619254        0.4440318457
 C         -4.0014981658       -0.4945937524       -0.4692963787
 C         -4.3676549653       -1.8395941047       -0.3439762383
 C         -3.9102145474       -2.5716280212        0.7126782075
 C         -3.0836021947       -1.9784619272        1.6880025379
 C         -2.6356889130       -2.7287399517        2.7956689685
 C         -1.8548171833       -2.1636214238        3.7619214582
 C         -1.4805485161       -0.8181625023        3.6479919382
 C         -1.8895762204       -0.0668749226        2.5817301028
 C         -2.7074382704       -0.6099780672        1.5658934934
 C         -0.5647658852        1.5716804613       -0.5163865187
 Ni        -0.7885467122        0.2023779243       -2.1034983373
 C         -2.1132531502        0.8665884776       -3.1001515482
 O         -2.9315790156        1.2918197831       -3.7746684221
 C          0.6934974644        0.0128174876       -3.1046625249
 O          1.5334558018       -0.2594517054       -3.8311584797
 C         -1.1137770948       -1.3527860928       -1.2884904625
 O         -1.2486876180       -2.3701870609       -0.7892933116
 H          7.7362219286        0.8570831878        0.0259508720
 H          7.1553982856       -0.3709120873        1.1406566296
 H          6.7701622560        1.3269746850        1.4237306297
 H          5.7972484245       -0.2943101223       -0.9719962293
 H          6.2891699194        2.1054713854       -1.3769311116
 H          5.1154718691        2.5516077938       -0.1338891947
 H          4.5873610487        1.7296283812       -1.6036640036
 H          5.6151963332       -1.7664684972        1.3641184076
 H          4.6461511319       -2.0669922703       -0.0767471763
 H          3.5444507863       -1.7459928944        2.7470638668
 H          3.7566979612       -3.2726978275        1.8844394836
 H          1.2506217901       -3.7214156566        2.0044385426
 H          0.1164207312       -2.5072416556        1.4136510903
 H          1.0246178203       -2.2139008388        2.8941448242
 H          1.8956374883       -0.0423945364        1.9129870302
 H          0.9983162882       -0.3561536871        0.4206577596
 H          1.8088082100        1.5517032403       -1.6211157384
 H          2.2050630253        3.1564557140       -0.9196309322
 H          1.0762921154        3.5785143138        1.4414216982
 H         -1.5899413058        3.3474411534        2.0145886596
 H         -3.7124759207        3.4816230838        1.0158286079
 H         -3.6160287146        2.1821300183        2.2279519401
 H         -4.8584902383        2.1427966125        0.9863917586
 H         -4.3831419047        0.0666229820       -1.3108255322
 H         -5.0054805155       -2.2860299883       -1.0920741598
 H         -4.1770572411       -3.6126705433        0.8225451681
 H         -2.9295437520       -3.7663818703        2.8634653565
 H         -1.5201465502       -2.7436830835        4.6090762798
 H         -0.8602805793       -0.3721379453        4.4123810687
 H         -1.5727693478        0.9605702937        2.5286366414
  70
       -106.38238867
 C          4.1445662229        3.5107359199       -0.6502116192
 C          3.0730054075        2.4538486960       -0.3884945519
 C          2.0698732586        2.9716511386        0.6402457436
 C          3.6330213150        1.0816180512        0.0432960936
 H          2.7981889308        0.5086115252        0.4661791550
 C          4.7266774952        1.1957042011        1.1082823572
 C          5.2492139049       -0.1701107266        1.5386983879
 C          5.8214465649       -0.9231473204        0.3398895121
 H          6.6397285267       -0.3329247908       -0.0886623654
 C          6.3652350678       -2.2880129662        0.7513306727
 C          4.7221501485       -1.0757846750       -0.7093851970
 C          4.1751024195        0.2844957836       -1.1531813146
 H          4.9854577024        0.8506997228       -1.6265295406
 O          3.2408929341        0.1497169056       -2.2316295743
 C          2.0756593570       -0.5812198071       -2.0207031860
 N          0.9267260355        0.2706335124       -1.7707291061
 C          0.6184168449        1.3163016804       -2.5969795043
 C         -0.4906962650        1.8917773743       -2.0864462335
 N         -0.8348749057        1.1839379075       -0.9661084744
 C         -2.0004072220        1.5489510132       -0.1794649796
 H         -2.3092152256        2.5321508126       -0.5591475872
 C         -1.6128597991        1.6984322247        1.2981016987
 C         -3.1713359739        0.6001767837       -0.3786699881
 C         -3.0317464592       -0.5857184877       -1.0528575169
 C         -4.0948964687       -1.4919132273       -1.1743780998
 C         -5.3060367212       -1.2069506626       -0.6177381124
 C         -5.5171798050        0.0269853493        0.0314067767
 C         -6.7816604886        0.3515216928        0.5655912596
 C         -7.0084578766        1.5619743916        1.1550735588
 C         -5.9755213718        2.5069287613        1.2153437711
 C         -4.7339994229        2.2163372738        0.7209378845
 C         -4.4503893619        0.9620297004        0.1340652303
 C          0.0344905048        0.1647909240       -0.7578784699
 Ni        -0.0035243011       -1.4893383537        0.5998053774
 C          0.1995077522       -2.9205667957       -0.4586479287
 O          0.2426682319       -3.8476426061       -1.1242348167
 C          1.2590998280       -1.2351124984        1.8405845481
 O          2.0065685153       -1.1528429270        2.7011295025
 C         -1.6273747549       -1.6378776547        1.3738736859
 O         -2.5998638480       -1.8885576937        1.9128587099
 H          4.6278339739        3.8195497768        0.2731411222
 H          3.6846558416        4.3897609235       -1.0976183921
 H          4.9007848214        3.1409122588       -1.3379926210
 H          2.5391243483        2.2980657661       -1.3310838032
 H          1.3065733292        2.2225814005        0.8383712854
 H          1.5843757017        3.8744098602        0.2743926913
 H          2.5658853105        3.2104804098        1.5782077244
 H          4.3290201533        1.7237669678        1.9761719085
 H          5.5622174017        1.7739203129        0.7108021086
 H          4.4416305897       -0.7552871951        1.9822712258
 H          6.0221029165       -0.0410837958        2.2993233291
 H          7.1547437616       -2.1759467828        1.4907875055
 H          6.7717935954       -2.8151746091       -0.1088154230
 H          5.5745652779       -2.8967668986        1.1848983403
 H          3.9219967677       -1.6782486500       -0.2729912157
 H          5.1007886289       -1.6045139205       -1.5871726133
 H          2.1492449993       -1.2843080410       -1.1827674139
 H          1.8855631279       -1.1424292107       -2.9475478931
 H          1.2153954525        1.5512311903       -3.4534429415
 H         -1.0538399257        2.7362989602       -2.4271444050
 H         -1.0342246940        2.6080645117        1.4451595196
 H         -1.0059545517        0.8479939268        1.6057891448
 H         -2.4945682023        1.7313343295        1.9294393911
 H         -2.0871460182       -0.8564265301       -1.5017158515
 H         -3.9322193016       -2.4221042125       -1.6982439785
 H         -6.1242215905       -1.9097534959       -0.6779262065
 H         -7.5732821724       -0.3801996971        0.4895071728
 H         -7.9791380869        1.8037564904        1.5618622766
 H         -6.1667542958        3.4750758812        1.6549712494
 H         -3.9698398470        2.9761941107        0.7683221078
  70
       -106.38223904
 C          3.2531621121       -0.2000530958       -2.9283682486
 C          2.6886765647       -1.4322218128       -2.2245425105
 C          1.1992652757       -1.2417436648       -1.9554526051
 C          3.5095964880       -1.7694023556       -0.9599661253
 H          4.5405441913       -1.4540967109       -1.1510749139
 C          3.5120834397       -3.2780474654       -0.6916821072
 C          4.4389521768       -3.6421525127        0.4629961054
 C          4.0410746200       -2.9006177482        1.7367552875
 H          3.0282154649       -3.2136287899        2.0193153830
 C          4.9915399413       -3.2288939535        2.8848530399
 C          4.0224420524       -1.3978472383        1.4609646214
 C          3.0517127572       -1.0582133688        0.3229041081
 H          2.0477784599       -1.4191587445        0.5923606991
 O          2.9926020282        0.3449516120        0.0675946546
 C          2.4112140493        1.1428557471        1.0440262205
 N          1.0263306871        0.8303985799        1.3321724176
 C          0.6523007585        0.0037740229        2.3608018646
 C         -0.6974917537       -0.0350937199        2.3607754288
 N         -1.1134944657        0.7594117035        1.3296649352
 C         -2.5168863752        1.0714719307        1.0988055809
 H         -2.6012874767        1.4093999365        0.0557779188
 C         -2.8949949728        2.2503049159        1.9972557691
 C         -3.3650699941       -0.1698041758        1.2919953009
 C         -4.2498053150       -0.2739159885        2.3356982017
 C         -5.0442977662       -1.4152649790        2.5161222460
 C         -4.9548577540       -2.4590692701        1.6432367165
 C         -4.0607814693       -2.4022168309        0.5545282821
 C         -3.9682484201       -3.4727384137       -0.3591769628
 C         -3.1100397728       -3.4181909611       -1.4197482031
 C         -2.3000438668       -2.2889305777       -1.6010533068
 C         -2.3586169726       -1.2389752624       -0.7270497650
 C         -3.2451462026       -1.2512468024        0.3719830989
 C         -0.0638679154        1.3037743488        0.6787459852
 Ni        -0.1475619254        2.5777409942       -1.0032237878
 C         -0.8947533158        4.0955941818       -0.4284699902
 O         -1.3202051315        5.1045378728       -0.1029272041
 C          1.5065283553        2.9008942615       -1.6227990469
 O          2.4834420656        3.2047740554       -2.1260142750
 C         -1.0356081739        1.7393540434       -2.3095578391
 O         -1.4987699305        1.2853432979       -3.2493362947
 H          3.2598222757        0.6437955467       -2.2469112543
 H          2.6453903890        0.0516447215       -3.7948747971
 H          4.2714056760       -0.3824186592       -3.2659844145
 H          2.7980350971       -2.2852021304       -2.9066302240
 H          0.7883684796       -2.0674458396       -1.3775237546
 H          0.6635195916       -1.1875336570       -2.9011768027
 H          1.0259377523       -0.3089023297       -1.4214550932
 H          3.8369013139       -3.8023113779       -1.5924207749
 H          2.4957402888       -3.6082197260       -0.4632560176
 H          5.4656465612       -3.3771278759        0.2005072307
 H          4.4064310925       -4.7197579098        0.6370929018
 H          6.0054611366       -2.9226299413        2.6369262029
 H          4.9953721959       -4.2984293827        3.0815259284
 H          4.6912897796       -2.7144791214        3.7953565897
 H          5.0221429574       -1.0573611466        1.1828327526
 H          3.7368804222       -0.8719626551        2.3750905927
 H          2.4607753058        2.1643215839        0.6500383090
 H          2.9582534537        1.0962025595        1.9990348058
 H          1.3630951165       -0.4721151111        3.0045386900
 H         -1.3836606135       -0.5594378223        2.9932828743
 H         -2.2719277277        3.1031826226        1.7371242096
 H         -2.7284015795        2.0177394911        3.0469668745
 H         -3.9348889241        2.5246486895        1.8448290483
 H         -4.3589789812        0.5302243807        3.0454200717
 H         -5.7274562789       -1.4524147870        3.3517437664
 H         -5.5661542641       -3.3409713439        1.7689704966
 H         -4.5976384225       -4.3373587054       -0.2027142109
 H         -3.0491333471       -4.2377213074       -2.1205229358
 H         -1.6248555665       -2.2502236514       -2.4421271455
 H         -1.7116310871       -0.3915440907       -0.8902359085
  70
       -106.38221138
 C          5.8328930235        2.3985914177       -1.0650473012
 C          5.0525830469        1.4638608707       -0.1431304303
 C          6.0105096383        0.5015455244        0.5575764990
 C          3.9257406968        0.6919915239       -0.8594359752
 H          3.6045400155       -0.1121716191       -0.1863763119
 C          4.3576915430        0.0411091378       -2.1755639610
 C          3.2311693285       -0.8017773567       -2.7652000561
 C          1.9894255794        0.0498967128       -3.0247372844
 H          2.2400003953        0.8199793647       -3.7638233246
 C          0.8460656093       -0.8018720004       -3.5694929859
 C          1.5678465208        0.7354672408       -1.7257928288
 C          2.7052517692        1.5824018591       -1.1502180761
 H          2.9867842749        2.3454687944       -1.8850070748
 O          2.2944578592        2.3833478844       -0.0373374176
 C          1.8143943972        1.7391746550        1.0975102717
 N          0.4064125487        1.4104327031        0.9767682734
 C         -0.5164611850        2.3406705166        0.5884551050
 C         -1.6870432859        1.6842730467        0.4381530402
 N         -1.4462431844        0.3648721717        0.7194754592
 C         -2.4609366547       -0.6835329137        0.6542658320
 H         -2.6070569897       -1.0334047343        1.6861262230
 C         -2.0044598502       -1.8929019988       -0.1724996983
 C         -3.7940940263       -0.1873678360        0.1390697361
 C         -4.8845587476       -0.3172143310        0.9627992689
 C         -6.1759208158        0.0248904329        0.5410662233
 C         -6.3751204336        0.4943040164       -0.7242118155
 C         -5.2871878004        0.6570486758       -1.6065597043
 C         -5.4909898198        1.1549496890       -2.9112140167
 C         -4.4442995975        1.3342949697       -3.7687971512
 C         -3.1428287127        1.0311950134       -3.3460538507
 C         -2.9114164396        0.5433801089       -2.0902792593
 C         -3.9714890569        0.3238014675       -1.1793232752
 C         -0.1574789862        0.1848998405        1.0914068949
 Ni         0.7970706654       -1.4388080509        2.0653330481
 C          1.7608986149       -0.6995935080        3.3904049748
 O          2.3499254839       -0.2850936120        4.2755107917
 C         -0.4774227902       -2.4442733843        2.8347781989
 O         -1.2049572758       -3.1022704441        3.4176063632
 C          1.7754595522       -2.2996296630        0.8481593497
 O          2.4133439624       -2.8689829012        0.0898239793
 H          5.1634823042        3.0700727155       -1.5962486759
 H          6.4177335989        1.8362128298       -1.7884622940
 H          6.5184532007        3.0036710619       -0.4757044159
 H          4.5750199480        2.0821926251        0.6256055390
 H          6.5269252592       -0.1268358372       -0.1642729005
 H          5.4752929790       -0.1426271374        1.2523751111
 H          6.7587654173        1.0578292625        1.1175015602
 H          5.2293643876       -0.5910357593       -2.0016520008
 H          4.6351492411        0.8136766971       -2.8945946277
 H          2.9765065877       -1.6078887843       -2.0745170026
 H          3.5654480741       -1.2586796009       -3.6991124509
 H          0.5736390726       -1.5726279997       -2.8509702327
 H          1.1398420939       -1.2881908513       -4.4967282662
 H         -0.0314465342       -0.1897179123       -3.7667872891
 H          1.2860971070       -0.0353029483       -1.0033809751
 H          0.6991749153        1.3756581035       -1.9040241660
 H          1.9422041526        2.4517224845        1.9229460562
 H          2.3553754151        0.8115586513        1.3274819072
 H         -0.2553279228        3.3681744858        0.4450242168
 H         -2.6523581926        2.0548526573        0.1661549324
 H         -2.7216304188       -2.6985162459       -0.0360883533
 H         -1.0284879140       -2.2331128501        0.1727219817
 H         -1.9438531427       -1.6649445646       -1.2313196665
 H         -4.7519586919       -0.7017393471        1.9642408549
 H         -7.0041942907       -0.0945524999        1.2230217348
 H         -7.3656818262        0.7515387674       -1.0700130227
 H         -6.4993322984        1.3962067874       -3.2156927940
 H         -4.6079024220        1.7151115522       -4.7658283164
 H         -2.3158120833        1.1916502976       -4.0225605960
 H         -1.8939817871        0.3435257382       -1.7948301573
  70
       -106.38216371
 C          4.2616449063       -0.6000967735       -3.0189818786
 C          4.9604025469       -0.3632180671       -1.6816745020
 C          6.4169969827       -0.8170245317       -1.7741650362
 C          4.2531433854       -1.0237821138       -0.4807423005
 H          4.8413223410       -0.7714032596        0.4094808554
 C          4.1863385150       -2.5515149329       -0.5556377718
 C          3.2366298970       -3.0638615122        0.5202179316
 C          1.7879250439       -2.7370552886        0.1494541461
 H          1.4268071825       -3.4944300574       -0.5560684987
 C          0.8948265886       -2.7908205542        1.3847088261
 C          1.7133921473       -1.3738481778       -0.5577755183
 C          2.8570554949       -0.4131785919       -0.2221557046
 H          2.7346101653        0.4822977223       -0.8497102123
 O          2.8316718714        0.0251317206        1.1432409614
 C          2.1374993130        1.1920925331        1.4129891495
 N          0.7296170472        0.9699006604        1.6839880899
 C          0.3123428703        0.2920771796        2.7972730132
 C         -1.0300101751        0.1825291019        2.7053233536
 N         -1.3975998917        0.7982364619        1.5402005422
 C         -2.7885883875        0.8749516744        1.1184642259
 H         -2.7885999427        1.1903955650        0.0678465891
 C         -3.4943185343        1.9623672468        1.9264667132
 C         -3.3928219645       -0.5116572020        1.2169909523
 C         -4.3158812424       -0.8257108438        2.1812747645
 C         -4.8264099027       -2.1253812064        2.3114236336
 C         -4.3949530286       -3.1183598919        1.4820058874
 C         -3.4524380210       -2.8444168378        0.4695345133
 C         -3.0039826061       -3.8639843553       -0.3960070934
 C         -2.1045201319       -3.5982952532       -1.3884871609
 C         -1.6249781907       -2.2928785402       -1.5604932797
 C         -2.0324800674       -1.2845359208       -0.7315937359
 C         -2.9488221576       -1.5231227135        0.3167795667
 C         -0.3230218409        1.3005856636        0.8975134344
 Ni        -0.2721995223        2.5031170444       -0.8424428130
 C          0.7569934196        3.9020886971       -0.4102401035
 O          1.3657069789        4.8292215699       -0.1405671045
 C          0.3520781244        1.4439931999       -2.1344156761
 O          0.7215011831        0.7622711065       -2.9735981158
 C         -1.9097637713        3.1369576532       -1.2220650096
 O         -2.8719806937        3.6546949696       -1.5530823427
 H          4.7722727014       -0.0423805026       -3.8012861813
 H          3.2275402628       -0.2681188318       -2.9916126653
 H          4.2827902066       -1.6520671598       -3.2915105159
 H          4.9604313654        0.7174806487       -1.4907442112
 H          6.9420656935       -0.2368929744       -2.5297482032
 H          6.4778486886       -1.8661599802       -2.0514562400
 H          6.9258227677       -0.6789669724       -0.8228622985
 H          5.1837000419       -2.9639421298       -0.3997899350
 H          3.8330684106       -2.8810490337       -1.5328183513
 H          3.4856623443       -2.5785125673        1.4657982677
 H          3.3494756554       -4.1416323985        0.6520222032
 H          1.2174074023       -2.0509874697        2.1117173071
 H          0.9509091125       -3.7744772903        1.8468246609
 H         -0.1436372807       -2.5950288156        1.1224918429
 H          0.7632679220       -0.8909580945       -0.3237798693
 H          1.7422215817       -1.5241267705       -1.6376193523
 H          2.2057135800        1.9115552783        0.5813589456
 H          2.5913306745        1.6229246943        2.3151173073
 H          0.9999527860       -0.0434229796        3.5456149518
 H         -1.7404575995       -0.2852158642        3.3546899738
 H         -3.4253749266        1.7742435514        2.9953963194
 H         -4.5394422766        2.0283906885        1.6371290778
 H         -3.0163566030        2.9182348498        1.7196336404
 H         -4.6701843184       -0.0715580104        2.8661989246
 H         -5.5548831779       -2.3289970900        3.0822461938
 H         -4.7694507276       -4.1265986913        1.5839522789
 H         -3.3931518957       -4.8626753339       -0.2576568983
 H         -1.7656739121       -4.3835952915       -2.0477619024
 H         -0.9271794032       -2.0832466439       -2.3572618194
 H         -1.6443057804       -0.2902957829       -0.8990978206
  70
       -106.38215951
 C          4.3352217708        2.0453671324       -2.9530138268
 C          3.5625823432        1.0602420954       -2.0737944252
 C          2.0892129927        1.4708894793       -2.0732691656
 C          4.1426319644        1.0104652232       -0.6459887056
 H          3.8957136376        1.9549667403       -0.1474642959
 C          5.6709162085        0.8600499107       -0.6432980088
 C          6.1472266526        0.3465300923        0.7104599054
 C          5.7466904930       -1.1198068568        0.8944151774
 H          6.4788626744       -1.7518101235        0.3787268929
 C          5.7511271285       -1.4957412011        2.3734624133
 C          4.3712153899       -1.3667566333        0.2541326326
 C          3.5038286610       -0.1077973001        0.2067140625
 H          2.5323273479       -0.3841789367       -0.2202389071
 O          3.2831522312        0.4017881233        1.5330262843
 C          2.0483293875        0.1150996559        2.0896278468
 N          1.0033091141        0.9386008802        1.5144147331
 C          0.9631602844        2.2915515576        1.7158015733
 C         -0.0623058292        2.7658481052        0.9747886875
 N         -0.6152217361        1.6935474985        0.3310149103
 C         -1.7657683388        1.7369185506       -0.5536681833
 H         -1.5219249623        1.0609363921       -1.3809790127
 C         -2.0128227191        3.1357798542       -1.1143733583
 C         -3.0055617315        1.2262728925        0.1575765245
 C         -3.1703496709        1.4876527826        1.4946135439
 C         -4.2904520346        1.0270147053        2.1976510264
 C         -5.2486212899        0.3002121722        1.5531279245
 C         -5.1333335621        0.0249844796        0.1752556415
 C         -6.1231325413       -0.7227809549       -0.4963133941
 C         -6.0195074990       -0.9878966443       -1.8315056553
 C         -4.9197985803       -0.5036362218       -2.5532382561
 C         -3.9430187465        0.2229690144       -1.9314583081
 C         -4.0052153322        0.5025242084       -0.5481003410
 C          0.0347673015        0.5514212448        0.6528706108
 Ni        -0.5003754440       -1.3889963622        0.0060277054
 C          0.7546505937       -2.6089436001        0.4012057292
 O          1.4781293994       -3.4810401946        0.5518002271
 C         -2.0225596552       -1.6767393289        0.9009444784
 O         -2.9727131409       -1.8908519811        1.4936109751
 C         -0.7207689766       -1.3545243644       -1.7659512036
 O         -0.8624408005       -1.4449724167       -2.8961167728
 H          3.8605147848        2.1218576686       -3.9289356060
 H          5.3621032600        1.7284261076       -3.1057303494
 H          4.3400784091        3.0337664554       -2.4979971102
 H          3.6457797245        0.0603522671       -2.5149706160
 H          1.7285250945        1.5632434133       -3.0956610988
 H          1.9661445185        2.4327164870       -1.5773170780
 H          1.4616056253        0.7388970743       -1.5692940549
 H          6.1336326795        1.8242106316       -0.8556982091
 H          5.9802338693        0.1580182582       -1.4205441725
 H          5.6864396274        0.9469276580        1.4959075605
 H          7.2308912300        0.4472481577        0.7949250747
 H          5.0021990091       -0.9157482522        2.9065291941
 H          6.7257462916       -1.2913138007        2.8121121929
 H          5.5320441233       -2.5537165235        2.5032237460
 H          3.8441015339       -2.1457593526        0.8077220609
 H          4.4857641023       -1.7169833806       -0.7728370792
 H          2.1298057525        0.3482060929        3.1580341924
 H          1.7537675120       -0.9369007333        1.9628629802
 H          1.6636906724        2.7896951629        2.3532948013
 H         -0.4234416504        3.7664440197        0.8671880093
 H         -2.3654949053        3.8121592206       -0.3388536702
 H         -2.7836863788        3.0769721679       -1.8785052500
 H         -1.1069787643        3.5366582441       -1.5648425783
 H         -2.4180285787        2.0467628905        2.0337953648
 H         -4.3779905558        1.2440096490        3.2519911329
 H         -6.1092239434       -0.0760525156        2.0868769364
 H         -6.9678089128       -1.0841765939        0.0728547736
 H         -6.7782350007       -1.5656306201       -2.3384008998
 H         -4.8465292073       -0.7100843348       -3.6110414572
 H         -3.1158280364        0.5867210325       -2.5212564615
  70
       -106.38215833
 C          3.7268400082       -0.2509167296       -2.5269959898
 C          3.5930235879       -1.6874027955       -2.0226805333
 C          2.3466017957       -2.3340418128       -2.6227206614
 C          3.6482591416       -1.7493600098       -0.4824198261
 H          4.4907287972       -1.1208912934       -0.1699773070
 C          3.9392336784       -3.1680022064        0.0215970011
 C          3.6881274240       -3.2377452310        1.5224807517
 C          2.1880354812       -3.1451040075        1.8233020648
 H          1.7471747460       -4.1450595519        1.7363027263
 C          1.9655751977       -2.6520141204        3.2500536160
 C          1.4921069944       -2.2394188372        0.7938195902
 C          2.4106988672       -1.1563702703        0.2245417545
 H          1.8301920153       -0.5544410185       -0.4853249086
 O          2.8567133530       -0.2850990170        1.2788701868
 C          2.4151697465        1.0237702702        1.2013739226
 N          0.9909563398        1.1318050237        1.4463223122
 C          0.4369586468        0.7535131775        2.6403068247
 C         -0.9015301294        0.8511497570        2.4951361593
 N         -1.1294317696        1.2829130833        1.2176960560
 C         -2.4729137020        1.5105560307        0.7070464562
 H         -2.3924731009        1.5717588271       -0.3876332845
 C         -2.9664584813        2.8636412472        1.2181913331
 C         -3.3462042764        0.3252926245        1.0729706534
 C         -4.3994764504        0.4522549581        1.9423367610
 C         -5.1879348572       -0.6488014176        2.3070601059
 C         -4.9132327690       -1.8868555834        1.8056892606
 C         -3.8451159591       -2.0695031083        0.9034513841
 C         -3.5587929834       -3.3441863029        0.3714710542
 C         -2.5372652450       -3.5224575623       -0.5168592493
 C         -1.7610445173       -2.4244918270       -0.9113461335
 C         -2.0059807307       -1.1787725177       -0.4043219288
 C         -3.0497354864       -0.9546761917        0.5201339056
 C          0.0306264698        1.4673925117        0.5520391160
 Ni         0.2593675464        2.2478664864       -1.4098612407
 C          0.0268431136        0.9041586018       -2.5622597437
 O         -0.1271212522        0.1038865327       -3.3622100274
 C         -0.9735927918        3.5330518777       -1.6291768343
 O         -1.6757544140        4.3973500338       -1.8784680822
 C          1.8643907153        3.0380973171       -1.5562842686
 O          2.8290195203        3.6168013552       -1.7502866500
 H          3.7885837092       -0.2368084405       -3.6129054868
 H          4.6235977941        0.2180386030       -2.1273257545
 H          2.8665672247        0.3504586234       -2.2357032833
 H          4.4656726380       -2.2470058714       -2.3816066673
 H          2.4078906866       -2.3103460065       -3.7086691366
 H          1.4483493410       -1.7988915249       -2.3266565744
 H          2.2504670584       -3.3723036484       -2.3154090959
 H          4.9779724998       -3.4192890887       -0.2013738405
 H          3.3074353780       -3.8988591418       -0.4847509148
 H          4.2010854455       -2.4005346367        1.9986388889
 H          4.0917726213       -4.1635276438        1.9365010185
 H          2.3885081971       -1.6577518269        3.3635844846
 H          2.4530043731       -3.3179386142        3.9593718916
 H          0.9033888581       -2.6150997391        3.4860750293
 H          0.6161457989       -1.7706319756        1.2481331421
 H          1.1382727929       -2.8379763595       -0.0450985183
 H          2.6163030852        1.4738464538        0.2169597109
 H          2.9568747897        1.5758389314        1.9786648337
 H          1.0376149784        0.4444979793        3.4698113488
 H         -1.6979072792        0.6429400486        3.1793432005
 H         -3.9564822057        3.0793782121        0.8264085987
 H         -2.2838525622        3.6396138634        0.8775938531
 H         -2.9911942535        2.8912843303        2.3053271081
 H         -4.6477604427        1.4115080694        2.3674616951
 H         -6.0089937042       -0.5018400797        2.9930294803
 H         -5.5089380562       -2.7432093174        2.0867182107
 H         -4.1730022951       -4.1784605769        0.6793713483
 H         -2.3268059102       -4.5002581934       -0.9240902874
 H         -0.9663716832       -2.5665949006       -1.6289338183
 H         -1.3886799115       -0.3562914245       -0.7310981185
  70
       -106.38212814
 C          2.0904686077        3.6211774584        2.9695561418
 C          3.0206882781        2.7945199820        2.0746526120
 C          3.3285524791        3.6308639520        0.8346379182
 C          2.4323908335        1.3960222047        1.7610548206
 H          1.5255991918        1.5041287204        1.1575497574
 C          2.0656422825        0.7257111876        3.0963250317
 C          1.6403401295       -0.7311196504        2.9810554613
 C          2.7503408568       -1.5500244664        2.3363040797
 H          3.6619253846       -1.4537710814        2.9378174027
 C          2.3794077320       -3.0257024865        2.2352608256
 C          2.9891753510       -0.9649335741        0.9508935355
 C          3.4285117414        0.4967530905        0.9900172485
 H          4.3983087783        0.5621320769        1.5026722216
 O          3.7446210041        0.9847050951       -0.3289931938
 C          3.0439535899        0.5552502731       -1.4517355062
 N          1.7267869726        1.1467675046       -1.5867746608
 C          1.5660926678        2.4924612816       -1.7768655646
 C          0.2363736457        2.7306618311       -1.7882976500
 N         -0.3832029563        1.5218742467       -1.6277073067
 C         -1.8169460114        1.3178799135       -1.5117569055
 H         -2.0404526486        0.4322906611       -2.1175521721
 C         -2.6201986656        2.5005227765       -2.0484462195
 C         -2.1928559706        1.0369494773       -0.0677290179
 C         -1.4957530004        1.6501123041        0.9424687538
 C         -1.7886765592        1.4041853718        2.2894490505
 C         -2.7927027588        0.5423187092        2.6219193280
 C         -3.5566447246       -0.0884181004        1.6189516502
 C         -4.6028941977       -0.9719154770        1.9573139449
 C         -5.3469531788       -1.5841701550        0.9902959372
 C         -5.0750676956       -1.3308359112       -0.3613230362
 C         -4.0669990131       -0.4810622253       -0.7223802953
 C         -3.2684089565        0.1632918638        0.2485835796
 C          0.5261009630        0.5251232243       -1.5114142385
 Ni         0.0292338048       -1.5342331447       -1.5090273595
 C          1.4636577106       -2.5921736475       -1.7470837245
 O          2.2631885919       -3.3894487709       -1.9195093233
 C         -0.7808964642       -1.8389373480        0.0531066873
 O         -1.2810214860       -2.0996229980        1.0454567143
 C         -1.0509272027       -1.7620062397       -2.9223106015
 O         -1.7106047741       -2.0129505688       -3.8203087679
 H          2.0468332956        3.2365036163        3.9839719322
 H          1.0831929449        3.6413135434        2.5574091389
 H          2.4524891010        4.6458615177        3.0227903266
 H          3.9617643690        2.6332584966        2.6140279061
 H          3.9801713161        3.0955029528        0.1535818966
 H          3.8239207428        4.5541283057        1.1301047504
 H          2.4044510782        3.8909060164        0.3225199522
 H          1.2500503940        1.2807715585        3.5574834037
 H          2.9325228256        0.7851826680        3.7602455463
 H          0.7341185036       -0.8060291915        2.3762867980
 H          1.4104987560       -1.1176567644        3.9763020696
 H          3.1869856122       -3.5951583486        1.7805001579
 H          1.4872831597       -3.1505716727        1.6246624763
 H          2.1801406896       -3.4379835576        3.2216861370
 H          2.0443885336       -1.0446123407        0.4025231073
 H          3.7530577744       -1.5433529395        0.4241561350
 H          2.9275449501       -0.5329250986       -1.5110728688
 H          3.6566520447        0.8941136234       -2.2974427733
 H          2.4016055269        3.1491819443       -1.8958982432
 H         -0.2923340569        3.6525706904       -1.9048401937
 H         -2.3138932929        2.7493518165       -3.0626087858
 H         -2.5073802113        3.3733277265       -1.4088184490
 H         -3.6737363672        2.2327320841       -2.0606518378
 H         -0.6928547869        2.3348934022        0.7062705619
 H         -1.2088701615        1.8973798333        3.0555608841
 H         -3.0196976553        0.3314029810        3.6568383503
 H         -4.8008925789       -1.1561990164        3.0036226010
 H         -6.1432968191       -2.2635363413        1.2560711533
 H         -5.6688508893       -1.8161731839       -1.1221651371
 H         -3.8893764007       -0.3074154406       -1.7725908678
  70
       -106.38210922
 C          2.8280785899       -1.6476911735       -2.4450810283
 C          2.4002332376       -2.4952086587       -1.2490588894
 C          0.9362409197       -2.2167811470       -0.9232890232
 C          3.3490111033       -2.3008662879       -0.0456355482
 H          4.3536454907       -2.1348350146       -0.4480319243
 C          3.3811435365       -3.5603295228        0.8268274396
 C          4.4076549933       -3.4463570202        1.9479082497
 C          4.1143721797       -2.2349409504        2.8287848991
 H          3.1276147878       -2.3699410354        3.2887604606
 C          5.1545038781       -2.0935285536        3.9366261669
 C          4.0757220531       -0.9795973136        1.9593244895
 C          3.0218144202       -1.0964133804        0.8505190056
 H          2.0337004864       -1.2467243022        1.3100515586
 O          2.9925451590        0.0716441585        0.0299666884
 C          2.4963988297        1.2348729673        0.5981245845
 N          1.0874646176        1.1853940674        0.9337608746
 C          0.6354982013        0.8814543830        2.1922042054
 C         -0.7110022141        0.9806836152        2.1587036691
 N         -1.0476726913        1.3326062986        0.8817482984
 C         -2.4079406854        1.6857865920        0.4992280018
 H         -2.4695957759        1.5811828782       -0.5935953277
 C         -2.6239675622        3.1623732204        0.8365714868
 C         -3.3967083456        0.7382271932        1.1484854778
 C         -4.2469846851        1.1616354764        2.1388548420
 C         -5.1681116238        0.2914903513        2.7395587725
 C         -5.2406613178       -1.0116415712        2.3442323212
 C         -4.3891206099       -1.4966128725        1.3306193203
 C         -4.4626607616       -2.8399561141        0.9070359447
 C         -3.6456586206       -3.3102343712       -0.0807531369
 C         -2.7128453445       -2.4521185542       -0.6788027361
 C         -2.6099738794       -1.1474603406       -0.2835691230
 C         -3.4469335497       -0.6207145992        0.7239618770
 C          0.0494585666        1.4626183479        0.1057709955
 Ni         0.0952051944        1.8821826667       -1.9645229495
 C         -0.5597735021        0.4502716680       -2.8066889333
 O         -0.8642537179       -0.4391068621       -3.4545926671
 C         -0.8100003027        3.4030619177       -2.2268745899
 O         -1.3292570515        4.3879964167       -2.4820000497
 C          1.7875634414        2.0738291962       -2.5313164361
 O          2.7974747800        2.2100764434       -3.0439185471
 H          3.8439076935       -1.8912779142       -2.7485330786
 H          2.7855739882       -0.5939962383       -2.1883876311
 H          2.1658217381       -1.8293696824       -3.2891963567
 H          2.4840087332       -3.5495241037       -1.5427793854
 H          0.3149422807       -2.5382708753       -1.7559420578
 H          0.7778768401       -1.1497723063       -0.7817755726
 H          0.6096023146       -2.7486914529       -0.0318232916
 H          3.6237074304       -4.4221410404        0.2022100019
 H          2.3909396560       -3.7299268709        1.2564897878
 H          5.4061952691       -3.3434044055        1.5173428058
 H          4.3965068409       -4.3556203470        2.5526676671
 H          6.1451410359       -1.9515470230        3.5102643427
 H          5.1734829326       -2.9865614379        4.5569106229
 H          4.9295531097       -1.2396845148        4.5722897532
 H          5.0514295427       -0.8184793292        1.4958447542
 H          3.8632550127       -0.1149790710        2.5931248362
 H          2.6415313117        2.0131193147       -0.1592787010
 H          3.0365509801        1.5168320731        1.5153211913
 H          1.2977608075        0.6356385279        2.9968844290
 H         -1.4446436823        0.8247665139        2.9224401909
 H         -3.6263482163        3.4725429049        0.5554908594
 H         -1.9071394486        3.7594922342        0.2769538296
 H         -2.4664095427        3.3534121075        1.8959918864
 H         -4.2293975561        2.1850003257        2.4776862891
 H         -5.8183163161        0.6692849345        3.5147322637
 H         -5.9499226604       -1.6895627539        2.7966327022
 H         -5.1860518936       -3.4888591209        1.3801842081
 H         -3.7117378018       -4.3379485622       -0.4060509958
 H         -2.0721113911       -2.8288716734       -1.4612661995
 H         -1.8746860939       -0.5161936960       -0.7571107709
  70
       -106.38209051
 C          6.6312630874       -0.8843267530        0.6095626919
 C          5.2584826427       -0.6345958699       -0.0232346905
 C          5.2837935480        0.7490952063       -0.6747083996
 C          4.1099499278       -0.7927876608        1.0024807685
 H          4.1563422744        0.0450674156        1.7087667717
 C          4.2738539306       -2.1022856013        1.7898667489
 C          3.1419055375       -2.3649634658        2.7770545276
 C          1.7945867057       -2.4140644317        2.0653243454
 H          1.8109429223       -3.2231340080        1.3275736337
 C          0.6538815188       -2.6647704514        3.0469982008
 C          1.5995751293       -1.0880101309        1.3397625875
 C          2.7189995982       -0.8159390855        0.3303824953
 H          2.7223858749       -1.6172006554       -0.4177938814
 O          2.4314379266        0.3405912950       -0.4605200839
 C          2.1346226394        1.5282893461        0.1882457528
 N          0.7175991565        1.6675187117        0.4844756152
 C          0.2202917869        2.0072613627        1.7137344253
 C         -1.1262834379        1.9954303730        1.6046731898
 N         -1.4136773861        1.6441278029        0.3150437341
 C         -2.7780070174        1.5340093978       -0.1789859320
 H         -2.7274402421        0.9859776662       -1.1290314750
 C         -3.3083720912        2.9344452546       -0.4814785403
 C         -3.5919313156        0.7264570460        0.8122728648
 C         -4.5834098028        1.3011428901        1.5655411334
 C         -5.3085774904        0.5609580525        2.5107232039
 C         -5.0299902381       -0.7591957176        2.7101083838
 C         -4.0228485297       -1.3976353119        1.9573829094
 C         -3.7320243359       -2.7645715999        2.1502664247
 C         -2.7662742467       -3.3888427331        1.4137944603
 C         -2.0543781391       -2.6659501229        0.4457667209
 C         -2.3098637425       -1.3387445489        0.2387667277
 C         -3.2937862274       -0.6560268201        0.9875876356
 C         -0.2857088476        1.4483649484       -0.3978655521
 Ni        -0.0368536511        0.8713329336       -2.3996164499
 C          0.3253601473       -0.8649717731       -2.2618080499
 O          0.6513143093       -1.9479723919       -2.1025541017
 C         -1.4878255198        1.3559333845       -3.3492273054
 O         -2.3303008810        1.6772698403       -4.0519549513
 C          1.4275655490        1.6973422744       -3.0075798030
 O          2.3937664519        2.1429338534       -3.4196578577
 H          7.4120739802       -0.6185144835       -0.0994233470
 H          6.7740664545       -1.9270832236        0.8768633810
 H          6.7607830564       -0.2705033505        1.4989486966
 H          5.1036851041       -1.3790693200       -0.8119904780
 H          5.3470656847        1.5283393941        0.0832219714
 H          4.4004999957        0.9145000207       -1.2806278479
 H          6.1547488662        0.8347840593       -1.3209815772
 H          5.2089016787       -2.0741106782        2.3477827944
 H          4.3273177329       -2.9305024422        1.0793398266
 H          3.1207852874       -1.5739411424        3.5313997568
 H          3.3279879390       -3.3091002483        3.2933124772
 H          0.6235918044       -1.8827796144        3.8035616553
 H          0.7870504029       -3.6203916881        3.5487893432
 H         -0.3028469961       -2.6756195916        2.5298348773
 H          1.5720631639       -0.2917624896        2.0876648281
 H          0.6446383927       -1.0871190801        0.8090328776
 H          2.4253430556        2.3339752627       -0.5002192589
 H          2.6838019535        1.6495684954        1.1310227258
 H          0.8513430393        2.2325418062        2.5491791069
 H         -1.8889719749        2.1919445998        2.3294182469
 H         -4.3274482459        2.8800991163       -0.8539319271
 H         -2.6831648686        3.3860480946       -1.2493736137
 H         -3.2773114373        3.5717231458        0.3995444643
 H         -4.8283888241        2.3444264968        1.4440969416
 H         -6.0834383806        1.0523840349        3.0804076499
 H         -5.5764051641       -1.3361227245        3.4421569440
 H         -4.2960216577       -3.3099082997        2.8936231120
 H         -2.5494912057       -4.4359572210        1.5658564296
 H         -1.2989365721       -3.1656890226       -0.1428914796
 H         -1.7479743190       -0.8173775390       -0.5222909726
  70
       -106.38208335
 C          3.8559090758        1.1893979154       -2.1500300261
 C          2.8538262372        1.5251946606       -1.0483350821
 C          2.4531837035        2.9967203054       -1.1442961606
 C          3.3481343627        1.1844381142        0.3716246293
 H          2.5559552088        1.5006378719        1.0608843776
 C          4.6152360573        1.9323925250        0.7976059590
 C          5.1321655620        1.3331054009        2.1007759284
 C          5.7183032436       -0.0627153700        1.8623152547
 H          6.7687593778        0.0429253845        1.5673119621
 C          5.6624336938       -0.8913162568        3.1424981626
 C          4.9787545054       -0.7611943363        0.7107277772
 C          3.5143707094       -0.3402071859        0.5812531281
 H          3.0828671992       -0.8685338420       -0.2787511920
 O          2.8109122005       -0.7780596364        1.7520620367
 C          1.5583224367       -1.3229907075        1.5382068488
 N          0.5618394573       -0.3312860187        1.1790674893
 C          0.2476726513        0.7160144450        2.0031081602
 C         -0.6927698623        1.4435462383        1.3626475820
 N         -0.9332290072        0.8177922881        0.1707131765
 C         -1.9043340296        1.3190369566       -0.7902434141
 H         -2.1433654244        0.4860980109       -1.4640309239
 C         -1.2520572422        2.4170146622       -1.6280597531
 C         -3.1671106286        1.7207169254       -0.0558103137
 C         -3.5608720682        3.0312818281        0.0330827282
 C         -4.7185912626        3.4024673497        0.7321744752
 C         -5.4792455255        2.4555745593        1.3525615709
 C         -5.1164607068        1.0942510636        1.2899948409
 C         -5.8976026361        0.1075999411        1.9272521346
 C         -5.5510824117       -1.2117538071        1.8649510427
 C         -4.4071046499       -1.5971379668        1.1525843712
 C         -3.6288691737       -0.6648902064        0.5245755790
 C         -3.9493708435        0.7100181606        0.5743234549
 C         -0.1567899606       -0.2774646242        0.0334366569
 Ni        -0.1262067464       -1.6915704456       -1.5432179398
 C          1.5489505615       -2.0111396023       -2.0953598472
 O          2.5418753156       -2.2554073655       -2.6040469178
 C         -0.9446034219       -3.0696533705       -0.7574166373
 O         -1.4874096143       -3.8987774509       -0.1908701897
 C         -0.9685916088       -1.0480784063       -2.9917863231
 O         -1.4052564344       -0.7456166811       -4.0025148743
 H          4.1567452258        0.1460466801       -2.1065223553
 H          4.7438173334        1.8123013444       -2.0774407196
 H          3.4012074566        1.3666535804       -3.1225760135
 H          1.9530551840        0.9191289762       -1.2242192651
 H          1.7544558459        3.2593194941       -0.3522913713
 H          1.9781789706        3.1958441678       -2.1024074336
 H          3.3260032732        3.6393716780       -1.0619505483
 H          4.3801266740        2.9879037705        0.9420235503
 H          5.3898436528        1.8611732273        0.0344481788
 H          4.3006474452        1.2563407835        2.8039603852
 H          5.8896395335        1.9813253921        2.5452325299
 H          4.6271710257       -1.0820202640        3.4113605387
 H          6.1470570752       -0.3597023083        3.9590129650
 H          6.1687648727       -1.8446400498        3.0062484180
 H          5.0178344923       -1.8422376380        0.8542382499
 H          5.4674473008       -0.5340934839       -0.2371208207
 H          1.2647253021       -1.7883260695        2.4876434509
 H          1.5605749893       -2.0832152604        0.7384701367
 H          0.7180432207        0.8451871250        2.9559191512
 H         -1.2133024636        2.3311011219        1.6576371322
 H         -1.9570743629        2.8038422913       -2.3585042951
 H         -0.4024553780        1.9916095640       -2.1583721637
 H         -0.8909695364        3.2319514012       -1.0051043850
 H         -2.9832590080        3.8100630976       -0.4391273378
 H         -4.9948677512        4.4456423047        0.7744782369
 H         -6.3698284927        2.7313614196        1.8984905805
 H         -6.7806955163        0.4205279744        2.4661111746
 H         -6.1537782600       -1.9620758604        2.3549111373
 H         -4.1415225400       -2.6425901431        1.0981121874
 H         -2.7593937262       -1.0019725895       -0.0199982451
  70
       -106.38207889
 C          6.7388784349       -0.6342797336        1.4001445035
 C          5.4320041053       -0.6413405489        0.6048453361
 C          5.4492017759        0.5599007833       -0.3404860044
 C          4.2200493978       -0.6383775634        1.5614158940
 H          4.3965472701        0.1367449573        2.3145802239
 C          4.0568601855       -1.9976095820        2.2620724507
 C          3.1598299453       -2.9274751534        1.4539227237
 C          1.7144801288       -2.4114217182        1.4385546673
 H          1.2548979542       -2.6896559148        0.4854327089
 C          0.8888503376       -3.0314206841        2.5630867778
 C          1.6943211452       -0.8825099952        1.5588395502
 C          2.9013639470       -0.2461603306        0.8646765607
 H          2.9086268881       -0.5690071406       -0.1854930598
 O          2.8372641156        1.1823302008        0.9121278617
 C          2.0988624747        1.8164959314       -0.0689876286
 N          0.6788714492        1.8641726817        0.2314423674
 C          0.2060841353        2.3084083408        1.4362526459
 C         -1.1387279419        2.1918886151        1.3893674718
 N         -1.4500360278        1.6833631766        0.1578680978
 C         -2.8238231310        1.4617986090       -0.2656206327
 H         -2.7814334405        0.8539494546       -1.1776921617
 C         -3.4472970448        2.8054744063       -0.6407119605
 C         -3.5530647972        0.6791707542        0.8077004972
 C         -4.5098841936        1.2660334176        1.5957565548
 C         -5.1727542442        0.5481914119        2.6015008412
 C         -4.8718673072       -0.7641383638        2.8192233708
 C         -3.8969871075       -1.4134338563        2.0341535081
 C         -3.5884174544       -2.7737223235        2.2458037455
 C         -2.6539603048       -3.4096494874        1.4800149240
 C         -1.9852120442       -2.7029894826        0.4706910643
 C         -2.2551692060       -1.3817929124        0.2461938608
 C         -3.2200637085       -0.6909367732        1.0130397003
 C         -0.3364119723        1.4746571975       -0.5741791547
 Ni        -0.1258476621        0.7258586121       -2.5355511182
 C          0.6212120334       -0.8705445170       -2.2601447829
 O          1.0551936905       -1.9008895973       -2.0236775057
 C         -1.7009706096        0.5964526262       -3.3924520995
 O         -2.6035184963        0.5015404914       -4.0852250847
 C          0.8508476058        1.9642454914       -3.3848363506
 O          1.4257477498        2.7835621375       -3.9326781620
 H          6.8242134982        0.2905779431        1.9668262900
 H          7.5888515301       -0.7007193554        0.7246867643
 H          6.7998664729       -1.4665256264        2.0958800209
 H          5.3921151436       -1.5559472161        0.0020813454
 H          4.6419836370        0.5189236338       -1.0662104045
 H          6.3872179490        0.5805117598       -0.8915718459
 H          5.3577101257        1.4846104506        0.2234972642
 H          3.6246762577       -1.8573881439        3.2537493524
 H          5.0319538034       -2.4632374154        2.3991657327
 H          3.1856503472       -3.9328626743        1.8777409292
 H          3.5436189761       -2.9927439151        0.4344633921
 H          0.8005395764       -4.1066568626        2.4244085737
 H         -0.1120967492       -2.6050752245        2.5802679397
 H          1.3585299502       -2.8474909013        3.5270674916
 H          1.7028728992       -0.5818106600        2.6082439771
 H          0.7707321293       -0.5057856926        1.1163442630
 H          2.2071862164        1.3345767153       -1.0548072950
 H          2.4779209926        2.8463002222       -0.1205970969
 H          0.8662158346        2.6447112546        2.2080586825
 H         -1.8872995186        2.4135817312        2.1214021178
 H         -2.8934913944        3.2256638477       -1.4782487894
 H         -3.4016620126        3.5123980329        0.1845136820
 H         -4.4817019076        2.6690293084       -0.9434432226
 H         -4.7773708997        2.3011311183        1.4525171688
 H         -5.9211541264        1.0483587297        3.1982208995
 H         -5.3759744652       -1.3269020598        3.5915446848
 H         -4.1138760543       -3.3038856666        3.0274291605
 H         -2.4252307866       -4.4522024934        1.6438313209
 H         -1.2502099641       -3.2118406293       -0.1348386333
 H         -1.7154854143       -0.8727095243       -0.5395739859
  70
       -106.38207400
 C          2.8880419256        0.9306312616       -2.5829097445
 C          2.5538630946       -0.5585633126       -2.5329458932
 C          1.0752205183       -0.7395866456       -2.2033853719
 C          3.4974399412       -1.3256725400       -1.5803902793
 H          4.4821000208       -0.8515556578       -1.6469647517
 C          3.6347341138       -2.7874597197       -2.0197115119
 C          4.6556648823       -3.5404756598       -1.1747515636
 C          4.2716245221       -3.4973534443        0.3017119837
 H          3.2999922686       -3.9919815340        0.4231528903
 C          5.3011271782       -4.2252319013        1.1616052178
 C          4.1324730656       -2.0409993484        0.7405664297
 C          3.0871449857       -1.2963745289       -0.1001783157
 H          2.1134351924       -1.7949763733        0.0141468446
 O          2.9747018547        0.0695387186        0.3001078569
 C          2.3830268418        0.3247240627        1.5271706837
 N          0.9716750987        0.0012149623        1.5900935975
 C          0.5055460840       -1.1891697105        2.0859500997
 C         -0.8429886705       -1.1285909068        2.0446649486
 N         -1.1661066533        0.0904399583        1.5176969828
 C         -2.5363330515        0.5819150565        1.4682214717
 H         -2.5592123107        1.3907479980        0.7243111474
 C         -2.8671631288        1.1960367807        2.8299813097
 C         -3.4731933043       -0.5259620985        1.0302090444
 C         -4.3558706236       -1.1035516823        1.9079289463
 C         -5.2291387516       -2.1250429658        1.5074980960
 C         -5.2215538969       -2.5690632166        0.2180431036
 C         -4.3337791757       -2.0085268000       -0.7229179493
 C         -4.3250520946       -2.4520374762       -2.0618675874
 C         -3.4733927911       -1.9036965084       -2.9775364435
 C         -2.5857430321       -0.8932215958       -2.5835743584
 C         -2.5616955007       -0.4497273993       -1.2907722474
 C         -3.4383983368       -0.9797261565       -0.3195502835
 C         -0.0584349019        0.8054585763        1.2266670456
 Ni         0.0235468528        2.6963038248        0.2880221763
 C          1.7048494185        3.3252929049        0.2765728658
 O          2.7141771556        3.8461900216        0.1697474433
 C         -0.4256176891        2.4465634638       -1.4218372319
 O         -0.5997654046        2.3895135168       -2.5486554622
 C         -1.0414460923        3.8016247171        1.2081749506
 O         -1.6643869230        4.5841482823        1.7600410883
 H          2.7357522711        1.3809216979       -1.6067060997
 H          2.2469636024        1.4337670495       -3.3040337841
 H          3.9231495176        1.0854134754       -2.8792165337
 H          2.7267215070       -0.9701209488       -3.5357654951
 H          0.8093227506       -1.7884804129       -2.0881852510
 H          0.4731444131       -0.3261922880       -3.0087671975
 H          0.8230192394       -0.2046576803       -1.2905093171
 H          3.9402120946       -2.8186183633       -3.0672922332
 H          2.6638716881       -3.2827030064       -1.9423272838
 H          5.6404091746       -3.0855700131       -1.3027395947
 H          4.7201242743       -4.5775051498       -1.5109659572
 H          5.0121634634       -4.2066689641        2.2103437291
 H          6.2762242422       -3.7525401348        1.0665827598
 H          5.3918282418       -5.2630886501        0.8497296349
 H          5.0910802456       -1.5284075175        0.6354305341
 H          3.8559197583       -2.0127903218        1.7975749619
 H          2.4946624969        1.4029432706        1.6859435212
 H          2.8746633697       -0.2159181131        2.3507963478
 H          1.1597064167       -1.9626034993        2.4330506245
 H         -1.5859075334       -1.8429001945        2.3338789650
 H         -3.8844430732        1.5770366911        2.8360122959
 H         -2.1859676837        2.0232178215        3.0181591281
 H         -2.7448149680        0.4711352443        3.6319611719
 H         -4.4019266133       -0.7776556808        2.9347286471
 H         -5.9073833006       -2.5499682369        2.2326541818
 H         -5.8941566359       -3.3513604134       -0.1027339154
 H         -5.0138148045       -3.2341692559       -2.3483889069
 H         -3.4773222816       -2.2416419855       -4.0032708090
 H         -1.9177383751       -0.4609672366       -3.3129499832
 H         -1.8582647753        0.3208680937       -1.0169625937
  70
       -106.38203973
 C          2.5802338219       -1.3283910400       -2.6074985384
 C          2.4288606285       -2.2498968598       -1.3993191568
 C          1.0061789276       -2.1521892993       -0.8561710428
 C          3.5163566086       -1.9830710236       -0.3351301398
 H          4.4322606932       -1.7076754621       -0.8680313047
 C          3.7943933313       -3.2507849418        0.4800018519
 C          4.9481381582       -3.0563916147        1.4569124591
 C          4.6572373090       -1.9032552039        2.4134361775
 H          3.7593910526       -2.1501852794        2.9934261027
 C          5.8172977598       -1.6812203021        3.3798740312
 C          4.3787674661       -0.6391965086        1.6027125113
 C          3.2030857778       -0.8353702401        0.6365880520
 H          2.3018603498       -1.0882815007        1.2138219032
 O          2.9641449177        0.3438340247       -0.1323800571
 C          2.4087934126        1.4281687738        0.5281153459
 N          1.0363902479        1.2307045880        0.9503146133
 C          0.7017743309        0.8163829570        2.2138221161
 C         -0.6472108818        0.7880021801        2.2713473928
 N         -1.1018848683        1.1766457362        1.0422675403
 C         -2.5121859299        1.4243872364        0.7754484587
 H         -2.6392396992        1.4064702874       -0.3158415626
 C         -2.8436835942        2.8389095090        1.2555608886
 C         -3.3607025922        0.3320152593        1.3950579274
 C         -4.1254029323        0.5681346690        2.5098293139
 C         -4.9179032886       -0.4360224185        3.0842420340
 C         -4.9493738495       -1.6842884575        2.5356728408
 C         -4.1819729926       -1.9783114568        1.3900837077
 C         -4.2162505219       -3.2620223840        0.8064596360
 C         -3.4825801683       -3.5458762028       -0.3096554357
 C         -2.6720877804       -2.5546015224       -0.8794705765
 C         -2.6071835907       -1.3047999831       -0.3297882372
 C         -3.3661491354       -0.9671904187        0.8114302437
 C         -0.0770014859        1.4530741689        0.2079856258
 Ni        -0.2030565649        1.9811649161       -1.8335341364
 C         -1.3386002119        3.3587297719       -1.9569744332
 O         -2.0162399692        4.2650595497       -2.1134838082
 C          1.4102724261        2.4420603568       -2.4723840048
 O          2.3625395614        2.7285423019       -3.0314579381
 C         -0.6747890444        0.5057639774       -2.7216048214
 O         -0.8709451619       -0.3927862644       -3.3980009890
 H          1.8439819677       -1.5838562592       -3.3669266432
 H          3.5709800440       -1.4247646380       -3.0460380550
 H          2.4316995033       -0.2941769995       -2.3110464040
 H          2.5847030968       -3.2792480890       -1.7472592056
 H          0.7477641372       -1.1150779525       -0.6554012450
 H          0.8773333482       -2.7350882086        0.0536113132
 H          0.3082703044       -2.5311181126       -1.5984496886
 H          4.0332483652       -4.0688924915       -0.2021618389
 H          2.8947582347       -3.5317923251        1.0327567213
 H          5.8629912244       -2.8393039829        0.9010876450
 H          5.1111055497       -3.9758545001        2.0231902063
 H          6.7228225359       -1.4281625850        2.8328315588
 H          6.0075481879       -2.5816501677        3.9592608811
 H          5.5961072165       -0.8699230158        4.0701903947
 H          5.2629328564       -0.3689338616        1.0214369691
 H          4.1687875290        0.1853861238        2.2887333200
 H          2.4294871553        2.2522419530       -0.1934148584
 H          2.9833308080        1.7143122681        1.4226906386
 H          1.4376364069        0.5931268223        2.9590249248
 H         -1.3091935808        0.5197784763        3.0686070891
 H         -3.8933241407        3.0596996717        1.0834597981
 H         -2.2425876327        3.5516254091        0.6948559782
 H         -2.6140536099        2.9638763937        2.3115770162
 H         -4.1385955404        1.5432429834        2.9701186829
 H         -5.5039740892       -0.2047278796        3.9614470912
 H         -5.5620598227       -2.4633208531        2.9657844767
 H         -4.8431677285       -4.0161955341        1.2607701242
 H         -3.5205710528       -4.5279818914       -0.7572979666
 H         -2.0976593539       -2.7835820893       -1.7644085161
 H         -1.9626953997       -0.5682565349       -0.7834259470
  70
       -106.38205987
 C          4.1926739318        3.7027167645       -1.3615468308
 C          3.5442610198        2.3236853677       -1.2315404538
 C          2.0284727264        2.4905588088       -1.3537584948
 C          3.9354963304        1.6427554738        0.0950474388
 H          3.4328488015        2.1756897520        0.9101851504
 C          5.4466032208        1.6937348020        0.3589206394
 C          5.8295341761        0.6484861798        1.4002599203
 C          5.7237231360       -0.7596974375        0.8081285036
 H          6.6387296317       -0.9741683531        0.2441509234
 C          5.5937201289       -1.7990138941        1.9180925129
 C          4.5384174791       -0.8263327731       -0.1680655829
 C          3.4379953163        0.1829741550        0.1621906850
 H          2.6270045990        0.0454156760       -0.5616889617
 O          2.9048839835       -0.0572381993        1.4742553577
 C          1.7247367219       -0.7792875213        1.5082601156
 N          0.5934194177        0.0369500267        1.1071751926
 C          0.2652389019        1.1879088324        1.7709377213
 C         -0.7980022993        1.7158578753        1.1274526006
 N         -1.0924863407        0.8730842751        0.0914337739
 C         -2.1885196695        1.1283269804       -0.8305395805
 H         -2.3928585918        0.1841006532       -1.3510302691
 C         -1.7310041389        2.1416107036       -1.8784293595
 C         -3.4196360927        1.5185641388       -0.0383343397
 C         -3.9318287674        2.7896921486       -0.0878868771
 C         -5.0597928790        3.1547062830        0.6611531933
 C         -5.6710800207        2.2424056406        1.4699117329
 C         -5.1811709011        0.9228709356        1.5566739016
 C         -5.8073485412       -0.0270470238        2.3905417191
 C         -5.3369374136       -1.3061309482        2.4754594982
 C         -4.2191827868       -1.6871048668        1.7204159241
 C         -3.5899886013       -0.7901367320        0.9025794161
 C         -4.0424461879        0.5438382119        0.7938354267
 C         -0.2333207992       -0.1666760142        0.0546834420
 Ni        -0.1830347585       -1.8191354550       -1.2634704373
 C         -1.3217402416       -1.6140111426       -2.6373980818
 O         -1.9531597684       -1.6159933813       -3.5885901910
 C          1.4505224507       -1.9273130774       -1.9909972780
 O          2.4321458458       -2.0333112397       -2.5642880436
 C         -0.6564995394       -3.1404751832       -0.1608540277
 O         -0.9980319613       -3.9228312767        0.5969231851
 H          3.9295738161        4.3253304492       -0.5089500688
 H          3.8391670118        4.1949696652       -2.2650219258
 H          5.2743587630        3.6333296749       -1.4205259258
 H          3.8950005657        1.6949695774       -2.0582541554
 H          1.6436530589        3.0658274753       -0.5132595512
 H          1.5118255222        1.5343263921       -1.3800283509
 H          1.7855467712        3.0204584720       -2.2723847277
 H          5.7224055852        2.6868563451        0.7143228241
 H          5.9968622612        1.4999247394       -0.5642315785
 H          5.1493408284        0.7339206988        2.2488869912
 H          6.8456054889        0.8231923914        1.7586428592
 H          4.6705638104       -1.6408543530        2.4697438815
 H          6.4295792369       -1.7184917790        2.6100461414
 H          5.5866916761       -2.8059612594        1.5054482429
 H          4.1143744661       -1.8326228636       -0.1617133798
 H          4.8707135984       -0.6191849662       -1.1863776056
 H          1.5829567840       -1.0922066187        2.5501108534
 H          1.7437007599       -1.6670816192        0.8559407192
 H          0.8171853790        1.5219036760        2.6246085519
 H         -1.3699860996        2.5986112735        1.3252099433
 H         -0.9034083478        1.7138805533       -2.4406963039
 H         -1.3865577822        3.0640550928       -1.4167278578
 H         -2.5401842101        2.3606846292       -2.5693385209
 H         -3.4736318500        3.5405934154       -0.7119263602
 H         -5.4329268703        4.1657076977        0.5903724302
 H         -6.5380140461        2.5141250890        2.0545988801
 H         -6.6716964795        0.2812860164        2.9615046898
 H         -5.8210250082       -2.0285303646        3.1158577316
 H         -3.8543264288       -2.7015822211        1.7852689682
 H         -2.7350545461       -1.1247515550        0.3334933772
  70
       -106.38203489
 C          2.4134070992        0.9141434246       -3.0338669269
 C          2.2574655719       -0.5937381209       -2.8500788400
 C          0.8619189695       -0.9144845673       -2.3196108425
 C          3.3976914829       -1.1671122995       -1.9788591363
 H          4.2899525331       -0.5618989208       -2.1683671932
 C          3.7049694741       -2.6159723350       -2.3715981522
 C          4.9014080527       -3.1693332450       -1.6059349827
 C          4.6605483442       -3.0991345790       -0.1003609554
 H          3.7881235098       -3.7191974143        0.1408854751
 C          5.8633350973       -3.6265478362        0.6768409606
 C          4.3526002177       -1.6550782271        0.2918760185
 C          3.1318811109       -1.1196826325       -0.4663466000
 H          2.2646099994       -1.7576306862       -0.2457719490
 O          2.8358795759        0.2306818979       -0.1096503917
 C          2.3718370159        0.4832640229        1.1753153100
 N          1.0501553944       -0.0488013222        1.4393021361
 C          0.8221289235       -1.3607329645        1.7672781898
 C         -0.5167435169       -1.5133886662        1.8564096586
 N         -1.0722993162       -0.2929308373        1.5894676723
 C         -2.5091243100       -0.0725778009        1.6470510916
 H         -2.6942659426        0.9256106101        1.2336851372
 C         -2.9497601421       -0.0470153456        3.1101984395
 C         -3.2035298842       -1.0983318176        0.7741880669
 C         -3.8746347923       -2.1624291616        1.3205204472
 C         -4.5049127524       -3.1228944066        0.5165293180
 C         -4.4608894605       -3.0144441232       -0.8423661060
 C         -3.7853285643       -1.9372789473       -1.4521871530
 C         -3.7465843244       -1.8119431717       -2.8566713950
 C         -3.1050354375       -0.7633636964       -3.4511161388
 C         -2.4669992615        0.2003263596       -2.6581856374
 C         -2.4765244760        0.1012495749       -1.2945206290
 C         -3.1392997855       -0.9621662264       -0.6426650092
 C         -0.1211294636        0.6284932146        1.3381768694
 Ni        -0.3365383507        2.7041618097        1.0253328519
 C          0.7453373562        3.4786345470        2.2230124663
 O          1.3750745169        4.0049788430        3.0167184592
 C          0.0748975370        2.9348450248       -0.7005524402
 O          0.2442678362        3.0945093540       -1.8161716491
 C         -2.0028385599        3.2798048734        1.3606932795
 O         -2.9843142008        3.8205705650        1.5839220130
 H          2.4165249071        1.4083226284       -2.0678484144
 H          1.5932081306        1.3083213482       -3.6293668802
 H          3.3470843387        1.1434810258       -3.5432753916
 H          2.3522466414       -1.0615612611       -3.8382104062
 H          0.1144490670       -0.6504510369       -3.0639207876
 H          0.6515300334       -0.3398750141       -1.4213610818
 H          0.7501584871       -1.9743141882       -2.0987851760
 H          3.9108512369       -2.6597439450       -3.4427421473
 H          2.8281873432       -3.2384068499       -2.1767949372
 H          5.7920877535       -2.5878268539       -1.8539174486
 H          5.0838969709       -4.2039324415       -1.9040160779
 H          6.7455406953       -3.0276435125        0.4619438598
 H          6.0730754490       -4.6570465556        0.3998237894
 H          5.6776447961       -3.5908264983        1.7482538652
 H          5.2105113192       -1.0176775420        0.0677009879
 H          4.1781360212       -1.6086150196        1.3699085451
 H          2.3150032822        1.5765769068        1.2455409355
 H          3.0509225852        0.0965979357        1.9508327244
 H          1.6143310969       -2.0604703274        1.9371724024
 H         -1.1086116714       -2.3785661185        2.0723238078
 H         -2.4684511031        0.7941304536        3.6057868414
 H         -2.6640422633       -0.9562838098        3.6338323022
 H         -4.0265160939        0.0824986016        3.1746183196
 H         -3.9375589866       -2.2785054050        2.3913438195
 H         -5.0240555151       -3.9445657980        0.9875551521
 H         -4.9445991583       -3.7475570285       -1.4716622418
 H         -4.2429034504       -2.5642563851       -3.4533144879
 H         -3.0853654172       -0.6698810864       -4.5270091328
 H         -1.9641126386        1.0310913229       -3.1309591455
 H         -1.9614252815        0.8589012729       -0.7216549850
  70
       -106.38203169
 C          5.0887868186        0.9615162928       -1.3300444686
 C          4.3268728948       -0.2880962453       -1.7700853613
 C          3.1341984408        0.0925301343       -2.6447015231
 C          3.9725027507       -1.2168236164       -0.5865899618
 H          4.8725425400       -1.2963656787        0.0339567832
 C          3.6226384424       -2.6153429591       -1.1096324340
 C          3.4556242569       -3.6177842314        0.0236594108
 C          2.3265515188       -3.1805251248        0.9512833451
 H          1.3915459373       -3.1614625994        0.3796994271
 C          2.1795249192       -4.1500916817        2.1213919596
 C          2.6094220850       -1.7707896497        1.4613104322
 C          2.8406413728       -0.7450765050        0.3429103517
 H          1.9157435781       -0.6114590119       -0.2304692519
 O          3.1915096536        0.4884280272        0.9904045140
 C          2.3145310821        1.5462649127        0.8403791869
 N          1.0480969095        1.3439974810        1.5187705106
 C          0.9777207988        1.0492026242        2.8519223809
 C         -0.3340000873        0.9406442545        3.1554836827
 N         -1.0340193489        1.1728872902        1.9998544057
 C         -2.4876399259        1.2118323498        1.9006409790
 H         -2.7444968944        2.2471139308        1.6327716937
 C         -3.1785266402        0.8882064062        3.2262833212
 C         -3.0519716353        0.3203746744        0.8074631458
 C         -4.0713536441        0.8409924103        0.0459973504
 C         -4.6701676863        0.1122598269       -0.9875616783
 C         -4.2432267283       -1.1549427243       -1.2588665234
 C         -3.2416716189       -1.7545368609       -0.4699741530
 C         -2.8351438773       -3.0821251520       -0.7198303601
 C         -1.9081161591       -3.6955080287        0.0717252617
 C         -1.3532489743       -2.9993797535        1.1538536422
 C         -1.7005407602       -1.7011678356        1.4027385474
 C         -2.6453123593       -1.0252317051        0.5987050352
 C         -0.1887067468        1.4311389167        0.9747587758
 Ni        -0.6104462372        1.8152865749       -1.0518533189
 C         -0.5965175894        0.1399523672       -1.6518218045
 O         -0.5199763418       -0.9656283538       -1.9294567818
 C         -2.1428296446        2.7296798366       -1.2409449609
 O         -3.0136036125        3.4045833875       -1.5400966449
 C          0.5945906395        2.9284035963       -1.7942085220
 O          1.2199442264        3.6902490382       -2.3719058984
 H          5.4399059771        1.5067629527       -2.2040786130
 H          5.9519879504        0.6885606734       -0.7273006397
 H          4.4627579250        1.6247459530       -0.7431828934
 H          5.0135529013       -0.8691984899       -2.4000772377
 H          2.6197963281       -0.7896627279       -3.0170003705
 H          3.4782642199        0.6672381426       -3.5021847439
 H          2.4143035384        0.7034105652       -2.1049537814
 H          4.4122893060       -2.9534052694       -1.7837650608
 H          2.6926295921       -2.5690568170       -1.6793929833
 H          4.3862275438       -3.6878904021        0.5918732596
 H          3.2377882324       -4.6064993974       -0.3858510306
 H          3.1172864990       -4.2265355428        2.6680359321
 H          1.9103460261       -5.1417989651        1.7646350126
 H          1.4128687855       -3.8113434665        2.8151932146
 H          3.5049293313       -1.7804361719        2.0873915951
 H          1.7748159855       -1.4306531328        2.0796830879
 H          2.0770592789        1.7580656597       -0.2134023407
 H          2.8184449548        2.4148564135        1.2848719384
 H          1.8565201724        0.9408838551        3.4531841732
 H         -0.7952263013        0.7173100774        4.0936491268
 H         -4.2528916031        0.9662313466        3.0778333460
 H         -2.8926138468        1.5932707452        4.0040482145
 H         -2.9596662768       -0.1263597375        3.5504964100
 H         -4.4225685802        1.8447724465        0.2414114987
 H         -5.4551276352        0.5692132484       -1.5713898650
 H         -4.6750317592       -1.7234388836       -2.0698567055
 H         -3.2837711669       -3.6074125935       -1.5509870892
 H         -1.6039572133       -4.7138165132       -0.1209819643
 H         -0.6469867434       -3.5005955455        1.7979413904
 H         -1.2495368220       -1.2009570073        2.2441893721
  70
       -106.38200866
 C          6.9038516242        0.6631426680       -2.3041577481
 C          5.4133323439        0.9551931517       -2.1260267663
 C          5.1201778865        2.3304360821       -2.7277540304
 C          4.9283832398        0.8949945191       -0.6561185402
 H          4.9949035586        1.9025869271       -0.2332580984
 C          5.7508799495       -0.0513803526        0.2254905767
 C          5.2558432729       -0.0544391621        1.6687396275
 C          3.7969404881       -0.4922619314        1.7383590730
 H          3.7181553568       -1.5082158483        1.3348955833
 C          3.2748116140       -0.4995324342        3.1714546463
 C          2.9573166379        0.4375934744        0.8675735508
 C          3.4560048813        0.4520088909       -0.5790856294
 H          3.3741595853       -0.5653067569       -0.9951691687
 O          2.6767890385        1.3298680955       -1.3941390425
 C          1.3800417679        0.9318050505       -1.6830174762
 N          0.4245970759        1.4228640302       -0.7075334794
 C          0.3294472010        2.7612702363       -0.4443346156
 C         -0.6300633008        2.8992814967        0.4932781000
 N         -1.1027660469        1.6429954103        0.7714099394
 C         -2.1399076616        1.4543492591        1.7791790961
 H         -2.6631589827        2.4196092935        1.8541715934
 C         -1.4444910333        1.1924628016        3.1165770554
 C         -3.1730024670        0.4189104534        1.3737053135
 C         -3.5359514522       -0.5906537808        2.2303124790
 C         -4.4915347799       -1.5523797861        1.8734419125
 C         -5.0891590171       -1.5043561868        0.6493076820
 C         -4.7881253932       -0.4597866808       -0.2479586073
 C         -5.4244570019       -0.3888595114       -1.5046051563
 C         -5.1626020189        0.6335256414       -2.3704116589
 C         -4.2663834531        1.6432628448       -1.9965602074
 C         -3.6269827090        1.5980991434       -0.7887741389
 C         -3.8392527151        0.5354766463        0.1182788028
 C         -0.4465402013        0.7095980711        0.0484253664
 Ni        -0.6507626302       -1.3919395224       -0.0320053225
 C         -1.1148866234       -2.0810859392        1.5537184634
 O         -1.2767970960       -2.7129159326        2.4915668283
 C         -1.8538049763       -1.5326690198       -1.3400336584
 O         -2.5810427243       -1.5536990602       -2.2189048107
 C          0.9141477775       -2.2150857503       -0.3549550749
 O          1.8300141555       -2.8950894378       -0.4377594102
 H          7.5064117977        1.3583369787       -1.7236853965
 H          7.1682570911        0.7847453739       -3.3526698960
 H          7.1562202757       -0.3522710960       -2.0128696321
 H          4.8558140518        0.2029308204       -2.6947732144
 H          5.3597448936        2.3375884496       -3.7890575618
 H          5.7258267569        3.0895652886       -2.2360980951
 H          4.0735306065        2.5858971000       -2.6047470343
 H          6.7961123554        0.2550241609        0.2173831413
 H          5.6887589794       -1.0650577373       -0.1769358724
 H          5.3525529701        0.9487979597        2.0910901986
 H          5.8752247400       -0.7285103585        2.2643228697
 H          3.3300879353        0.4979060799        3.6032996340
 H          3.8625648710       -1.1744960577        3.7891875609
 H          2.2377507408       -0.8277720739        3.1943440770
 H          2.9948823381        1.4559082769        1.2634900559
 H          1.9178761550        0.0992529205        0.8938853223
 H          1.2737606578       -0.1613759267       -1.7464607788
 H          1.1287365413        1.3778605196       -2.6554802778
 H          0.9544472934        3.4771135709       -0.9359179249
 H         -1.0145190362        3.7765487726        0.9731328336
 H         -0.7171298360        1.9814157304        3.3017789633
 H         -0.9162170963        0.2425265190        3.0871305185
 H         -2.1599351808        1.1902156337        3.9334964313
 H         -3.0820809831       -0.6745382047        3.2042882804
 H         -4.7318810451       -2.3377144642        2.5747500170
 H         -5.8069857763       -2.2550412710        0.3516961866
 H         -6.1267779943       -1.1669066246       -1.7680109737
 H         -5.6470555454        0.6775400620       -3.3345614579
 H         -4.0816117917        2.4664320081       -2.6719303472
 H         -2.9591443432        2.4053232900       -0.5332710500
  70
       -106.38198635
 C          0.7502264768       -0.4236189760        2.1459484256
 C          2.1113079697       -0.7105215964        2.7760932553
 C          2.3546348270        0.2849957227        3.9089755588
 C          3.2538585701       -0.7558645833        1.7357312577
 H          2.8862482157       -1.3280312890        0.8768245091
 C          4.4560423123       -1.5134812400        2.3146694939
 C          5.5958236768       -1.6478314089        1.3123173245
 C          6.0759031902       -0.2699550014        0.8642980170
 H          6.4237471159        0.2842446291        1.7435750098
 C          7.2258748916       -0.3789492064       -0.1324424330
 C          4.8949518127        0.4761072592        0.2480464487
 C          3.7330566052        0.6194246159        1.2385742211
 H          4.0821140167        1.2013411106        2.0980159210
 O          2.6992414514        1.4468660913        0.7029810883
 C          2.1973988444        1.1017198855       -0.5583762176
 N          0.7929274251        1.4168677197       -0.6106325114
 C          0.3038136067        2.6191952118       -0.1782818660
 C         -1.0310090101        2.5888828826       -0.3833716847
 N         -1.3187071670        1.3717312910       -0.9351852489
 C         -2.6563814152        1.0195183003       -1.3862812576
 H         -2.6763987289       -0.0721018671       -1.5081749452
 C         -2.8790475776        1.6373656565       -2.7675257503
 C         -3.6755594861        1.4175581425       -0.3369260739
 C         -4.5656512930        2.4380481708       -0.5569207534
 C         -5.5191675183        2.8020078546        0.4047778879
 C         -5.5855969268        2.1349287928        1.5923006560
 C         -4.6919689716        1.0796904898        1.8679167175
 C         -4.7598312237        0.3767783070        3.0889015598
 C         -3.9017346355       -0.6511136862        3.3563985592
 C         -2.9281327614       -1.0063294907        2.4130667155
 C         -2.8289820410       -0.3368653821        1.2250692036
 C         -3.7126192333        0.7161584344        0.9027448375
 C         -0.2014085329        0.6269891788       -1.0790607988
 Ni        -0.0593336453       -1.2964032745       -1.9627251919
 C         -1.3483129264       -2.3641778013       -1.3204098044
 O         -2.0757009098       -3.1701971238       -0.9686424135
 C         -0.2174343678       -0.8916647503       -3.6925104998
 O         -0.2849555216       -0.5893832715       -4.7911886850
 C          1.5043308452       -2.0968378367       -1.6113048634
 O          2.4405385798       -2.7379616627       -1.4673835830
 H          0.6863006237        0.6149184653        1.8367613927
 H         -0.0405691810       -0.6044212999        2.8707982777
 H          0.5717041264       -1.0599160425        1.2790692396
 H          2.0657690178       -1.7161128317        3.2134170103
 H          3.3197932883        0.1253688072        4.3829919264
 H          1.5834998140        0.1678285849        4.6674888616
 H          2.3075989449        1.3048664658        3.5358421517
 H          4.1292146273       -2.5069337864        2.6287181141
 H          4.8240697908       -0.9895355553        3.1990813620
 H          5.2559382654       -2.2130424931        0.4415144863
 H          6.4201512572       -2.2004322563        1.7676968718
 H          7.5619034223        0.6084203531       -0.4410079143
 H          6.9107204236       -0.9268480665       -1.0179266959
 H          8.0671135120       -0.9043347017        0.3135030687
 H          4.5636131929       -0.0722006037       -0.6368784128
 H          5.2038902472        1.4745153310       -0.0713202296
 H          2.3026753566        0.0333004686       -0.7771350857
 H          2.7147696729        1.6814028006       -1.3441912703
 H          0.9443899779        3.3646019938        0.2434634867
 H         -1.7887644973        3.3162840411       -0.1777010355
 H         -2.1498978191        1.2219081670       -3.4597598881
 H         -2.7480420998        2.7169952629       -2.7457001498
 H         -3.8740146215        1.3987636610       -3.1324703710
 H         -4.5552254845        2.9844698966       -1.4864939439
 H         -6.2001947459        3.6118902854        0.1886671354
 H         -6.3217683216        2.4011173921        2.3369376934
 H         -5.5121788825        0.6680861214        3.8081347476
 H         -3.9649213417       -1.1912325209        4.2895832366
 H         -2.2515124334       -1.8200078956        2.6285057077
 H         -2.0540620454       -0.6245111782        0.5322339033
  70
       -106.38196060
 C          5.3746786864       -2.3588413281       -1.3242443338
 C          4.1269696464       -1.5273328303       -1.0246508167
 C          4.2066657703       -0.2381537954       -1.8441699821
 C          3.9896217764       -1.2069139503        0.4788262664
 H          4.7455127230       -0.4507402069        0.7205241801
 C          4.2293034079       -2.4031276838        1.4025650866
 C          3.1827990896       -3.5028114616        1.2228430272
 C          1.7600797167       -2.9342479791        1.0887933650
 H          1.4829959439       -2.8982551708        0.0298314025
 C          0.7486675985       -3.8161164698        1.8159644515
 C          1.7082126945       -1.5054451399        1.6233758676
 C          2.6179864661       -0.5742073207        0.8127384325
 H          2.0981254044       -0.3151220400       -0.1164895761
 O          2.8421591655        0.6316037402        1.5612490009
 C          2.2192656257        1.7677061410        1.0769971790
 N          0.7792159738        1.7182636762        1.2325763426
 C          0.1901363155        1.6300066604        2.4654145669
 C         -1.1401601688        1.5404107388        2.2530532715
 N         -1.3274385555        1.5714028061        0.8982295305
 C         -2.6542724430        1.5545503402        0.3008781113
 H         -2.5235283820        1.3159714175       -0.7626451070
 C         -3.2476922993        2.9602377884        0.3895597421
 C         -3.4811494373        0.4596853902        0.9446908938
 C         -4.5290187410        0.7487042787        1.7810927309
 C         -5.2876123917       -0.2655031950        2.3832335233
 C         -4.9940624447       -1.5761127507        2.1456175389
 C         -3.9279736799       -1.9251615835        1.2913536596
 C         -3.6240223611       -3.2774558013        1.0279818343
 C         -2.5993518485       -3.6177883463        0.1920842727
 C         -1.8297720604       -2.6120262304       -0.4099484279
 C         -2.0945149026       -1.2930039176       -0.1683566903
 C         -3.1522239889       -0.9012229831        0.6816679525
 C         -0.1496610586        1.6809688400        0.2477959508
 Ni         0.1842951205        1.7620607693       -1.8444428823
 C          0.5160565495        0.0668078612       -2.2994324499
 O          0.7088446544       -1.0231837178       -2.5822485202
 C         -1.2699575185        2.4478674147       -2.6471911377
 O         -2.1029194507        2.9285354639       -3.2619336406
 C          1.5280467280        2.9066470298       -2.1646946651
 O          2.3345897821        3.6581156117       -2.4601099634
 H          6.2593972901       -1.8773839884       -0.9126753530
 H          5.5066068969       -2.4475718048       -2.4005540742
 H          5.3001688879       -3.3622968072       -0.9159902207
 H          3.2473485879       -2.0925202536       -1.3488112849
 H          3.3283312791        0.3893380025       -1.7088007711
 H          4.2833249832       -0.4705810234       -2.9042419700
 H          5.0833455984        0.3386495154       -1.5554296371
 H          4.1969006073       -2.0351661057        2.4294788174
 H          5.2268798642       -2.8113317553        1.2439331119
 H          3.2299111509       -4.1686138803        2.0873919353
 H          3.4178882783       -4.1019454784        0.3420786596
 H          0.7835790188       -4.8317846146        1.4280111020
 H         -0.2611358550       -3.4326317783        1.6860355051
 H          0.9697948237       -3.8467445447        2.8810458791
 H          2.0189824703       -1.4843916503        2.6688712779
 H          0.6808777707       -1.1348469870        1.5762507683
 H          2.4283866362        1.9353584582        0.0087784706
 H          2.6137310495        2.6042288556        1.6662588796
 H          0.7678863063        1.6263813251        3.3659372479
 H         -1.9555002839        1.4479543938        2.9402879314
 H         -2.6129497307        3.6450675482       -0.1698357655
 H         -3.2949348799        3.3084639219        1.4189111778
 H         -4.2431758098        2.9778595491       -0.0451790034
 H         -4.7965820719        1.7722693223        1.9907775712
 H         -6.1050842266        0.0065020958        3.0344402394
 H         -5.5732248369       -2.3650603993        2.6031603327
 H         -4.2258230889       -4.0405991654        1.5007004858
 H         -2.3751564615       -4.6547367281       -0.0094379603
 H         -1.0212507505       -2.8858952938       -1.0712152324
 H         -1.4794040511       -0.5455230329       -0.6465750733
  70
       -106.38196035
 C          5.3001693366       -2.4315535783       -1.3571241506
 C          4.0740279679       -1.5726402814       -1.0463661787
 C          4.1689746368       -0.2907989917       -1.8757291812
 C          3.9627918051       -1.2379819097        0.4561461604
 H          4.7321907855       -0.4901894252        0.6805930869
 C          4.1993349973       -2.4288040041        1.3876228797
 C          3.1357808670       -3.5161164928        1.2342911669
 C          1.7192743433       -2.9298649849        1.1126309529
 H          1.4287740349       -2.9008347758        0.0571264334
 C          0.7054355729       -3.7904265633        1.8616164357
 C          1.6932047726       -1.4953447481        1.6333367830
 C          2.6046194427       -0.5834502561        0.8025763991
 H          2.0760868327       -0.3250657769       -0.1220993227
 O          2.8555643512        0.6253026249        1.5377445147
 C          2.2351176972        1.7643695794        1.0568158203
 N          0.7967872180        1.7236415841        1.2284122679
 C          0.2209322106        1.6298359519        2.4670565083
 C         -1.1113916829        1.5392526001        2.2683378475
 N         -1.3130879695        1.5758018596        0.9156507684
 C         -2.6462406269        1.5520367781        0.3328621443
 H         -2.5245968879        1.3309996851       -0.7354180502
 C         -3.2564027723        2.9484945864        0.4488316579
 C         -3.4517476585        0.4370261932        0.9696863098
 C         -4.4882616990        0.7003454440        1.8284381175
 C         -5.2268170363       -0.3320708075        2.4245331189
 C         -4.9249408944       -1.6351821163        2.1579209869
 C         -3.8700833578       -1.9581135900        1.2798133930
 C         -3.5582710379       -3.3023608184        0.9861230542
 C         -2.5443929418       -3.6175042180        0.1274536858
 C         -1.7938015795       -2.5935185290       -0.4675948948
 C         -2.0665349833       -1.2818056664       -0.1970013069
 C         -3.1140166806       -0.9156478035        0.6767508485
 C         -0.1424377017        1.6899680964        0.2533990211
 Ni         0.1720792889        1.7981488968       -1.8407012542
 C          0.5076499774        0.1120413218       -2.3264916875
 O          0.6983265455       -0.9716371440       -2.6337583860
 C         -1.2934077260        2.4860610350       -2.6202935018
 O         -2.1352550579        2.9708806488       -3.2195194680
 C          1.5067318680        2.9555755112       -2.1528764576
 O          2.3074507043        3.7167574406       -2.4390193325
 H          5.2112455987       -3.4302390439       -0.9401599583
 H          6.2003157070       -1.9651965686       -0.9619817892
 H          5.4146218607       -2.5307580294       -2.4345209644
 H          3.1787239407       -2.1220043071       -1.3544999920
 H          3.3108245120        0.3605105739       -1.7245408452
 H          4.2162912034       -0.5310813179       -2.9357662986
 H          5.0665453046        0.2643431091       -1.6096392016
 H          4.1870161599       -2.0506134117        2.4112655431
 H          5.1889081948       -2.8519513706        1.2183475315
 H          3.1855064085       -4.1726793431        2.1057352622
 H          3.3507020349       -4.1283805319        0.3574281812
 H         -0.3010402452       -3.3962746449        1.7380236863
 H          0.9381926982       -3.8111440779        2.9244508170
 H          0.7233521486       -4.8109522311        1.4855294842
 H          2.0177031685       -1.4682780549        2.6745367851
 H          0.6700580970       -1.1124618416        1.5955960134
 H          2.4332238277        1.9268959991       -0.0144230855
 H          2.6421978991        2.5999307762        1.6387449629
 H          0.8082351518        1.6230627093        3.3613595869
 H         -1.9191302353        1.4422198759        2.9638467073
 H         -3.2942690153        3.2824781076        1.4832457352
 H         -4.2579188176        2.9587501850        0.0278997021
 H         -2.6383863950        3.6490915361       -0.1097370237
 H         -4.7623419863        1.7172578885        2.0609625344
 H         -6.0357494795       -0.0800483202        3.0941776409
 H         -5.4888941211       -2.4380159980        2.6102887490
 H         -4.1451068335       -4.0797919456        1.4543644898
 H         -2.3140725472       -4.6483492349       -0.0970188008
 H         -0.9935674686       -2.8473940753       -1.1466723069
 H         -1.4657085972       -0.5198413680       -0.6705192827
  70
       -106.38195903
 C          2.6658072779        2.0963810894       -1.3218834100
 C          3.0726139359        2.4491557398        0.1070058948
 C          3.6133635281        3.8778772581        0.1569398388
 C          4.0714807598        1.4599424380        0.7417132346
 H          4.3450625919        1.8855429551        1.7138972967
 C          5.3577341717        1.2319722710       -0.0719807362
 C          5.3406635284       -0.0888534373       -0.8353908398
 C          5.2820266100       -1.2919959738        0.1173036640
 H          4.7920952649       -2.1178336367       -0.4074224106
 C          6.6793178840       -1.7584225200        0.5187769530
 C          4.4617687508       -0.9421755868        1.3668496000
 C          3.4015663873        0.1163890088        1.0641959326
 H          2.7810959497       -0.2151967131        0.2243875191
 O          2.5595742537        0.3041603586        2.2099628679
 C          1.3539828081       -0.3795862295        2.1814760162
 N          0.3605182686        0.3323898128        1.3986399952
 C         -0.0446834734        1.5963972496        1.7349367465
 C         -0.9234198129        1.9861670080        0.7865199193
 N         -1.0342995739        0.9505717134       -0.0996771899
 C         -1.8923035708        1.0229188951       -1.2718902340
 H         -2.0283285178       -0.0049072045       -1.6313426579
 C         -1.1641631167        1.7994507219       -2.3677701914
 C         -3.2430011452        1.5760456947       -0.8651331941
 C         -3.6720822959        2.8066830744       -1.2918391126
 C         -4.9136743078        3.3269299434       -0.8989635564
 C         -5.7245689199        2.6126904981       -0.0670070553
 C         -5.3281702253        1.3423937198        0.3997906721
 C         -6.1615521861        0.5970200262        1.2598137964
 C         -5.7832399766       -0.6347550108        1.7115713777
 C         -4.5521564127       -1.1729180729        1.3125555369
 C         -3.7215115382       -0.4755414978        0.4800570236
 C         -4.0741974536        0.8049230028       -0.0016939054
 C         -0.2400460283       -0.0799958089        0.2574286103
 Ni        -0.0547994975       -1.9934738182       -0.6230221553
 C         -0.6574224989       -3.0239518912        0.7045340753
 O         -1.0984772225       -3.6115928633        1.5781754609
 C         -1.0463944679       -2.1752599705       -2.1103042027
 O         -1.5787652814       -2.4604083208       -3.0793638680
 C          1.6346893233       -2.2236031758       -1.1642458080
 O          2.6444334624       -2.4293211915       -1.6569895684
 H          2.2041068662        1.1125832411       -1.3742610789
 H          3.5227527691        2.1139789666       -1.9900713848
 H          1.9414864100        2.8231258260       -1.6851861826
 H          2.1721959032        2.4193441814        0.7316148336
 H          3.8754705430        4.1534493227        1.1758607429
 H          2.8617826603        4.5770156823       -0.2037389618
 H          4.4987495139        3.9854315986       -0.4649047034
 H          6.2166108356        1.2325112126        0.6010356093
 H          5.5035343285        2.0536871707       -0.7729685802
 H          6.2361561088       -0.1622900487       -1.4557361126
 H          4.4800598416       -0.1090199995       -1.5043261828
 H          7.2358622952       -0.9481940150        0.9847601049
 H          7.2334997826       -2.0999351865       -0.3527456093
 H          6.6151763313       -2.5814421806        1.2272406128
 H          5.1123586740       -0.5484989137        2.1500320958
 H          3.9780518890       -1.8373703274        1.7636971351
 H          1.0047711609       -0.4395340517        3.2194916952
 H          1.4476036488       -1.3933802962        1.7622607557
 H          0.3274622957        2.0936276578        2.6065340685
 H         -1.4801391328        2.8936777118        0.6771442624
 H         -1.7844305694        1.8707750342       -3.2567842589
 H         -0.2513886366        1.2659529686       -2.6256540662
 H         -0.8930507832        2.7982538437       -2.0330785394
 H         -3.0577121272        3.4043409692       -1.9464215619
 H         -5.2143023803        4.2990707855       -1.2607929404
 H         -6.6808896841        3.0059920484        0.2460706947
 H         -7.1103452260        1.0238938748        1.5526187890
 H         -6.4259547841       -1.2002703805        2.3699219229
 H         -4.2594910178       -2.1505873671        1.6661840893
 H         -2.7838964020       -0.9287932312        0.1928693611
  70
       -106.38191978
 C          2.6747001580        2.2133398897       -1.2577880501
 C          3.1018733568        2.5094347394        0.1778702646
 C          3.6877754372        3.9181975396        0.2665228183
 C          4.0736509079        1.4707308976        0.7744313358
 H          4.3758174931        1.8634494823        1.7519625538
 C          5.3395597172        1.2137045437       -0.0618106571
 C          5.2567077204       -0.0800831495       -0.8662951601
 C          5.1498967600       -1.3109414921        0.0469080648
 H          4.5970488185       -2.0877881183       -0.4911123895
 C          6.5264768382       -1.8720314023        0.3949980937
 C          4.3834335850       -0.9591506913        1.3291926792
 C          3.3591418973        0.1461586519        1.0769749107
 H          2.7103416798       -0.1429035741        0.2422179387
 O          2.5450579950        0.3441383858        2.2407807217
 C          1.3419686721       -0.3448760340        2.2400588566
 N          0.3430977638        0.3384395287        1.4392989114
 C         -0.0651160606        1.6108519629        1.7386615119
 C         -0.9321919489        1.9773874861        0.7704548298
 N         -1.0331628924        0.9200361342       -0.0906265412
 C         -1.8650428365        0.9659746910       -1.2824683710
 H         -2.0025610113       -0.0709846944       -1.6151638142
 C         -1.1025725605        1.7004381356       -2.3841887042
 C         -3.2186236282        1.5451480953       -0.9255554257
 C         -3.6311866863        2.7572252087       -1.4168816414
 C         -4.8786910736        3.3001228783       -1.0771292613
 C         -5.7133982792        2.6264694659       -0.2350247325
 C         -5.3343986129        1.3770651072        0.2979808922
 C         -6.1932450178        0.6741754439        1.1686075492
 C         -5.8322038152       -0.5369661588        1.6854574182
 C         -4.5923175746       -1.0950383123        1.3456527629
 C         -3.7366980378       -0.4388825562        0.5048387748
 C         -4.0728866402        0.8178979918       -0.0465085738
 C         -0.2468266420       -0.1031846009        0.3031623614
 Ni        -0.0181941142       -2.0127588982       -0.5808680827
 C         -0.1781060989       -3.1542151938        0.7859907366
 O         -0.3450804056       -3.8833406479        1.6482788192
 C         -1.3076909890       -2.3937861625       -1.7741513224
 O         -2.0405719899       -2.8212154629       -2.5381364184
 C          1.5389406516       -1.9314767826       -1.4480586218
 O          2.4796188985       -1.8620726094       -2.0927087476
 H          2.1968186144        1.2396327202       -1.3382520715
 H          3.5249830185        2.2397042403       -1.9340868124
 H          1.9586460490        2.9635186357       -1.5884442836
 H          2.2049920189        2.4873146891        0.8082144331
 H          3.9587199448        4.1570796024        1.2923471740
 H          2.9591154626        4.6507787099       -0.0742089293
 H          4.5762510325        4.0137186050       -0.3529348626
 H          6.2048480723        1.1556438997        0.6005174695
 H          5.5132755165        2.0505995287       -0.7381216150
 H          6.1434872186       -0.1736160159       -1.4963328334
 H          4.3920789751       -0.0391294411       -1.5284188518
 H          7.1411702301       -1.1114029621        0.8714190027
 H          7.0373597034       -2.2156615785       -0.5017617113
 H          6.4316864086       -2.7133174631        1.0781437593
 H          5.0724654657       -0.6099669581        2.1004253231
 H          3.8772533228       -1.8447071214        1.7193124409
 H          0.9990631916       -0.3759216289        3.2811345918
 H          1.4416688307       -1.3687787291        1.8496136060
 H          0.2971101067        2.1297020817        2.6017866257
 H         -1.4864041071        2.8823369101        0.6310802706
 H         -1.6995517574        1.7485536605       -3.2904563482
 H         -0.1896813897        1.1495925788       -2.6024026295
 H         -0.8290715378        2.7066860340       -2.0748293269
 H         -2.9988193292        3.3219446719       -2.0833617691
 H         -5.1654348598        4.2563643832       -1.4890876013
 H         -6.6756165992        3.0363804602        0.0357853359
 H         -7.1473108605        1.1171215883        1.4169919349
 H         -6.4945445739       -1.0704074291        2.3510864499
 H         -4.3120868598       -2.0556070780        1.7522631315
 H         -2.7921027082       -0.9062047544        0.2681709402
  70
       -106.38191239
 C          6.6151735203        1.2207441865        2.4161729909
 C          5.1983691309        0.7283214437        2.1184016131
 C          5.0579358656       -0.6914894495        2.6699231717
 C          4.8222148158        0.7589254590        0.6165405808
 H          5.0656205382       -0.2170690760        0.1868436366
 C          5.5560034716        1.8374176684       -0.1878285956
 C          5.1787253180        1.7926793560       -1.6658924255
 C          3.6780946324        1.9907337328       -1.8578232363
 H          3.4025113460        2.9794690805       -1.4701286267
 C          3.2910449894        1.9204539508       -3.3318627422
 C          2.9343380465        0.9293392614       -1.0528915654
 C          3.3098887860        0.9854191210        0.4310404845
 H          3.0566790323        1.9795850405        0.8343186889
 O          2.5835520935       -0.0049594737        1.1592919611
 C          1.4299290485        0.4093072627        1.8000845831
 N          0.3579020793        0.7700550534        0.8939849758
 C         -0.0316501252        2.0595678698        0.6456889749
 C         -1.0046830936        1.9982516226       -0.2896784482
 N         -1.1803256323        0.6755089807       -0.5892796689
 C         -2.1262492605        0.2189668949       -1.5959970331
 H         -2.2652229362       -0.8579237965       -1.4335329266
 C         -1.4928229535        0.4005915006       -2.9748336510
 C         -3.4525608874        0.9194160138       -1.3857559025
 C         -3.9332258236        1.8347637514       -2.2866618355
 C         -5.1499578891        2.4998524066       -2.0766846700
 C         -5.8825105049        2.2523045374       -0.9532419019
 C         -5.4312161160        1.3189393172        0.0027678636
 C         -6.1832222563        1.0547541886        1.1665846291
 C         -5.7510403876        0.1479174284        2.0915487474
 C         -4.5466232358       -0.5380217102        1.8827831294
 C         -3.7940131117       -0.3038186149        0.7656151171
 C         -4.2033865666        0.6335465995       -0.2088334412
 C         -0.3442082842       -0.1002233746        0.1283289383
 Ni        -0.1052531319       -2.1841084340        0.1426573976
 C         -0.9100662555       -2.6732526828        1.6534694796
 O         -1.4468422781       -2.9431750572        2.6257273098
 C         -0.7988938321       -2.9315329423       -1.3304697846
 O         -1.1625773494       -3.5202911934       -2.2400865912
 C          1.6739781758       -2.4616784690        0.1092460926
 O          2.7770156723       -2.7256866314        0.0120522347
 H          7.3494711873        0.6344616168        1.8687375148
 H          6.8177381741        1.1041779487        3.4789532625
 H          6.7421889785        2.2701827045        2.1651897471
 H          4.5012127154        1.3817626508        2.6567827258
 H          4.0805751383       -1.1012793492        2.4382661396
 H          5.1918725166       -0.6942384662        3.7498263278
 H          5.8158182745       -1.3366112394        2.2302251245
 H          6.6320073586        1.6928440275       -0.1014564171
 H          5.3119044834        2.8227425614        0.2178687743
 H          5.4677988778        0.8262930026       -2.0845896705
 H          5.7275074789        2.5679797642       -2.2052228009
 H          3.8180296665        2.6819257303       -3.9022717644
 H          2.2214400946        2.0763052603       -3.4555137473
 H          3.5442783591        0.9461528470       -3.7436449264
 H          3.1814542747       -0.0649594062       -1.4294843341
 H          1.8576977314        1.0650191485       -1.1687102852
 H          1.6132712727        1.2816937622        2.4493623576
 H          1.1068935965       -0.4474325685        2.4048104765
 H          0.4008591601        2.8987654465        1.1507499145
 H         -1.5851960894        2.7714918950       -0.7487538026
 H         -1.2271073972        1.4397856050       -3.1571863006
 H         -2.1711324581        0.0588769992       -3.7514482975
 H         -0.5840721522       -0.1971358461       -3.0218837794
 H         -3.3809871352        2.0615761542       -3.1849260891
 H         -5.4938185005        3.2111702480       -2.8130388750
 H         -6.8178790286        2.7640497980       -0.7784934272
 H         -7.1132397808        1.5867585920        1.3089588712
 H         -6.3321237521       -0.0501609359        2.9800846995
 H         -4.2130438591       -1.2613786662        2.6120568077
 H         -2.8753728368       -0.8573921761        0.6378916219
  70
       -106.38187882
 C          2.2087701426        3.7993951092        0.1557792662
 C          2.7530276312        2.9688236387        1.3138177342
 C          4.2620992506        3.1900612788        1.4095131594
 C          2.3449383412        1.4769699976        1.2312475483
 H          1.2994307978        1.4248185028        0.9048432344
 C          2.4298833699        0.8780987487        2.6425539546
 C          2.0938070825       -0.6054268252        2.6898115735
 C          3.0363262762       -1.3777131020        1.7731225931
 H          4.0691082547       -1.1943643713        2.0934268601
 C          2.7702256786       -2.8786623949        1.8220831330
 C          2.8502101783       -0.8474278468        0.3548233596
 C          3.1869221986        0.6373989865        0.2510604413
 H          4.2457923139        0.7638905691        0.5065162112
 O          3.1190450867        1.1426145156       -1.0979945327
 C          2.2737355728        0.5746358102       -2.0432840433
 N          0.8943960287        1.0251620264       -1.9657073455
 C          0.5544175247        2.3199501584       -2.2460648564
 C         -0.7785190999        2.4256272160       -2.0613258784
 N         -1.2261738171        1.1883188105       -1.6798050962
 C         -2.6138973914        0.8601954042       -1.3823375366
 H         -2.9199508211        0.1114155587       -2.1266720143
 C         -3.5522751489        2.0592392502       -1.5252323154
 C         -2.8018614098        0.2295396659       -0.0127751294
 C         -3.6248960606       -0.8694950498        0.0627953077
 C         -3.9072368758       -1.5003307796        1.2798745209
 C         -3.3419466781       -1.0361776735        2.4319878204
 C         -2.5075750806        0.0997224385        2.4112992205
 C         -1.9402983258        0.5920710821        3.6054110753
 C         -1.1705523630        1.7193302706        3.6085713102
 C         -0.9435715766        2.4053482230        2.4081694935
 C         -1.4603035813        1.9405084127        1.2308103193
 C         -2.2471444298        0.7681710909        1.1808574598
 C         -0.2037432386        0.3006902012       -1.6397418270
 Ni        -0.4206208890       -1.7932536125       -1.4805022285
 C         -1.7750604877       -2.2144438251       -2.5768229438
 O         -2.5849000528       -2.5958146996       -3.2869149085
 C          1.0279054837       -2.6864401039       -2.0714681345
 O          1.8361999915       -3.4096460132       -2.4308125783
 C         -0.7432801772       -2.1077587622        0.2454066607
 O         -0.9172491935       -2.3210822513        1.3534534945
 H          2.4158446389        4.8549060273        0.3235901796
 H          1.1328578953        3.6731729437        0.0577694717
 H          2.6894079377        3.4971393261       -0.7690217659
 H          2.3004783085        3.3530706420        2.2368773283
 H          4.4628315904        4.2348367926        1.6384742561
 H          4.7418530309        2.9539540209        0.4633666725
 H          4.7089429753        2.5838142868        2.1931556741
 H          1.7428618555        1.4239865789        3.2923991956
 H          3.4403392461        1.0190923663        3.0320967353
 H          1.0613867176       -0.7612939597        2.3697980932
 H          2.1836073728       -0.9674097927        3.7161852763
 H          2.8876254729       -3.2538518568        2.8361102775
 H          3.4628764127       -3.4127541686        1.1752707830
 H          1.7575230953       -3.0966857324        1.4910550334
 H          1.8038653269       -1.0094733415        0.0749619675
 H          3.4903406037       -1.4061897457       -0.3335447380
 H          2.2649781971       -0.5205938262       -2.0237671614
 H          2.6760241335        0.9099887776       -3.0088106195
 H          1.2769901216        3.0438476650       -2.5579889289
 H         -1.4139095204        3.2774549792       -2.1781070017
 H         -3.5229548846        2.4632576859       -2.5350160562
 H         -3.3136600609        2.8416903472       -0.8090073570
 H         -4.5667488378        1.7224382626       -1.3251783536
 H         -4.0706589238       -1.2651390642       -0.8393835172
 H         -4.5566440724       -2.3628815181        1.2905700050
 H         -3.5280413255       -1.5259578941        3.3766589352
 H         -2.1357512956        0.0571514631        4.5237661481
 H         -0.7445385327        2.0927865603        4.5282817845
 H         -0.3527556992        3.3098879280        2.4153121517
 H         -1.2651544769        2.4985589343        0.3299517276
  70
       -106.38186160
 C          5.1662688193        3.8331470560        0.6154246829
 C          4.0681832401        2.8627039111        0.1744035475
 C          2.7498352581        3.3262443458        0.7859660224
 C          4.4845405826        1.4113468125        0.5197898531
 H          4.9895408655        1.4214734440        1.4910195156
 C          5.4658319342        0.9370201435       -0.5609847638
 C          6.0039781365       -0.4629504731       -0.3071349417
 C          4.8443806710       -1.4500060414       -0.2980875763
 H          4.3376942559       -1.3986259620       -1.2676595456
 C          5.3188418640       -2.8822560050       -0.0731958045
 C          3.8631733425       -1.0373523696        0.7934490770
 C          3.3321869392        0.3979715960        0.6564178015
 H          2.6618545364        0.4676233596       -0.2131940806
 O          2.6124947104        0.7395937377        1.8510701668
 C          1.4078265104        0.0906889769        2.0846494751
 N          0.3144270215        0.6147891793        1.2886215440
 C         -0.2078740547        1.8622079617        1.5074600653
 C         -1.1582324499        2.0567840658        0.5683197822
 N         -1.1978958515        0.9219822528       -0.1934334193
 C         -2.0697510786        0.7929843092       -1.3504460831
 H         -2.1519504073       -0.2797685210       -1.5716389761
 C         -1.3837971027        1.4525846200       -2.5467190414
 C         -3.4457628200        1.3271262307       -1.0104888700
 C         -3.9566820516        2.4372442264       -1.6331052250
 C         -5.2287038995        2.9356745340       -1.3168208774
 C         -5.9902043238        2.3202353597       -0.3676187077
 C         -5.5090295806        1.1765639969        0.3025957767
 C         -6.2916833217        0.5335141886        1.2842223755
 C         -5.8315105429       -0.5753183799        1.9346680479
 C         -4.5637492598       -1.0859120052        1.6245472090
 C         -3.7801762476       -0.4851460313        0.6786894617
 C         -4.2209979046        0.6639849434       -0.0150524668
 C         -0.2966495165        0.0147156733        0.2385076493
 Ni         0.0219893102       -1.9291781812       -0.5392241074
 C          0.4456562497       -3.0364897646        0.8036762331
 O          0.6579421105       -3.8309371691        1.5964313473
 C         -1.4722601295       -2.6139420874       -1.2700272182
 O         -2.3267790393       -3.2224556450       -1.7204934554
 C          1.2877542501       -1.5959116935       -1.7470626756
 O          2.0665539235       -1.2887072435       -2.5243457954
 H          5.2476807353        3.8351385385        1.7003265578
 H          4.9281759485        4.8433872493        0.2894502750
 H          6.1340300272        3.5669263139        0.1996981240
 H          3.9658027398        2.9277283669       -0.9157632794
 H          1.9115235443        2.7684517157        0.3806165577
 H          2.5932839695        4.3790708807        0.5555777669
 H          2.7664324860        3.2036866849        1.8648114175
 H          6.2975494507        1.6390514074       -0.6244629590
 H          4.9523978459        0.9443507703       -1.5262775690
 H          6.5235833908       -0.4964812915        0.6529621284
 H          6.7198179118       -0.7294844348       -1.0875292690
 H          6.0128465817       -3.1800849577       -0.8558169019
 H          4.4764447956       -3.5705240549       -0.0822220018
 H          5.8244065625       -2.9703556363        0.8863361058
 H          4.3514309034       -1.1179725316        1.7683614617
 H          3.0214072571       -1.7340532326        0.7775964578
 H          1.1783554532        0.2697702734        3.1419299767
 H          1.4578155152       -0.9897215701        1.9001095672
 H          0.1416580609        2.4904822183        2.2994982967
 H         -1.8074135433        2.8884753625        0.3885010626
 H         -2.0009695863        1.3618405980       -3.4359860180
 H         -0.4400926376        0.9419026432       -2.7305689539
 H         -1.1729488434        2.5024488012       -2.3545303628
 H         -3.3856723841        2.9533065711       -2.3883351091
 H         -5.5929225914        3.8115223392       -1.8330759250
 H         -6.9708825801        2.6964275809       -0.1147217174
 H         -7.2677946090        0.9392075905        1.5094622927
 H         -6.4362031175       -1.0638329144        2.6843357838
 H         -4.2040341286       -1.9650654935        2.1385877163
 H         -2.8097768763       -0.9104278460        0.4710767370
  70
       -106.38184923
 C          0.7886008118       -0.8013059130        2.0813360930
 C          2.1467750423       -1.0857668392        2.7191717263
 C          2.2959617815       -0.2277183104        3.9742699806
 C          3.3181952250       -0.9336745916        1.7222541315
 H          3.0154448534       -1.4244976967        0.7895982100
 C          4.5554382119       -1.6718711513        2.2502114107
 C          5.7263024344       -1.6131286514        1.2764495018
 C          6.1185703476       -0.1639221623        1.0005903891
 H          6.4079749031        0.3081499665        1.9464391168
 C          7.2945574839       -0.0812612431        0.0320535805
 C          4.9021073364        0.5672952130        0.4379564555
 C          3.7139990299        0.5197060472        1.4062779061
 H          4.0066067980        1.0148073477        2.3380812986
 O          2.6389813447        1.3372428083        0.9431922366
 C          2.1839360628        1.0923895737       -0.3589021318
 N          0.7859439416        1.4254693762       -0.4385645659
 C          0.2869371747        2.5879352893        0.0822183588
 C         -1.0368412807        2.5939941253       -0.1869607266
 N         -1.3074135911        1.4378265262       -0.8637522849
 C         -2.6251373368        1.1414554133       -1.4054089688
 H         -2.6505412432        0.0612953372       -1.6098707577
 C         -2.7677108001        1.8724953369       -2.7413573119
 C         -3.6918457290        1.4766672702       -0.3810049201
 C         -4.5842846137        2.4983379053       -0.5858591689
 C         -5.5759654077        2.8087993934        0.3559038969
 C         -5.6768074501        2.0894936462        1.5099710755
 C         -4.7847010566        1.0285409566        1.7678703164
 C         -4.8871793747        0.2707837002        2.9531124479
 C         -4.0322012104       -0.7645256925        3.2013590050
 C         -3.0300697162       -1.0755683929        2.2724172182
 C         -2.8971026808       -0.3523141152        1.1199944990
 C         -3.7715990448        0.7147225349        0.8204005170
 C         -0.1902865937        0.6969046967       -1.0290824326
 Ni        -0.0454418889       -1.1779626714       -2.0208887424
 C         -0.9134286158       -2.3877325039       -1.0298968650
 O         -1.3861753945       -3.2545448475       -0.4573687652
 C         -0.7512598148       -0.9389511118       -3.6485550591
 O         -1.1386636040       -0.8715197371       -4.7199711760
 C          1.6647827182       -1.6780484352       -2.2022035764
 O          2.7080127284       -2.1128144029       -2.3763973920
 H          0.6648196607        0.2626615625        1.9043879246
 H         -0.0084462533       -1.1239507528        2.7475445425
 H          0.6773247291       -1.3290486860        1.1341896264
 H          2.1516431252       -2.1393627000        3.0266340709
 H          3.2544880458       -0.3907560737        4.4603405500
 H          1.5113351816       -0.4822296679        4.6836735271
 H          2.1981862278        0.8265075228        3.7281531584
 H          4.2914101236       -2.7145017475        2.4391474026
 H          4.8645427555       -1.2300027091        3.1995075842
 H          5.4493785206       -2.0972104364        0.3370499964
 H          6.5763494910       -2.1568114656        1.6936881626
 H          7.5682879112        0.9551672049       -0.1520687939
 H          7.0369252885       -0.5426526228       -0.9188856409
 H          8.1602640478       -0.5979530004        0.4396934680
 H          4.6256391886        0.1011844084       -0.5106994254
 H          5.1484115214        1.6135428396        0.2406289098
 H          2.2888384020        0.0396944308       -0.6439276716
 H          2.7354597788        1.7196789318       -1.0827605488
 H          0.9128226430        3.2816186941        0.6025619273
 H         -1.7977849617        3.3079223512        0.0516036561
 H         -1.9860857826        1.5299097589       -3.4159454587
 H         -2.6568966526        2.9474924647       -2.6170767381
 H         -3.7318722012        1.6553359753       -3.1922343128
 H         -4.5475412801        3.0876699069       -1.4879180064
 H         -6.2581395365        3.6206694402        0.1511221706
 H         -6.4401691165        2.3168541784        2.2399451303
 H         -5.6645362216        0.5252020744        3.6596462394
 H         -4.1220250662       -1.3464809668        4.1067726466
 H         -2.3598350829       -1.8989910660        2.4697190684
 H         -2.1054208448       -0.6092549425        0.4343492701
  70
       -106.38181048
 C          4.5844904235        3.9522931677       -0.3442721742
 C          3.7541257864        2.7008568601       -0.6347044197
 C          2.3276498924        2.9387642419       -0.1506769669
 C          4.4625967309        1.4591701641       -0.0359870445
 H          4.9596590523        1.7586685563        0.8921513800
 C          5.5145288078        0.9942477751       -1.0532867540
 C          6.3255557687       -0.2035056848       -0.5818201249
 C          5.3908558365       -1.3812541838       -0.3341531544
 H          4.8679893460       -1.6160375143       -1.2672858098
 C          6.1540265799       -2.6207052675        0.1224319277
 C          4.3673636593       -0.9639233910        0.7154990533
 C          3.5479708956        0.2800917992        0.3365861258
 H          2.8721391838        0.0542132028       -0.4998203795
 O          2.7798746325        0.6527684193        1.4903278670
 C          1.6506387310       -0.1119349418        1.7599910868
 N          0.4438833318        0.4975128201        1.2354225517
 C         -0.0640938659        1.6603649832        1.7482253826
 C         -1.1401132516        1.9780030988        0.9974762263
 N         -1.2660455142        0.9973560141        0.0525237638
 C         -2.2977876503        1.0369221538       -0.9720780471
 H         -2.3856481927        0.0211224954       -1.3780066599
 C         -1.8204477098        1.9462112119       -2.1039138285
 C         -3.6193652752        1.4187461644       -0.3381512517
 C         -4.2309183425        2.6141954176       -0.6164905070
 C         -5.4453473140        2.9734968897       -0.0141470801
 C         -6.0442991420        2.1334052960        0.8777902993
 C         -5.4546814767        0.8929251192        1.1976048764
 C         -6.0672557568        0.0172605166        2.1183358229
 C         -5.5004410337       -1.1858410119        2.4279422864
 C         -4.2954294189       -1.5634548403        1.8197216143
 C         -3.6768066090       -0.7371036475        0.9232817822
 C         -4.2278193851        0.5185641157        0.5838265171
 C         -0.2918294022        0.0722551837        0.1805643763
 Ni        -0.0829742347       -1.7833721439       -0.8170116076
 C         -1.1778744884       -1.9077421419       -2.2350461734
 O         -1.7649999140       -2.1247270777       -3.1902046838
 C          1.5581204645       -1.9819953863       -1.5095255524
 O          2.5097695419       -2.2271068191       -2.0914700507
 C         -0.5088776093       -2.8810219626        0.5219960716
 O         -0.8216152370       -3.5075440379        1.4239831789
 H          4.1630069711        4.8134989528       -0.8582919332
 H          5.6136853462        3.8346205033       -0.6729482382
 H          4.5865229275        4.1593186928        0.7238488190
 H          3.7078580575        2.5628647064       -1.7217410109
 H          2.2977978981        3.0164617243        0.9316837444
 H          1.6701707478        2.1349751462       -0.4681831575
 H          1.9499122549        3.8668200284       -0.5772335495
 H          6.1858066580        1.8247022058       -1.2758233038
 H          5.0041118823        0.7241371178       -1.9817684627
 H          6.8563513070        0.0429718660        0.3404112532
 H          7.0683149948       -0.4641635028       -1.3386459482
 H          6.6799013449       -2.4225696221        1.0542560422
 H          6.8841263654       -2.9147252218       -0.6280771352
 H          5.4730211229       -3.4535398276        0.2826902183
 H          4.8843057326       -0.7393831363        1.6523439837
 H          3.6864912150       -1.7971185798        0.9068478220
 H          1.5531112432       -0.1674213478        2.8520750358
 H          1.7119445921       -1.1270782089        1.3445031988
 H          0.3835363613        2.1510723975        2.5866892163
 H         -1.8247675308        2.7978572906        1.0633945702
 H         -2.5671089094        1.9960380426       -2.8914032426
 H         -0.9051546191        1.5305265937       -2.5215341611
 H         -1.6045912405        2.9492012827       -1.7423685785
 H         -3.7861738171        3.3079757260       -1.3121306495
 H         -5.8946236419        3.9233914938       -0.2635553705
 H         -6.9772117815        2.4027222042        1.3515257716
 H         -6.9993629341        0.3207096730        2.5736205737
 H         -5.9746567707       -1.8515605300        3.1338362078
 H         -3.8540915826       -2.5190173713        2.0618961612
 H         -2.7524612970       -1.0668815804        0.4719920438
  70
       -106.38175364
 C          6.1863247372        3.3849591373       -0.5983799416
 C          4.7863657420        2.7836742087       -0.7391557558
 C          3.8297557075        3.5841915494        0.1394640840
 C          4.8432672004        1.2622788723       -0.4509260342
 H          5.5644199181        1.0932394641        0.3549269070
 C          5.3325716164        0.5636198771       -1.7270703004
 C          5.4802258380       -0.9422593301       -1.5676565715
 C          4.1263753139       -1.5437488789       -1.2137664916
 H          3.4166252576       -1.3024719768       -2.0132507777
 C          4.1969650114       -3.0604156842       -1.0682288911
 C          3.6355541266       -0.9094601869        0.0823411982
 C          3.5263605737        0.6195212671        0.0245026968
 H          2.7038210971        0.9009805035       -0.6515913198
 O          3.2712137524        1.1353874600        1.3389979106
 C          2.0913737799        0.7612628867        1.9714843705
 N          0.9110595704        1.2863759146        1.3177876511
 C          0.6359229995        2.6276220783        1.2821101231
 C         -0.4545127154        2.7813692625        0.4992658891
 N         -0.8168449771        1.5318636430        0.0738961267
 C         -1.9400916819        1.2387369498       -0.7962215485
 H         -1.6457654651        0.3372145305       -1.3490363386
 C         -2.1925260938        2.3781022348       -1.7851927445
 C         -3.2019395566        0.9394187117       -0.0079652308
 C         -3.3867150916        1.4888840804        1.2348161235
 C         -4.5469074270        1.2403277138        1.9800966276
 C         -5.5282893027        0.4418250813        1.4706837481
 C         -5.3870833333       -0.1393537421        0.1938534097
 C         -6.3957703405       -0.9714743380       -0.3349262113
 C         -6.2601441802       -1.5462743383       -1.5657748943
 C         -5.1021333186       -1.3098857391       -2.3190020732
 C         -4.1076530756       -0.5055721029       -1.8359470495
 C         -4.2116964947        0.1081249871       -0.5677747003
 C          0.0107844524        0.5917498280        0.5829634755
 Ni        -0.3014801217       -1.4868106336        0.4168273143
 C         -2.0317671786       -1.7758120302        0.8267011306
 O         -3.0448376340       -2.1276145372        1.2141867444
 C          0.2238541107       -1.8170720695       -1.2541697093
 O          0.6170776084       -1.9490662480       -2.3189728738
 C          0.5887091376       -2.4259378097        1.6616591944
 O          1.0485773005       -3.1504137909        2.4157254528
 H          6.1806382724        4.4292632936       -0.9032771950
 H          6.9141072127        2.8605216913       -1.2115200119
 H          6.5108510934        3.3340038086        0.4387185359
 H          4.4588767444        2.9113702080       -1.7783222563
 H          2.7993264924        3.2921123401       -0.0393416749
 H          3.9244507231        4.6434558177       -0.0954286852
 H          4.0612125758        3.4365333173        1.1899927656
 H          6.2891598072        0.9932592884       -2.0262525386
 H          4.6163720211        0.7606136548       -2.5295865995
 H          6.1995295556       -1.1666366639       -0.7771091514
 H          5.8549820711       -1.3757383682       -2.4972837862
 H          4.5323098234       -3.5173369096       -1.9964273114
 H          3.2180948725       -3.4655943810       -0.8204090261
 H          4.8923676419       -3.3359992361       -0.2780465702
 H          4.3173121751       -1.1696929169        0.8963834960
 H          2.6503944932       -1.3256684136        0.3112425145
 H          2.1594057897        1.1931200598        2.9770521694
 H          1.9671629133       -0.3268144767        2.0514508760
 H          1.2301068456        3.3424659138        1.8121374664
 H         -0.9804234389        3.6705042500        0.2226087084
 H         -2.8988683737        2.0472598024       -2.5416955824
 H         -1.2668550200        2.6718431871       -2.2763680908
 H         -2.6249350630        3.2417276880       -1.2849247307
 H         -2.6251873666        2.1201244293        1.6702619889
 H         -4.6491052065        1.6848917549        2.9590297370
 H         -6.4256386718        0.2385836311        2.0369339386
 H         -7.2798091784       -1.1483978309        0.2610086840
 H         -7.0342199134       -2.1861034311       -1.9629207016
 H         -4.9962268988       -1.7733827323       -3.2890584201
 H         -3.2279551919       -0.3529412968       -2.4417324518
  70
       -106.38172838
 C          3.7076435903        1.0181642393       -2.0908139302
 C          2.8138306982        1.4938522210       -0.9484810772
 C          2.5728754880        2.9978499576       -1.0677462903
 C          3.3386997403        1.1315567011        0.4547340434
 H          2.6199612195        1.5469345558        1.1722771794
 C          4.7024845752        1.7388456024        0.7981561221
 C          5.2339639959        1.0860102307        2.0693699064
 C          5.6538956898       -0.3629526584        1.8004062898
 H          6.6816004804       -0.3657569527        1.4189387939
 C          5.6211135007       -1.1762332048        3.0911704323
 C          4.7529061240       -0.9861832200        0.7222744090
 C          3.3427737614       -0.3964147018        0.6977304673
 H          2.7776604200       -0.8855138429       -0.1077203731
 O          2.6930948023       -0.7046435570        1.9409754735
 C          1.4131610123       -1.2199010673        1.8427154362
 N          0.4507539884       -0.2529112672        1.3548856093
 C          0.1045675856        0.8542313822        2.0831296733
 C         -0.7829325480        1.5471822380        1.3378371481
 N         -0.9577836671        0.8442942175        0.1787288763
 C         -1.8569112549        1.2897555162       -0.8755994830
 H         -2.0502486227        0.4164437965       -1.5161491649
 C         -1.1383582781        2.3405676749       -1.7215513912
 C         -3.1648641578        1.7534415119       -0.2620206027
 C         -3.5736285515        3.0597910947       -0.3539829053
 C         -4.7777696486        3.4961915109        0.2172594606
 C         -5.5764981232        2.6197231882        0.8903665616
 C         -5.2017609533        1.2661225514        1.0142856710
 C         -6.0223991591        0.3507182962        1.7058998211
 C         -5.6665298028       -0.9621048136        1.8256826595
 C         -4.4689196141       -1.4113286883        1.2529971689
 C         -3.6514868599       -0.5478325825        0.5783701223
 C         -3.9836103685        0.8169517030        0.4338748921
 C         -0.1930405916       -0.2688440629        0.1637832342
 Ni        -0.0435107484       -1.6715460875       -1.4327714152
 C          1.3122556314       -2.8257748496       -1.2076585980
 O          2.1427600528       -3.6096972083       -1.2318527759
 C         -1.5767425142       -2.5988008268       -1.4643874081
 O         -2.4812940027       -3.2918584316       -1.5196290148
 C          0.3152018709       -0.7088531373       -2.8950880802
 O          0.6354254157       -0.1795411502       -3.8548403640
 H          3.8658112309       -0.0562224098       -2.0437778146
 H          4.6731886141        1.5168993629       -2.0722702389
 H          3.2329459909        1.2444276734       -3.0434847182
 H          1.8452280203        0.9863045588       -1.0592705655
 H          1.9394898741        3.3533387020       -0.2571176449
 H          2.0837879957        3.2273852108       -2.0120419877
 H          3.5134734463        3.5416266753       -1.0354728279
 H          4.5922552298        2.8136443508        0.9496547473
 H          5.4156995103        1.5843726216       -0.0113094962
 H          4.4446078250        1.0948093922        2.8231738740
 H          6.0823669225        1.6495597490        2.4620474547
 H          4.5987077178       -1.2531493051        3.4508259218
 H          6.2282259719       -0.6964629220        3.8562833017
 H          6.0094578122       -2.1788960661        2.9245936719
 H          4.6781740310       -2.0627719375        0.8852376209
 H          5.1899504615       -0.8297605789       -0.2642202573
 H          1.1292157222       -1.5173134890        2.8595059375
 H          1.3623005415       -2.0948439976        1.1753705386
 H          0.5182170392        1.0445740233        3.0517694058
 H         -1.3077799215        2.4581434168        1.5390872992
 H         -1.7766490250        2.6728292923       -2.5353229346
 H         -0.2416916896        1.8979857035       -2.1480828854
 H         -0.8390486663        3.1956556464       -1.1197115362
 H         -2.9737277665        3.7879058101       -0.8756651415
 H         -5.0600050375        4.5338162945        0.1171434534
 H         -6.5051743358        2.9454726986        1.3360019914
 H         -6.9440490681        0.7132879870        2.1386057763
 H         -6.3006714465       -1.6578551147        2.3548761762
 H         -4.1922504467       -2.4513587371        1.3444638137
 H         -2.7379109360       -0.9292960998        0.1505512086
  70
       -106.38172246
 C          5.8935247592        3.0108561118        0.9425197309
 C          6.0859069752        1.6592057193        0.2562500309
 C          5.8390572336        1.7956236252       -1.2445024531
 C          5.2327983594        0.5564938475        0.9240609142
 H          5.1855332620        0.7837420283        1.9944896536
 C          5.8937781851       -0.8155560680        0.7537980844
 C          5.1355592035       -1.9058837350        1.5021676448
 C          3.6950643000       -1.9896458937        1.0068286827
 H          3.7085422550       -2.2421179530       -0.0591636376
 C          2.9074740848       -3.0655991411        1.7481973262
 C          3.0234878313       -0.6280274374        1.1703605026
 C          3.7842058900        0.4709064181        0.4211756337
 H          3.7775728288        0.2286235407       -0.6517113201
 O          3.1756586555        1.7515299025        0.6024957023
 C          1.9932388020        1.9817136679       -0.0807922264
 N          0.8302734199        1.5432949992        0.6693131068
 C          0.6183449381        1.9538550815        1.9564520966
 C         -0.4786700497        1.2978188580        2.3905494188
 N         -0.9079337209        0.5030878417        1.3614705764
 C         -2.0343068568       -0.4002430870        1.5202520632
 H         -2.3029083586       -0.3493306418        2.5841611725
 C         -1.5709247919       -1.8287565989        1.2009689973
 C         -3.2580692294        0.0138369592        0.7212385983
 C         -3.2097138677        1.0386268365       -0.1890843462
 C         -4.3174127957        1.3695388951       -0.9827067848
 C         -5.4802780779        0.6684100034       -0.8637369493
 C         -5.6012066208       -0.3474651901        0.1067204648
 C         -6.8191426911       -1.0382790272        0.2768225618
 C         -6.9624482945       -1.9857334336        1.2493870486
 C         -5.8907427646       -2.2634025745        2.1083926276
 C         -4.6914609489       -1.6237522611        1.9572182593
 C         -4.4913662800       -0.6656784345        0.9374128144
 C         -0.1065456798        0.6465127645        0.2790942846
 Ni        -0.2459169930       -0.0805604929       -1.7250569102
 C          1.1367404262       -1.1988771687       -1.9279994895
 O          2.0143306563       -1.9160203675       -2.0729747315
 C         -1.8370738546       -0.8806358314       -2.0225249587
 O         -2.8023289934       -1.3725570251       -2.3770738009
 C         -0.2257413138        1.4050033875       -2.7243259089
 O         -0.3025183747        2.3443253234       -3.3689732268
 H          6.5181877081        3.7647706237        0.4679060508
 H          6.1710121557        2.9493869215        1.9926527520
 H          4.8559998609        3.3221603238        0.8770701207
 H          7.1344569540        1.3670460056        0.3943130400
 H          6.5772109186        2.4665981251       -1.6788495573
 H          4.8532436790        2.2117155837       -1.4354106803
 H          5.9215019592        0.8345681796       -1.7466663551
 H          6.9197629770       -0.7667003376        1.1243413601
 H          5.9349784320       -1.0694088841       -0.3076221191
 H          5.1381154400       -1.6846185800        2.5722802011
 H          5.6344672052       -2.8664997290        1.3580866116
 H          2.8586217401       -2.8384316949        2.8115331810
 H          3.3811942089       -4.0368511239        1.6264605272
 H          1.8925253889       -3.1286361746        1.3612990136
 H          2.9714339025       -0.3622695371        2.2295374821
 H          2.0036392467       -0.6919782156        0.7845287226
 H          1.9700065253        1.4766759520       -1.0602658988
 H          1.9225626442        3.0689246480       -0.2237286361
 H          1.2693939369        2.6522162526        2.4390398967
 H         -0.9806743519        1.3328352445        3.3357097489
 H         -1.0698743267       -1.8418213899        0.2338968541
 H         -2.4100326819       -2.5145867208        1.1589894532
 H         -0.8668736643       -2.1678618061        1.9589735195
 H         -2.3056268461        1.6144596107       -0.3226868720
 H         -4.2259728035        2.1713652545       -1.7002126589
 H         -6.3296333512        0.8901376767       -1.4933518369
 H         -7.6435802158       -0.7921062672       -0.3770689159
 H         -7.8979276916       -2.5105878061        1.3741418984
 H         -6.0184637115       -2.9880449763        2.8994858767
 H         -3.8975173941       -1.8464242909        2.6528190723
  70
       -106.38166649
 C          4.8963481819       -1.4232225958        2.5902935262
 C          5.5910757824       -0.3738611676        1.7244651074
 C          5.6767482888        0.9521634657        2.4781173273
 C          4.9349869792       -0.2552014137        0.3294535484
 H          4.5975778834       -1.2565323415        0.0440421167
 C          5.9591412998        0.2222183834       -0.7055951218
 C          5.3797627585        0.2256729647       -2.1149546432
 C          4.1555777132        1.1329421059       -2.1861607869
 H          4.4653087589        2.1557395914       -1.9370130505
 C          3.5468999382        1.1356488779       -3.5853261533
 C          3.1266928606        0.6740554418       -1.1558001756
 C          3.6983177268        0.6565834921        0.2674107353
 H          3.9767388079        1.6818005866        0.5564189529
 O          2.7308336918        0.1559091358        1.1901125893
 C          1.8551455797        1.0618276645        1.7521858740
 N          0.8477642700        1.5752108948        0.8420788402
 C          0.7512449041        2.8937731335        0.4859920092
 C         -0.2932347076        2.9921449865       -0.3671009041
 N         -0.7984704226        1.7307740470       -0.5200072979
 C         -1.9641864245        1.3668354543       -1.3069848963
 H         -1.6807218616        0.4541312593       -1.8431187689
 C         -2.3434750556        2.4444505912       -2.3198161696
 C         -3.1389570983        1.0649224599       -0.3935776992
 C         -3.3050876803        1.8034439082        0.7511057897
 C         -4.3616180732        1.5548934087        1.6358417284
 C         -5.2534465249        0.5573031392        1.3692670468
 C         -5.1367611699       -0.2126328189        0.1941770203
 C         -6.0598277998       -1.2410480023       -0.0890039114
 C         -5.9585389317       -1.9826145033       -1.2307090052
 C         -4.9305611355       -1.7144720497       -2.1451278404
 C         -4.0185647127       -0.7265917906       -1.8986074114
 C         -4.0765995682        0.0473076857       -0.7182173459
 C         -0.1057795829        0.8393555457        0.2241203571
 Ni        -0.4761152070       -1.2106875541        0.4150170782
 C         -1.8939885684       -1.2559114643        1.4921809381
 O         -2.8146801135       -1.2688109513        2.1680910743
 C         -0.8116237145       -1.9148454186       -1.1869042169
 O         -1.0119653852       -2.4775888618       -2.1626984528
 C          1.0056779137       -2.0084692246        1.0653420321
 O          1.8814092088       -2.6524196862        1.4062402101
 H          5.3965594904       -1.5060957574        3.5532983308
 H          4.9238770657       -2.3960295905        2.1056715755
 H          3.8579527131       -1.1551110882        2.7556955346
 H          6.6180936731       -0.7195992610        1.5519334212
 H          4.6929121243        1.2664633956        2.8174374872
 H          6.1060963103        1.7346256627        1.8560196670
 H          6.3095020074        0.8351336308        3.3554550088
 H          6.8310769764       -0.4340759213       -0.6741724617
 H          6.2937657091        1.2307521808       -0.4503214824
 H          5.0909344518       -0.7901746913       -2.3927023894
 H          6.1370730487        0.5653627150       -2.8249587540
 H          3.2165717663        0.1351536414       -3.8552697148
 H          4.2780126667        1.4662329853       -4.3196629202
 H          2.6886521922        1.8029274627       -3.6299541796
 H          2.7788789769       -0.3337877601       -1.3932062286
 H          2.2616950945        1.3376966813       -1.1979238459
 H          2.3820268391        1.9395267420        2.1654231381
 H          1.3479268536        0.5168437844        2.5594322093
 H          1.4182290676        3.6428312172        0.8613683420
 H         -0.6937312205        3.8522185195       -0.8600864268
 H         -1.4918160797        2.7101998494       -2.9432033718
 H         -2.7220219405        3.3339495255       -1.8206877139
 H         -3.1342088270        2.0609095649       -2.9595997087
 H         -2.6016770971        2.5875398682        0.9964702165
 H         -4.4513655674        2.1509385490        2.5320570173
 H         -6.0615436072        0.3412370942        2.0529374128
 H         -6.8515698913       -1.4302486480        0.6219546695
 H         -6.6653722834       -2.7723452137       -1.4385506308
 H         -4.8610258855       -2.2976733418       -3.0517551550
 H         -3.2471932423       -0.5418722666       -2.6302469477
  70
       -106.38165216
 C          2.6734571494       -3.0692403858        0.2292014413
 C          3.0516837971       -2.5046253839        1.5974421472
 C          1.8263623483       -2.4899028221        2.5092466008
 C          3.7516831579       -1.1361068529        1.4668592739
 H          4.4891238994       -1.2313455275        0.6610296840
 C          4.5243908295       -0.7724023018        2.7407391525
 C          4.9235285562        0.6967236041        2.6961856896
 C          3.6919960884        1.5931818203        2.8613535942
 H          3.4789929597        1.7061980677        3.9309436796
 C          3.9682638166        2.9783422628        2.2831832841
 C          2.4636123146        0.9392317409        2.2058989237
 C          2.8211871822        0.0179313415        1.0376911918
 H          1.8908523892       -0.3914651593        0.6250500136
 O          3.4669854885        0.7819799428        0.0031478629
 C          2.7945608322        0.8423288277       -1.2057108870
 N          1.5573210463        1.5885825207       -1.0953098971
 C          1.5377751938        2.8957269125       -0.6895628982
 C          0.2388456313        3.2406447354       -0.5492973841
 N         -0.5020324579        2.1392998967       -0.8801211557
 C         -1.9483267274        2.0292729054       -0.7937891496
 H         -2.2703821336        1.5748598654       -1.7376565513
 C         -2.6302501429        3.3864575670       -0.6387244687
 C         -2.3313223127        1.1159179189        0.3582620457
 C         -1.5629243969        1.1097375251        1.4956748932
 C         -1.8620245498        0.2731807715        2.5778946608
 C         -2.9419037056       -0.5588345084        2.5179097574
 C         -3.7776911387       -0.5666389064        1.3824115467
 C         -4.9007064734       -1.4178194561        1.3188157368
 C         -5.7179188859       -1.4239334941        0.2252185157
 C         -5.4476555501       -0.5662173726       -0.8500463497
 C         -4.3655896942        0.2685683592       -0.8205572041
 C         -3.4860850194        0.2902099959        0.2846691503
 C          0.3003421951        1.1036625987       -1.2205143067
 Ni        -0.3419454611       -0.8054688864       -1.8518063557
 C         -0.8472614337       -1.6189797618       -0.3473942123
 O         -1.2032391519       -2.1522210526        0.5969227823
 C         -1.7370915019       -0.6059955846       -2.9584386461
 O         -2.6126197174       -0.6373317602       -3.6909491612
 C          0.9491237508       -1.6349328981       -2.7883595791
 O          1.6580530771       -2.2331411563       -3.4551359488
 H          2.2741846024       -4.0756236283        0.3336674396
 H          3.5409764674       -3.1119357656       -0.4262085927
 H          1.9096160024       -2.4579059805       -0.2502070172
 H          3.7909115015       -3.1822630632        2.0426593726
 H          1.4332930557       -3.4993984798        2.6087129126
 H          1.0367027374       -1.8645425160        2.1004221059
 H          2.0761233967       -2.1295475863        3.5040123718
 H          5.4114998654       -1.4045693468        2.8123121050
 H          3.9173367821       -0.9555136348        3.6284902725
 H          5.3880985123        0.9009365011        1.7302254097
 H          5.6511675221        0.9211879058        3.4782511343
 H          4.1698369467        2.8965344238        1.2186238905
 H          4.8367659124        3.4216322469        2.7660786285
 H          3.1170316609        3.6402750001        2.4341793495
 H          1.7844069255        1.7178003504        1.8517414721
 H          1.9231939339        0.3395128046        2.9381722728
 H          2.5424594850       -0.1559275711       -1.5955319301
 H          3.4675581280        1.3547962766       -1.9033813520
 H          2.4366080447        3.4538580626       -0.5303274546
 H         -0.1911142894        4.1720209279       -0.2484843468
 H         -2.3342732166        4.0649436565       -1.4364243292
 H         -2.3966388390        3.8320459318        0.3259104522
 H         -3.7070190391        3.2449415827       -0.6871845621
 H         -0.6948622291        1.7502323453        1.5667435535
 H         -1.2231793422        0.2878974722        3.4486495671
 H         -3.1739125815       -1.2233536108        3.3373815203
 H         -5.0996135671       -2.0686802975        2.1583477995
 H         -6.5732808808       -2.0817830979        0.1810596139
 H         -6.1025407862       -0.5691630851       -1.7091136688
 H         -4.1934931870        0.9214893323       -1.6624320814
  70
       -106.38159066
 C          2.1336069851        3.5542280789        1.3180327266
 C          1.5544022704        2.2453249268        0.7830322994
 C          0.3054264108        1.8712280292        1.5783206031
 C          2.5635549374        1.0770222798        0.7589539951
 H          1.9943035022        0.1494365983        0.6078737090
 C          3.3462161802        0.9401008693        2.0663368190
 C          4.3171366733       -0.2334084927        2.0202062050
 C          5.3260580687       -0.0373641365        0.8911197960
 H          5.8658120853        0.9014328271        1.0606803577
 C          6.3342080622       -1.1815356996        0.8419598970
 C          4.5626499643        0.0595161886       -0.4277647143
 C          3.5444077112        1.2032900129       -0.4172322665
 H          4.0865506512        2.1523662162       -0.3343418907
 O          2.8969380282        1.3447132703       -1.6897254927
 C          2.1499368895        0.2838674966       -2.1917133682
 N          0.7379144652        0.3783876503       -1.8715207961
 C         -0.0103259106        1.4589045576       -2.2531177777
 C         -1.2704195588        1.2317099456       -1.8245117622
 N         -1.2627979554        0.0147561176       -1.1989625195
 C         -2.4449987039       -0.6138988217       -0.6253043380
 H         -2.0580090622       -1.4719681468       -0.0566394170
 C         -3.3410128998       -1.1865644846       -1.7303255511
 C         -3.0846988409        0.3069700257        0.4031098935
 C         -2.6897514306        0.0876933401        1.7027763949
 C         -3.1266172940        0.8823507432        2.7675408845
 C         -3.9797018503        1.9187970491        2.5287556799
 C         -4.4337765288        2.1790111962        1.2206295075
 C         -5.3271833733        3.2462827504        0.9868397863
 C         -5.7926482650        3.5198080989       -0.2663142195
 C         -5.3805437912        2.7201408592       -1.3399275429
 C         -4.5133799948        1.6806871394       -1.1461575048
 C         -3.9955441362        1.3681036885        0.1322828549
 C         -0.0227465326       -0.5253146525       -1.2119971110
 Ni         0.5500951742       -2.3638064772       -0.3173421558
 C         -0.6201826085       -3.5719280780       -0.9356019916
 O         -1.2997331750       -4.3749362890       -1.3788322220
 C          2.1716655146       -2.9424443120       -0.8216037399
 O          3.1440161136       -3.4982660532       -1.0494282178
 C          0.5481797026       -2.0147704907        1.4349615245
 O          0.6246777717       -1.7986961061        2.5537438846
 H          3.0549993293        3.8165430478        0.8044119470
 H          2.3304051095        3.4899434203        2.3850802307
 H          1.4181677909        4.3582761641        1.1574216303
 H          1.2519329584        2.4265160372       -0.2535037600
 H         -0.1195803350        0.9393021689        1.2134489714
 H         -0.4527677790        2.6466861490        1.4873795677
 H          0.5391416919        1.7491237919        2.6332377564
 H          2.6450139449        0.8025404787        2.8906264960
 H          3.9157196343        1.8521612784        2.2513499512
 H          3.7671233811       -1.1637043621        1.8573285759
 H          4.8385142542       -0.3167588134        2.9760461215
 H          6.8822636570       -1.2467953356        1.7790604423
 H          7.0481903569       -1.0304079785        0.0354549402
 H          5.8253602372       -2.1288817933        0.6767017041
 H          4.0522639796       -0.8923535040       -0.5823099282
 H          5.2523853567        0.2118992958       -1.2612126131
 H          2.4959114686       -0.6964139737       -1.8478346142
 H          2.2485986104        0.3367499316       -3.2851297380
 H          0.4212088712        2.2829502362       -2.7825319682
 H         -2.1454473539        1.8416604743       -1.8984346737
 H         -4.3584299059       -1.3051561161       -1.3680031684
 H         -2.9658369378       -2.1632090750       -2.0281383645
 H         -3.3432106687       -0.5611956947       -2.6195140257
 H         -2.0135763570       -0.7268418480        1.9201203744
 H         -2.7787702352        0.6670714242        3.7662463657
 H         -4.3249415513        2.5516604522        3.3333185830
 H         -5.6386335268        3.8444917915        1.8312453129
 H         -6.4763370792        4.3379178594       -0.4366433735
 H         -5.7561073630        2.9269119627       -2.3316854121
 H         -4.2401895956        1.0863029281       -1.9993849941
  70
       -106.38158612
 C          2.7277121609        2.6569853538        2.5365594285
 C          2.3302048553        1.1836481310        2.4751868272
 C          2.0374863994        0.6698005254        3.8838729377
 C          3.3677042014        0.2904863951        1.7648722342
 H          3.0430314502       -0.7446982931        1.9121523321
 C          4.7922704327        0.4329461928        2.2998883994
 C          5.7245670693       -0.5706356647        1.6287223821
 C          5.7478488062       -0.3604004675        0.1157570510
 H          6.1209060170        0.6506930302       -0.0885627838
 C          6.6694065729       -1.3671296685       -0.5666380195
 C          4.3272091953       -0.4708937555       -0.4362227083
 C          3.3812813659        0.5219542831        0.2459766516
 H          3.7199178555        1.5487565766        0.0222369701
 O          2.0457645951        0.3703726614       -0.2065496650
 C          1.7791399844        0.7588121075       -1.5233450281
 N          0.3799725509        1.0805317413       -1.5821835850
 C         -0.1162339849        2.3497432574       -1.4508224107
 C         -1.4586553980        2.2331547913       -1.3587592304
 N         -1.7437857022        0.8966763647       -1.4159554597
 C         -3.0970699778        0.3781231620       -1.2902912735
 H         -3.0036612156       -0.6874568909       -1.0414326007
 C         -3.7944480647        0.4783782795       -2.6451487476
 C         -3.7811023993        1.0902699856       -0.1404351781
 C         -4.8790485266        1.8870762813       -0.3391481013
 C         -5.4791208214        2.5847295181        0.7194354230
 C         -4.9614967637        2.4996484622        1.9782689620
 C         -3.8349375614        1.6907934287        2.2345965456
 C         -3.2908869231        1.6004350974        3.5330645939
 C         -2.2047733637        0.8125251119        3.7867670363
 C         -1.6321526585        0.0642665857        2.7493515648
 C         -2.1365743559        0.1291701021        1.4803303692
 C         -3.2399281730        0.9563209062        1.1720114974
 C         -0.6206732879        0.1671488730       -1.5565950664
 Ni        -0.3371224497       -1.9094731907       -1.6504406067
 C         -1.8842692804       -2.8168672862       -1.6981209312
 O         -2.7773872191       -3.5247829389       -1.7849685114
 C          0.5644312992       -2.2055452708       -3.1617969308
 O          1.1250014514       -2.4119406450       -4.1360246535
 C          0.5915608940       -2.1869141261       -0.1442579996
 O          1.1458971769       -2.3388429989        0.8403245852
 H          1.9005691262        3.2428068551        2.9323937179
 H          2.9700851263        3.0432416175        1.5496732661
 H          3.5861133605        2.8026550838        3.1880330566
 H          1.4068650092        1.1018927185        1.8918076073
 H          2.9048670403        0.7823905493        4.5304171600
 H          1.7602412252       -0.3813188387        3.8603500394
 H          1.2150482896        1.2319785991        4.3208599178
 H          4.7973230390        0.2693066290        3.3778920452
 H          5.1594509903        1.4428279022        2.1074051238
 H          5.3855481600       -1.5859810636        1.8452369370
 H          6.7345086020       -0.4622030517        2.0302322567
 H          6.3222493331       -2.3818356199       -0.3848639009
 H          7.6831271309       -1.2774069276       -0.1829616635
 H          6.6927384360       -1.2006837546       -1.6412894728
 H          3.9430512309       -1.4800407338       -0.2726202319
 H          4.3371086035       -0.2875062305       -1.5137567231
 H          1.9889392754       -0.0575294253       -2.2338531829
 H          2.3660623294        1.6490390355       -1.8024592533
 H          0.5151461236        3.2140507934       -1.4377649112
 H         -2.2204324017        2.9767766994       -1.2470153664
 H         -4.7985252731        0.0679515236       -2.5868979105
 H         -3.2267775508       -0.1016902577       -3.3704427304
 H         -3.8421813735        1.5082522463       -2.9922522696
 H         -5.3055894045        1.9963818641       -1.3235820092
 H         -6.3462435233        3.1970423690        0.5203847109
 H         -5.4056977223        3.0465573238        2.7974610921
 H         -3.7558501483        2.1704528767        4.3251464910
 H         -1.7908999996        0.7509361511        4.7826382577
 H         -0.7856047883       -0.5727064449        2.9561083621
 H         -1.6741996594       -0.4761449525        0.7149810739
  70
       -106.38158449
 C          4.9667401251       -1.1265752694       -3.2173300851
 C          3.7527332856       -0.6474662943       -2.4193666743
 C          3.2781926137        0.6774027977       -3.0175309091
 C          4.0894398445       -0.5112798977       -0.9208044264
 H          4.7679735497        0.3407912261       -0.8016738694
 C          4.7938210281       -1.7600375597       -0.3700866805
 C          4.6729644510       -1.8073327815        1.1482229411
 C          3.2325952738       -2.1280617790        1.5550824739
 H          3.0778259903       -3.2107815161        1.4790871929
 C          2.9829989599       -1.7128854192        3.0016768726
 C          2.2570982733       -1.4402699044        0.5870955082
 C          2.8403791668       -0.1887813658       -0.0707650483
 H          2.0586290656        0.2364283411       -0.7113681246
 O          3.1940579100        0.8043691865        0.9059308301
 C          2.3482575818        1.8958196438        1.0005970992
 N          1.1021107882        1.5817068530        1.6724204108
 C          1.0479817419        1.3363426337        3.0176482542
 C         -0.2208421781        0.9653759677        3.2967663249
 N         -0.9125972930        1.0015131242        2.1174320861
 C         -2.2936079525        0.5871664296        1.9336311485
 H         -2.7354015739        1.3274684709        1.2576952233
 C         -3.0807505631        0.5751391217        3.2413070163
 C         -2.3281815754       -0.7803385427        1.2731098143
 C         -1.3965242495       -1.7193236405        1.6387418013
 C         -1.3374656806       -2.9743077423        1.0209411984
 C         -2.2221761975       -3.2864012004        0.0300988297
 C         -3.2242589748       -2.3705890347       -0.3501174285
 C         -4.1555350752       -2.6961710225       -1.3584533924
 C         -5.1406930285       -1.8211119619       -1.7155497921
 C         -5.2436966235       -0.5848413380       -1.0627176115
 C         -4.3527439230       -0.2364543876       -0.0863994534
 C         -3.3018472601       -1.1021664914        0.2897484032
 C         -0.1079439851        1.3829618276        1.0986728001
 Ni        -0.6694326544        1.5820501019       -0.9261110508
 C          0.3692208989        2.7903111367       -1.7550337643
 O          0.8815443551        3.6245688698       -2.3447087041
 C         -0.5766006545       -0.1222217668       -1.4408796577
 O         -0.5030127170       -1.2353204354       -1.6830858861
 C         -2.3262076847        2.2583038970       -1.0765604049
 O         -3.3258633750        2.7279749914       -1.3663299098
 H          4.7299462357       -1.1399176064       -4.2789832220
 H          5.2678058545       -2.1292985919       -2.9298885106
 H          5.8073970127       -0.4530941480       -3.0646138874
 H          2.9504383472       -1.3870176554       -2.5268981516
 H          2.3370033664        1.0080180232       -2.5848299446
 H          3.1219968018        0.5681341666       -4.0884354314
 H          4.0234582493        1.4541291662       -2.8577591595
 H          5.8458086997       -1.7417765418       -0.6555147418
 H          4.3444380127       -2.6614353175       -0.7925558714
 H          4.9537016726       -0.8336711996        1.5522170785
 H          5.3502947181       -2.5572340822        1.5614646306
 H          3.1205189178       -0.6404763342        3.1057724157
 H          3.6824928981       -2.2170980691        3.6655472153
 H          1.9713600603       -1.9693866675        3.3118859098
 H          1.3349850153       -1.1758430147        1.1067734526
 H          1.9832909672       -2.1213284371       -0.2204565105
 H          2.0963762757        2.3116206504        0.0130947581
 H          2.8834587771        2.6462713869        1.5945262426
 H          1.9027191277        1.4477404865        3.6517009191
 H         -0.6643809749        0.6942938430        4.2310761819
 H         -4.1292424200        0.3952899886        3.0170790474
 H         -2.9948336438        1.5307321800        3.7548771667
 H         -2.7400469124       -0.2230992293        3.8971516988
 H         -0.6750360116       -1.4907071955        2.4116345699
 H         -0.5765202672       -3.6773452598        1.3258926268
 H         -2.1727455601       -4.2402449645       -0.4746863837
 H         -4.0723322023       -3.6588577724       -1.8426287413
 H         -5.8474433529       -2.0751322534       -2.4916744477
 H         -6.0364075040        0.0958695026       -1.3367007341
 H         -4.4726838993        0.7151550618        0.4083751936
  70
       -106.38158353
 C          2.7260850205        2.5941696918        2.6041344700
 C          2.3310804588        1.1226935718        2.4986539634
 C          2.0374493345        0.5667860272        3.8910465883
 C          3.3710939565        0.2524785872        1.7639666310
 H          3.0508648041       -0.7874681855        1.8846706534
 C          4.7957011072        0.3865368066        2.3010762435
 C          5.7310149539       -0.5958198308        1.6032847941
 C          5.7516575393       -0.3460355946        0.0963320298
 H          6.1204408131        0.6715481719       -0.0817977710
 C          6.6764334123       -1.3307372742       -0.6132739625
 C          4.3309016584       -0.4475374527       -0.4571335560
 C          3.3817265708        0.5233684727        0.2515997693
 H          3.7158317731        1.5570538965        0.0539953132
 O          2.0461167324        0.3783660451       -0.2031105206
 C          1.7794468858        0.7901518718       -1.5127236354
 N          0.3789234420        1.1064155630       -1.5686853190
 C         -0.1231827631        2.3725395089       -1.4305778140
 C         -1.4653608375        2.2494988910       -1.3431668471
 N         -1.7444533607        0.9122129603       -1.4099396720
 C         -3.0960428328        0.3870891605       -1.2935539956
 H         -2.9991817855       -0.6796153826       -1.0509223559
 C         -3.7876288691        0.4926173014       -2.6510007559
 C         -3.7883067254        1.0892371061       -0.1424897217
 C         -4.8873089522        1.8845017733       -0.3415929862
 C         -5.4954834334        2.5724540432        0.7187073003
 C         -4.9850141675        2.4792156117        1.9798754970
 C         -3.8575653579        1.6717431165        2.2366231699
 C         -3.3208458866        1.5730103731        3.5375154237
 C         -2.2340414105        0.7861663498        3.7915532193
 C         -1.6527021995        0.0480600863        2.7517071307
 C         -2.1496547833        0.1215833426        1.4802114177
 C         -3.2540736500        0.9473139857        1.1719419227
 C         -0.6177446863        0.1884931252       -1.5521543871
 Ni        -0.3245659734       -1.8862112115       -1.6557876379
 C         -1.8675691744       -2.7991438974       -1.7246658934
 O         -2.7569051454       -3.5104036122       -1.8238307133
 C          0.5947093352       -2.1716471220       -3.1585290266
 O          1.1668371615       -2.3730587110       -4.1272202557
 C          0.5887729692       -2.1691470937       -0.1414382089
 O          1.1309905561       -2.3252113712        0.8489616871
 H          3.5822478160        2.7219968657        3.2622830395
 H          1.8969043677        3.1672992487        3.0140641667
 H          2.9710559591        3.0089558711        1.6295613674
 H          1.4086674883        1.0567400955        1.9117937311
 H          1.2161515876        1.1168464726        4.3452883341
 H          2.9051438464        0.6577677714        4.5406016684
 H          1.7583686852       -0.4826220850        3.8351586900
 H          4.8025054143        0.1951416089        3.3744843468
 H          5.1589717846        1.4023895066        2.1343640069
 H          5.3959696547       -1.6176969137        1.7936308911
 H          6.7410048538       -0.4941518103        2.0064874849
 H          6.6979537930       -1.1358438871       -1.6831703605
 H          6.3334526249       -2.3512520927       -0.4580586450
 H          7.6901964528       -1.2471489522       -0.2283154439
 H          3.9506553092       -1.4620873333       -0.3197368176
 H          4.3394011611       -0.2360138469       -1.5295088883
 H          1.9947626825       -0.0116828042       -2.2379699642
 H          2.3623935315        1.6883402234       -1.7741335194
 H          0.5043180459        3.2395260238       -1.4101940772
 H         -2.2306685350        2.9890709875       -1.2287732502
 H         -4.7904718124        0.0783013072       -2.5994918857
 H         -3.2147306699       -0.0811749712       -3.3771762344
 H         -3.8375970408        1.5243004700       -2.9923536464
 H         -5.3089205969        1.9994149253       -1.3275109438
 H         -6.3631137855        3.1839081415        0.5192213469
 H         -5.4353758263        3.0188481520        2.8005245460
 H         -3.7922032385        2.1354321144        4.3312424532
 H         -1.8258807979        0.7181450507        4.7893676923
 H         -0.8052274298       -0.5876573181        2.9585297714
 H         -1.6810111238       -0.4763194525        0.7128505687
  70
       -106.38158092
 C          3.1182459744        2.4392871179        2.7248974208
 C          2.5365353881        1.0437712569        2.5084123366
 C          2.2415611293        0.3903067487        3.8575135828
 C          3.4239842663        0.1320292705        1.6368651189
 H          3.0014356764       -0.8752187966        1.7042661553
 C          4.8860595764        0.0712330793        2.0774576069
 C          5.6570820341       -0.9486041598        1.2458353622
 C          5.6108012996       -0.5815968544       -0.2362032305
 H          6.0831155918        0.4000250750       -0.3654231898
 C          6.3675012307       -1.6022439844       -1.0812610830
 C          4.1564888547       -0.4799847001       -0.6937003491
 C          3.3656308212        0.5230018675        0.1516126572
 H          3.7935497529        1.5305721377        0.0097719459
 O          1.9944647079        0.5533639612       -0.2167282139
 C          1.6953562287        1.1667701763       -1.4354101077
 N          0.2714787067        1.3475449715       -1.4677971020
 C         -0.3570389760        2.5544986694       -1.3217738319
 C         -1.6809957135        2.2950812814       -1.2502151624
 N         -1.8222754915        0.9376277998       -1.3345634389
 C         -3.1138823154        0.2730993808       -1.2460742951
 H         -2.9111923841       -0.7736580937       -0.9799442260
 C         -3.7699542450        0.2856186670       -2.6253847595
 C         -3.9170926791        0.9124068875       -0.1307996588
 C         -5.0950867014        1.5692435817       -0.3778250269
 C         -5.8143962484        2.1958161435        0.6505527592
 C         -5.3395608699        2.1806324451        1.9288885390
 C         -4.1336680188        1.5164468711        2.2348433872
 C         -3.6318256038        1.4989378716        3.5531642505
 C         -2.4667852670        0.8528281000        3.8535340496
 C         -1.7660413058        0.1785220148        2.8443147413
 C         -2.2280636464        0.1746536145        1.5576605013
 C         -3.4136650856        0.8554863833        1.2019756203
 C         -0.6266861739        0.3331510163       -1.4763113553
 Ni        -0.1381269907       -1.7037732782       -1.5626081032
 C         -1.5690894685       -2.6619384966       -2.0715138027
 O         -2.3980783434       -3.3534006847       -2.4469768484
 C          1.1807949355       -1.9194710387       -2.7478681267
 O          2.0404263536       -2.1389419229       -3.4688608548
 C          0.4484931503       -1.9643059541        0.1021683462
 O          0.8453458538       -2.0630153747        1.1672089862
 H          3.3751948497        2.9116403158        1.7798775854
 H          4.0093180366        2.3977156062        3.3467289674
 H          2.3860904641        3.0685192852        3.2270002445
 H          1.5863246325        1.1465390918        1.9734754258
 H          3.1466576004        0.2954308469        4.4532564305
 H          1.8162497099       -0.6005921206        3.7182593083
 H          1.5305062960        0.9941549025        4.4175504340
 H          4.9400238723       -0.2025037993        3.1316444047
 H          5.3501524648        1.0518862183        1.9563380221
 H          5.2198155106       -1.9397070406        1.3848750359
 H          6.6955379732       -0.9907038154        1.5817750961
 H          5.9177805875       -2.5871977363       -0.9771571999
 H          7.4065202311       -1.6640312551       -0.7656654987
 H          6.3433089716       -1.3248242977       -2.1326994235
 H          3.6707701288       -1.4550229795       -0.6094300754
 H          4.1273527485       -0.1820613341       -1.7447419308
 H          2.0018273371        0.5438511332       -2.2919468954
 H          2.1853086383        2.1524461148       -1.5149918380
 H          0.1790005086        3.4803227037       -1.2849133245
 H         -2.5181318733        2.9522044904       -1.1357410800
 H         -3.1128768694       -0.2243450069       -3.3275012631
 H         -3.9261257993        1.3019966928       -2.9804733488
 H         -4.7200199844       -0.2404119498       -2.5995447330
 H         -5.4956658522        1.6191150137       -1.3777467503
 H         -6.7406717138        2.6977740833        0.4128840703
 H         -5.8778967407        2.6738960257        2.7253377886
 H         -4.1930381375        2.0100719216        4.3227265884
 H         -2.0861282842        0.8477243557        4.8643651940
 H         -0.8536866700       -0.3451020881        3.0870912244
 H         -1.6686277739       -0.3702974170        0.8128999204
  70
       -106.38156926
 C          2.6426836757        3.6150037116       -1.1918558273
 C          2.4279598791        2.6963873728        0.0091734848
 C          2.3811443483        3.5258597707        1.2913430097
 C          3.4719703163        1.5666484080        0.1198835811
 H          3.3070449474        1.0812735453        1.0871339784
 C          4.9229395291        2.0427201252        0.0584149585
 C          5.8824639579        0.8822340586        0.3016109292
 C          5.6833077726       -0.2123821001       -0.7451602452
 H          5.8938771111        0.2114316975       -1.7347461543
 C          6.6309741937       -1.3840068882       -0.5050374280
 C          4.2296536838       -0.6831367517       -0.7221799637
 C          3.2584582705        0.4800566929       -0.9454273673
 H          3.4281654209        0.8985190140       -1.9530454327
 O          1.9061273376        0.0634666896       -0.8447578063
 C          1.4295102728       -0.7678192164       -1.8631428449
 N         -0.0016424753       -0.6452956057       -1.8584462709
 C         -0.7014562650        0.1744519649       -2.7024323003
 C         -1.9831192670        0.1657549560       -2.2762273651
 N         -2.0269823134       -0.6417569605       -1.1732423799
 C         -3.2430461904       -0.8521729451       -0.4029542778
 H         -2.9317444005       -1.2398352687        0.5763952992
 C         -4.0807589117       -1.9318887857       -1.0845730810
 C         -3.9259285858        0.4860966071       -0.2033327365
 C         -5.1659675555        0.7462029679       -0.7273036410
 C         -5.7739140985        2.0018777719       -0.5819905421
 C         -5.1250380593        3.0070194770        0.0725978734
 C         -3.8488233656        2.7885787668        0.6317361112
 C         -3.1686390278        3.8240533561        1.3064802363
 C         -1.9359355884        3.6141997781        1.8553374178
 C         -1.3431613052        2.3472997568        1.7678255641
 C         -1.9770471400        1.3227827072        1.1215959499
 C         -3.2394634567        1.5089443155        0.5148371668
 C         -0.8125727684       -1.1559510136       -0.9003814028
 Ni        -0.1710329950       -2.3969111065        0.6642475970
 C          0.6934829299       -3.7594918269       -0.0986041409
 O          1.2426077665       -4.6492281863       -0.5602919504
 C          0.8817404000       -1.2665796270        1.5680484217
 O          1.5190369548       -0.5112384547        2.1365462741
 C         -1.5423848211       -3.0341454697        1.6300164429
 O         -2.3132717505       -3.5541466093        2.2947446979
 H          2.7117686777        3.0475039929       -2.1165684984
 H          3.5498300756        4.2032729170       -1.0756542689
 H          1.8040522145        4.3025138204       -1.2817004789
 H          1.4563895247        2.2039494583       -0.1051672897
 H          2.2326316131        2.8860268440        2.1578681472
 H          1.5592592845        4.2370973583        1.2446017372
 H          3.3038435172        4.0846725195        1.4307261991
 H          5.0877559981        2.8148004058        0.8105179806
 H          5.1288455944        2.4742603835       -0.9229612079
 H          5.7073751625        0.4651738243        1.2956669316
 H          6.9133428619        1.2413994434        0.2661198908
 H          6.4431345633       -1.8291183916        0.4695341376
 H          7.6656538250       -1.0502960784       -0.5362119190
 H          6.4943302742       -2.1512984408       -1.2638017664
 H          4.0024212235       -1.1403024564        0.2433767066
 H          4.0792148173       -1.4414758908       -1.4948178797
 H          1.7002388858       -1.8212401085       -1.6837355631
 H          1.8155055480       -0.4529553562       -2.8467905689
 H         -0.2386491237        0.6831805161       -3.5226975142
 H         -2.8499811300        0.6682367851       -2.6527953471
 H         -4.9812655982       -2.1325800092       -0.5111467049
 H         -3.4929451669       -2.8466714936       -1.1342287738
 H         -4.3516175504       -1.6435786498       -2.0979417198
 H         -5.7030133502       -0.0165048867       -1.2684283133
 H         -6.7543958744        2.1628818288       -1.0052838323
 H         -5.5770091489        3.9831083840        0.1748581485
 H         -3.6479532505        4.7901369457        1.3801413083
 H         -1.4189282376        4.4127701653        2.3670118367
 H         -0.3769421787        2.1787601527        2.2185518041
 H         -1.4919769476        0.3586373938        1.0920493784
  70
       -106.38154748
 C          1.9236937382       -2.4611768481       -1.7909301314
 C          2.6205905858       -1.1132011042       -1.9586913254
 C          3.3388256886       -1.0632266877       -3.3061084485
 C          3.5813127571       -0.7521991320       -0.8081608912
 H          3.9861139266        0.2411040000       -1.0411323465
 C          4.7776072840       -1.6997512130       -0.6660788652
 C          5.4602580381       -1.4572781178        0.6754522722
 C          4.5849912051       -1.9574401554        1.8294566385
 H          4.7638775354       -3.0302846880        1.9671702778
 C          4.9533157294       -1.2415317228        3.1258406842
 C          3.0975434650       -1.7697332924        1.4886064333
 C          2.8441084776       -0.5983589742        0.5408946501
 H          1.7624610998       -0.5306008530        0.3530391839
 O          3.2570519364        0.6059975504        1.2060566371
 C          2.4785923036        1.7208399954        0.9360740559
 N          1.1818546759        1.6045317365        1.5700363864
 C          1.0654053003        1.4437601317        2.9246586035
 C         -0.2377725280        1.1913039767        3.1758111752
 N         -0.8845394733        1.2085560861        1.9702792564
 C         -2.2838466657        0.8866450334        1.7537115131
 H         -2.6588702647        1.6413125110        1.0528793999
 C         -3.1026641269        0.9518999192        3.0410075896
 C         -2.4110815287       -0.4879801870        1.1192786386
 C         -1.4912213762       -1.4613140757        1.4209924583
 C         -1.5638070984       -2.7388715208        0.8520415996
 C         -2.5704561166       -3.0423884847       -0.0175494666
 C         -3.5527502227       -2.0833375328       -0.3386420880
 C         -4.5990354100       -2.3936879539       -1.2322451420
 C         -5.5517655768       -1.4684211007       -1.5484368710
 C         -5.4967097807       -0.1899372319       -0.9763390373
 C         -4.4953220539        0.1423094142       -0.1070629816
 C         -3.4867425969       -0.7845245390        0.2381972731
 C         -0.0172911002        1.4572918066        0.9611951609
 Ni        -0.5200751072        1.6008052763       -1.0831271355
 C          0.8186033638        2.3112493735       -2.0486966824
 O          1.5701368076        2.7685218599       -2.7781379536
 C         -0.8991777090       -0.0730895024       -1.5813472832
 O         -1.1334850688       -1.1223745729       -1.9631425295
 C         -1.9482860572        2.6743497158       -1.1915854622
 O         -2.8507288964        3.3528120340       -1.3646147029
 H          1.2332452409       -2.6171769127       -2.6170397864
 H          1.3492346205       -2.4964689648       -0.8683993331
 H          2.6390542268       -3.2798945786       -1.7936535596
 H          1.8390949720       -0.3397754019       -1.9684430235
 H          4.0648765469       -1.8682038383       -3.3884006604
 H          3.8554527658       -0.1144197764       -3.4335536894
 H          2.6200652290       -1.1700906453       -4.1155126110
 H          5.4817288413       -1.5178379056       -1.4788789257
 H          4.4591784721       -2.7407979077       -0.7245108980
 H          5.6287643667       -0.3855568387        0.7932005626
 H          6.4301019553       -1.9574209146        0.7053505566
 H          4.7239530371       -0.1833366593        3.0367001047
 H          6.0159944270       -1.3536348750        3.3307054962
 H          4.3972050958       -1.6530715010        3.9661939855
 H          2.5292288411       -1.6089693144        2.4071685211
 H          2.7087875189       -2.6681711129        1.0094821580
 H          2.3121950681        1.8730578906       -0.1403273687
 H          3.0137951149        2.5803714692        1.3561515952
 H          1.9117755312        1.5107008898        3.5760583207
 H         -0.7318056791        1.0108083785        4.1064700874
 H         -4.1541760721        0.8254893170        2.7962742073
 H         -2.9746919221        1.9134780476        3.5342086094
 H         -2.8219925207        0.1517043362        3.7225386561
 H         -0.6781220682       -1.2491509491        2.1016220222
 H         -0.8119270068       -3.4723093651        1.1043780080
 H         -2.6306601749       -4.0196987711       -0.4738468526
 H         -4.6279658938       -3.3836800051       -1.6647358031
 H         -6.3479746734       -1.7113543026       -2.2364709292
 H         -6.2538690018        0.5377856208       -1.2294295786
 H         -4.4865707541        1.1350828347        0.3157620320
  70
       -106.38154596
 C          1.9485033096       -3.0450631375       -0.0328165296
 C          2.6365915081       -2.0428751865       -0.9563931002
 C          3.3574998767       -2.7828940930       -2.0818288358
 C          3.5924031121       -1.0724585763       -0.2340882521
 H          3.9917931058       -0.3991429472       -1.0034639594
 C          4.7939333900       -1.7518042195        0.4322475165
 C          5.4718864677       -0.7681617397        1.3795341884
 C          4.5968396257       -0.5067582576        2.6099625881
 H          4.7815576144       -1.2968680514        3.3472336598
 C          4.9580410569        0.8330274133        3.2450446726
 C          3.1091552872       -0.5619828273        2.2256619484
 C          2.8513860687       -0.1648035971        0.7729839225
 H          1.7697559356       -0.2250588469        0.5824019205
 O          3.2570571513        1.2035281556        0.6098782936
 C          2.4717928571        1.9481550575       -0.2563854659
 N          1.1774186533        2.2208670765        0.3329443131
 C          1.0655727986        2.8834457125        1.5257619188
 C         -0.2360449505        2.8247652640        1.8827452188
 N         -0.8864348811        2.1324420790        0.8980915665
 C         -2.2859778113        1.7455986372        0.9157012769
 H         -2.6646535427        1.9495477528       -0.0923947755
 C         -3.1005499153        2.5506020014        1.9257569011
 C         -2.4128672682        0.2593340982        1.2038994693
 C         -1.4933544373       -0.3532238284        2.0186685137
 C         -1.5649387984       -1.7224540863        2.3035590257
 C         -2.5697761602       -2.4780651144        1.7733984303
 C         -3.5515099559       -1.8885206419        0.9509369279
 C         -4.5955071095       -2.6638880758        0.4046262816
 C         -5.5478305957       -2.0987575454       -0.3938155323
 C         -5.4951900088       -0.7264527093       -0.6746476225
 C         -4.4960849747        0.0524141910       -0.1609108847
 C         -3.4871935170       -0.4971761816        0.6610098205
 C         -0.0230187342        1.7439763792       -0.0693052531
 Ni        -0.5301091727        0.6572466476       -1.8056495834
 C         -1.9726334378        1.4446882652       -2.5151567794
 O         -2.8845350445        1.8758582067       -3.0510528889
 C          0.7993391307        0.6811092882       -3.0143996700
 O          1.5445971623        0.6343540215       -3.8795023448
 C         -0.8916700232       -0.9927362484       -1.2227835174
 O         -1.1178130402       -2.0669350046       -0.9119032629
 H          1.2602564504       -3.6574371554       -0.6114622102
 H          1.3731541427       -2.5399388618        0.7392780496
 H          2.6693524705       -3.7076308941        0.4398563092
 H          1.8499523264       -1.4254611557       -1.4135585858
 H          4.0892918771       -3.4797811355       -1.6809120851
 H          3.8678464736       -2.0828337956       -2.7397400499
 H          2.6413344256       -3.3466683884       -2.6754873593
 H          5.4989507895       -2.0738044888       -0.3350863577
 H          4.4817401491       -2.6334111544        0.9925008689
 H          5.6338210986        0.1720848753        0.8498615391
 H          6.4445633376       -1.1510157878        1.6941036769
 H          4.7231129667        1.6392414733        2.5557302840
 H          6.0208100228        0.8677316704        3.4755751075
 H          4.4021053798        0.9855844396        4.1683448064
 H          2.5377906592        0.1010525691        2.8787276381
 H          2.7265512610       -1.5734789737        2.3611754056
 H          2.3017320916        1.4421636010       -1.2179034721
 H          3.0032854853        2.8927570775       -0.4206806158
 H          1.9136524979        3.3198630223        2.0109896659
 H         -0.7267028750        3.2229479603        2.7449998778
 H         -2.8158026688        2.2991663501        2.9452045472
 H         -4.1525583051        2.3050552324        1.8050675595
 H         -2.9732155517        3.6191720960        1.7638896969
 H         -0.6814110915        0.2177197851        2.4478531435
 H         -0.8136429767       -2.1693328824        2.9381970070
 H         -2.6289222409       -3.5379259883        1.9738055314
 H         -4.6228406107       -3.7202972596        0.6309507421
 H         -6.3420984660       -2.6990298201       -0.8123448563
 H         -6.2526598575       -0.2843342407       -1.3052748165
 H         -4.4897386392        1.1056733773       -0.3955867443
  70
       -106.38152055
 C          6.0585834638       -0.2679056492       -1.0232509947
 C          5.7395843090        0.8239003873       -0.0047016804
 C          7.0037208743        1.1930408098        0.7708776365
 C          4.5889574083        0.4722365395        0.9607029985
 H          4.5783188564        1.2638189493        1.7185347578
 C          4.7282231046       -0.8823731042        1.6752222055
 C          3.8973097532       -1.9788650500        1.0154183630
 C          2.3943056121       -1.6596288638        1.0595597047
 H          1.9321379460       -2.0570813625        0.1487474745
 C          1.7077701985       -2.3148052487        2.2546401774
 C          2.1604809447       -0.1437712527        1.0874547665
 C          3.2247095020        0.5751533143        0.2608350564
 H          3.2604629680        0.1208986042       -0.7387082377
 O          2.9707892682        1.9741167383        0.1045344235
 C          2.0185224920        2.3402450717       -0.8341971483
 N          0.6841988459        2.4247343420       -0.2739212110
 C          0.3743903063        3.3392014001        0.6955005108
 C         -0.9217704528        3.1388149094        1.0203820355
 N         -1.3719800467        2.1119668980        0.2360422335
 C         -2.7012518027        1.5324422115        0.2885996570
 H         -2.9346531328        1.2475543849       -0.7444612942
 C         -3.7430627115        2.5359971050        0.7813385840
 C         -2.7156449934        0.2870078706        1.1572289028
 C         -1.8532623493        0.1840018430        2.2192310443
 C         -1.8385063099       -0.9491090999        3.0429802311
 C         -2.6951410461       -1.9823828048        2.7985119584
 C         -3.6097644611       -1.9156995526        1.7276792510
 C         -4.4993219689       -2.9800107443        1.4718850295
 C         -5.3858899972       -2.9220013147        0.4353735052
 C         -5.4175448164       -1.7894116337       -0.3897711660
 C         -4.5687746349       -0.7408534096       -0.1680033554
 C         -3.6352117742       -0.7649236982        0.8918178715
 C         -0.3858569290        1.6502355585       -0.5658880825
 Ni        -0.5539556374       -0.0132536755       -1.8571223093
 C         -1.7882183620        0.4683520192       -3.0569236817
 O         -2.5624587704        0.7792389742       -3.8367739011
 C          1.0047524564       -0.4465766841       -2.6299758719
 O          1.9251052280       -0.8750388187       -3.1561065276
 C         -0.9847075024       -1.3798594329       -0.7827098943
 O         -1.1302436547       -2.3210851331       -0.1545966193
 H          6.8234792891        0.0865281032       -1.7113698161
 H          5.1824327383       -0.5337595385       -1.6090963267
 H          6.4357348942       -1.1625190244       -0.5342924611
 H          5.4120073898        1.7155411848       -0.5518569422
 H          7.7885865788        1.5039227749        0.0850319169
 H          7.3726321903        0.3453296726        1.3437584428
 H          6.8069694990        2.0119383708        1.4589874804
 H          4.4059966987       -0.7801051149        2.7130672792
 H          5.7758957981       -1.1822011961        1.6961657393
 H          4.0821143419       -2.9282559139        1.5221597087
 H          4.2158215471       -2.0969905698       -0.0198320913
 H          2.1580948759       -1.9793173867        3.1868384242
 H          1.7950146791       -3.3976350464        2.1993939437
 H          0.6501977520       -2.0586799960        2.2672617329
 H          2.1982379491        0.2338217654        2.1114760498
 H          1.1657330868        0.0634016503        0.6879827873
 H          1.9797440866        1.6450893763       -1.6853908749
 H          2.2996144808        3.3414527651       -1.1878263747
 H          1.0984771112        4.0335905583        1.0674513542
 H         -1.5373668503        3.6472631145        1.7315821562
 H         -3.6209029394        2.7370995599        1.8433539163
 H         -4.7360106703        2.1188023840        0.6360647389
 H         -3.6718831519        3.4685422480        0.2250186493
 H         -1.1544358792        0.9805101912        2.4327250637
 H         -1.1413211133       -0.9928155228        3.8668411047
 H         -2.6860801251       -2.8665418881        3.4192848364
 H         -4.4602932130       -3.8474493438        2.1153054192
 H         -6.0614607681       -3.7421716018        0.2423510052
 H         -6.1192670361       -1.7500113691       -1.2101300419
 H         -4.6208494923        0.1133934459       -0.8251036579
