%PAL NPROCS 16 END
%maxcore 4000
# arbr_24_r2scan3c.out
! wB97m-v def2-TZVPP def2/J RIJCOSX 
%nbo
NBOKEYLIST = "$NBO NBO NPA bndidx $END"
end
* xyz 0 1
  Br        2.60262        -0.18003        -0.00000
   C        0.73555         0.09861         0.00001
   C        0.26521         1.45026         0.00001
   C       -1.06148         1.69326         0.00001
   N       -1.93300         0.63449         0.00000
   C       -3.29667         0.54280        -0.00006
   N       -3.65659        -0.70940         0.00006
   N       -2.54669        -1.48854        -0.00002
   C       -1.50819        -0.68381        -0.00000
   C       -0.11395        -0.95490        -0.00000
   H        0.96691         2.26982         0.00001
   H       -1.49523         2.68235         0.00000
   H       -3.95162         1.39727        -0.00007
   H        0.21949        -1.98162        -0.00001
*
