%PAL NPROCS 16 END
%maxcore 4000
# arbr_10_r2scan3c.out
! wB97m-v def2-TZVPP def2/J RIJCOSX 
%nbo
NBOKEYLIST = "$NBO NBO NPA bndidx $END"
end
* xyz 0 1
  Br       -1.78747         0.00000        -0.00000
   C        0.10222        -0.00001         0.00000
   C        0.79567         1.19701        -0.00000
   C        2.18295         1.13457         0.00001
   N        2.87447         0.00000        -0.00000
   C        2.18296        -1.13456        -0.00001
   C        0.79567        -1.19701         0.00000
   H        0.27994         2.14644        -0.00001
   H        2.76183         2.05162        -0.00001
   H        2.76183        -2.05162         0.00000
   H        0.27996        -2.14646         0.00001
*
