%PAL NPROCS 16 END
%maxcore 4000
# arbr_16_r2scan3c.out
! wB97m-v def2-TZVPP def2/J RIJCOSX 
%nbo
NBOKEYLIST = "$NBO NBO NPA bndidx $END"
end
* xyz 0 1
   F        2.97515        -1.46948        -0.00000
   C        2.03985        -0.51761         0.00000
   C        2.42150         0.81294        -0.00001
   N        1.52503         1.79022        -0.00000
   C        0.23544         1.47963         0.00001
   C       -0.20788         0.16298         0.00000
  Br       -2.05825        -0.20428        -0.00000
   C        0.70771        -0.87437         0.00000
   H        3.47201         1.07834        -0.00001
   H       -0.47431         2.29752        -0.00000
   H        0.40992        -1.91344         0.00000
*
