%PAL NPROCS 16 END
%maxcore 4000
# arbr_15_r2scan3c.out
! wB97m-v def2-TZVPP def2/J RIJCOSX 
%nbo
NBOKEYLIST = "$NBO NBO NPA bndidx $END"
end
* xyz 0 1
   C       -4.22066        -0.62757        -0.00002
   O       -3.37158         0.49845         0.00002
   C       -2.03408         0.28184         0.00001
   C       -1.44395        -0.97734         0.00001
   C       -0.05737        -1.09034         0.00001
   C        0.72798         0.04512         0.00000
  Br        2.61693        -0.11610        -0.00000
   C        0.14555         1.30655        -0.00000
   C       -1.23012         1.42160         0.00000
   H       -4.06416        -1.23998         0.89186
   H       -5.23619        -0.24182        -0.00004
   H       -4.06412        -1.23996        -0.89191
   H       -2.04198        -1.87654         0.00002
   H        0.40354        -2.06833         0.00001
   H        0.76677         2.19139        -0.00001
   H       -1.70778         2.39201        -0.00000
*
