%PAL NPROCS 16 END
%maxcore 4000
# arbr_01_r2scan3c.out
! wB97m-v def2-TZVPP def2/J RIJCOSX 
%nbo
NBOKEYLIST = "$NBO NBO NPA bndidx $END"
end
* xyz 0 1
Br         2.64635       -0.20028        0.00000
C          0.77456        0.12682        0.00000
C          0.33296        1.45802       -0.00000
C         -1.01634        1.74143       -0.00001
C         -1.90624        0.66952       -0.00001
N         -3.27813        0.64863       -0.00000
C         -3.70975       -0.65532        0.00002
C         -2.63880       -1.49548       -0.00002
C         -1.46668       -0.67196        0.00000
C         -0.09257       -0.94062        0.00001
H          1.05883        2.25855       -0.00001
H         -1.36331        2.76663       -0.00001
H         -3.87270        1.45738        0.00001
H         -4.76323       -0.88081        0.00005
H         -2.67799       -2.57132       -0.00005
H          0.28032       -1.95557        0.00000
*
