 Entering Gaussian System, Link 0=g16
 Input=singlepoint.com
 Output=singlepoint.log
 Initial command:
 /share/apps/chem/gaussian-16-bin.c.02/g16/l1.exe "/scratch/Fernando.Fuentes/Gau-256663.inp" -scrdir="/scratch/Fernando.Fuentes/"
 Entering Link 1 = /share/apps/chem/gaussian-16-bin.c.02/g16/l1.exe PID=    256664.
  
 Copyright (c) 1988-2021, Gaussian, Inc.  All Rights Reserved.
  
 This is part of the Gaussian(R) 16 program.  It is based on
 the Gaussian(R) 09 system (copyright 2009, Gaussian, Inc.),
 the Gaussian(R) 03 system (copyright 2003, Gaussian, Inc.),
 the Gaussian(R) 98 system (copyright 1998, Gaussian, Inc.),
 the Gaussian(R) 94 system (copyright 1995, Gaussian, Inc.),
 the Gaussian 92(TM) system (copyright 1992, Gaussian, Inc.),
 the Gaussian 90(TM) system (copyright 1990, Gaussian, Inc.),
 the Gaussian 88(TM) system (copyright 1988, Gaussian, Inc.),
 the Gaussian 86(TM) system (copyright 1986, Carnegie Mellon
 University), and the Gaussian 82(TM) system (copyright 1983,
 Carnegie Mellon University). Gaussian is a federally registered
 trademark of Gaussian, Inc.
  
 This software contains proprietary and confidential information,
 including trade secrets, belonging to Gaussian, Inc.
  
 This software is provided under written license and may be
 used, copied, transmitted, or stored only in accord with that
 written license.
  
 The following legend is applicable only to US Government
 contracts under FAR:
  
                    RESTRICTED RIGHTS LEGEND
  
 Use, reproduction and disclosure by the US Government is
 subject to restrictions as set forth in subparagraphs (a)
 and (c) of the Commercial Computer Software - Restricted
 Rights clause in FAR 52.227-19.
  
 Gaussian, Inc.
 340 Quinnipiac St., Bldg. 40, Wallingford CT 06492
  
  
 ---------------------------------------------------------------
 Warning -- This program may not be used in any manner that
 competes with the business of Gaussian, Inc. or will provide
 assistance to any competitor of Gaussian, Inc.  The licensee
 of this program is prohibited from giving any competitor of
 Gaussian, Inc. access to this program.  By using this program,
 the user acknowledges that Gaussian, Inc. is engaged in the
 business of creating and licensing software in the field of
 computational chemistry and represents and warrants to the
 licensee that it is not a competitor of Gaussian, Inc. and that
 it will not use this program in any manner prohibited above.
 ---------------------------------------------------------------
  

 Cite this work as:
 Gaussian 16, Revision C.02,
 M. J. Frisch, G. W. Trucks, H. B. Schlegel, G. E. Scuseria, 
 M. A. Robb, J. R. Cheeseman, G. Scalmani, V. Barone, 
 G. A. Petersson, H. Nakatsuji, X. Li, M. Caricato, A. V. Marenich, 
 J. Bloino, B. G. Janesko, R. Gomperts, B. Mennucci, H. P. Hratchian, 
 J. V. Ortiz, A. F. Izmaylov, J. L. Sonnenberg, D. Williams-Young, 
 F. Ding, F. Lipparini, F. Egidi, J. Goings, B. Peng, A. Petrone, 
 T. Henderson, D. Ranasinghe, V. G. Zakrzewski, J. Gao, N. Rega, 
 G. Zheng, W. Liang, M. Hada, M. Ehara, K. Toyota, R. Fukuda, 
 J. Hasegawa, M. Ishida, T. Nakajima, Y. Honda, O. Kitao, H. Nakai, 
 T. Vreven, K. Throssell, J. A. Montgomery, Jr., J. E. Peralta, 
 F. Ogliaro, M. J. Bearpark, J. J. Heyd, E. N. Brothers, K. N. Kudin, 
 V. N. Staroverov, T. A. Keith, R. Kobayashi, J. Normand, 
 K. Raghavachari, A. P. Rendell, J. C. Burant, S. S. Iyengar, 
 J. Tomasi, M. Cossi, J. M. Millam, M. Klene, C. Adamo, R. Cammi, 
 J. W. Ochterski, R. L. Martin, K. Morokuma, O. Farkas, 
 J. B. Foresman, and D. J. Fox, Gaussian, Inc., Wallingford CT, 2019.
 
 ******************************************
 Gaussian 16:  ES64L-G16RevC.02  7-Dec-2021
                 9-Jul-2025 
 ******************************************
 %mem=48000MB
 %chk=ligand.chk
 %nprocshared=12
 Will use up to   12 processors via shared memory.
 ----------------------------------------------------------------------
 #P PBE1PBE GenECP geom=allcheck SCRF=(solvent=tetrahydrofuran,SMD) pop
 =NBO nmr=giao prop
 ----------------------------------------------------------------------
 1/29=7,38=1,172=1/1;
 2/12=2,40=1/2;
 3/5=7,11=2,14=-4,16=1,17=8,25=1,30=1,70=32201,72=20,74=-13/1,2,3,8;
 4//1;
 5/5=2,38=5,53=20/2;
 8/6=1,10=90,11=11/1;
 10/13=100,45=16/2;
 6/7=2,8=2,9=2,10=2,28=1,40=1,64=1/1,2,7;
 99/9=1/99;
 Leave Link    1 at Wed Jul  9 16:53:27 2025, MaxMem=  6291456000 cpu:               0.1 elap:               0.1
 (Enter /share/apps/chem/gaussian-16-bin.c.02/g16/l101.exe)
 Structure from the checkpoint file:  "ligand.chk"
 ------------------------------
 Gaussian input prepared by ASE
 ------------------------------
 Charge =  0 Multiplicity = 1
 Redundant internal coordinates found in file.  (old form).
 C,0,17.438946709,13.6101741891,12.1059923299
 C,0,17.0438418887,14.479632037,13.311025186
 C,0,17.2964263558,13.7908938375,14.6647142437
 C,0,17.9050354679,15.7566724641,13.2597623352
 N,0,15.5783837809,14.8388637457,13.2278352036
 C,0,15.160525715,16.1622954201,13.2502308906
 C,0,13.7992559426,16.153069086,13.2464531284
 N,0,13.3995730611,14.8240746087,13.2217141951
 C,0,11.9387258816,14.4448307191,13.2963378974
 C,0,11.5624310126,13.5713998417,12.0881404185
 C,0,11.6879489139,13.7513584544,14.6479550033
 C,0,11.0605603074,15.7100863173,13.2414743727
 C,0,14.494857786,13.9704069015,13.2065161856
 Ni,0,14.5094681683,11.9272420798,12.9356330311
 C,0,15.8969851746,11.0056717318,13.6284840641
 O,0,16.6987317726,10.2498107044,14.0021529038
 C,0,13.1290201598,10.986214956,13.6164542141
 O,0,12.3346557497,10.2188922003,13.9824389549
 C,0,14.5171644405,11.7582368847,11.1483382994
 O,0,14.5219384013,11.6220823918,9.994014423
 H,0,17.2697209109,14.1627423513,11.1597700928
 H,0,16.8513618746,12.6772791853,12.0692924355
 H,0,18.5138662897,13.3498085665,12.1698854013
 H,0,17.105500442,14.4991961069,15.4963487455
 H,0,18.3490782746,13.4514366814,14.7315740723
 H,0,16.6372332963,12.9161205612,14.800494876
 H,0,17.7654482784,16.3222553229,12.3168560622
 H,0,18.9678014477,15.4505130855,13.305944767
 H,0,17.7232666858,16.4311096626,14.119904377
 H,0,15.8406064245,17.0137893842,13.2650869657
 H,0,13.1075869818,16.9952403355,13.2575954315
 H,0,11.7287833727,14.1276260651,11.1435478888
 H,0,10.4910317313,13.2955738463,12.1459323001
 H,0,12.1635460196,12.6470806828,12.0534166274
 H,0,10.6397100363,13.3974051979,14.708578703
 H,0,11.8644406604,14.4614623186,15.4812486404
 H,0,12.3584061337,12.8856462087,14.7866879831
 H,0,11.1973323567,16.278226762,12.2996904205
 H,0,11.2287641634,16.3862888388,14.1029951623
 H,0,10.0018182996,15.3895177647,13.2819090597
 Recover connectivity data from disk.
 ITRead=  0  0  0  0  0  0  0  0  0  0  0  0  0  0  0  0  0  0  0  0
 ITRead=  0  0  0  0  0  0  0  0  0  0  0  0  0  0  0  0  0  0  0  0
 MicOpt= -1 -1 -1 -1 -1 -1 -1 -1 -1 -1 -1 -1 -1 -1 -1 -1 -1 -1 -1 -1
 MicOpt= -1 -1 -1 -1 -1 -1 -1 -1 -1 -1 -1 -1 -1 -1 -1 -1 -1 -1 -1 -1
                           ----------------------------
                           !    Current Parameters    !
                           ! (Angstroms and Degrees)  !
 --------------------------                            --------------------------
 ! Name  Definition              Value                                          !
 --------------------------------------------------------------------------------
 ! R1    R(1,2)                  1.5376                                         !
 ! R2    R(1,21)                 1.1087                                         !
 ! R3    R(1,22)                 1.1031                                         !
 ! R4    R(1,23)                 1.1078                                         !
 ! R5    R(2,3)                  1.5397                                         !
 ! R6    R(2,4)                  1.5411                                         !
 ! R7    R(2,5)                  1.5111                                         !
 ! R8    R(3,24)                 1.1089                                         !
 ! R9    R(3,25)                 1.1081                                         !
 ! R10   R(3,26)                 1.1037                                         !
 ! R11   R(4,27)                 1.1084                                         !
 ! R12   R(4,28)                 1.1069                                         !
 ! R13   R(4,29)                 1.108                                          !
 ! R14   R(5,6)                  1.388                                          !
 ! R15   R(5,13)                 1.3888                                         !
 ! R16   R(6,7)                  1.3613                                         !
 ! R17   R(6,30)                 1.0898                                         !
 ! R18   R(7,8)                  1.388                                          !
 ! R19   R(7,31)                 1.0899                                         !
 ! R20   R(8,9)                  1.5111                                         !
 ! R21   R(8,13)                 1.3888                                         !
 ! R22   R(9,10)                 1.5376                                         !
 ! R23   R(9,11)                 1.5397                                         !
 ! R24   R(9,12)                 1.5411                                         !
 ! R25   R(10,32)                1.1087                                         !
 ! R26   R(10,33)                1.1078                                         !
 ! R27   R(10,34)                1.1031                                         !
 ! R28   R(11,35)                1.108                                          !
 ! R29   R(11,36)                1.109                                          !
 ! R30   R(11,37)                1.1037                                         !
 ! R31   R(12,38)                1.1084                                         !
 ! R32   R(12,39)                1.108                                          !
 ! R33   R(12,40)                1.1069                                         !
 ! R34   R(13,14)                2.0611                                         !
 ! R35   R(14,15)                1.804                                          !
 ! R36   R(14,17)                1.8041                                         !
 ! R37   R(14,19)                1.7953                                         !
 ! R38   R(15,16)                1.1635                                         !
 ! R39   R(17,18)                1.1635                                         !
 ! R40   R(19,20)                1.1623                                         !
 ! A1    A(2,1,21)             110.3531                                         !
 ! A2    A(2,1,22)             111.5558                                         !
 ! A3    A(2,1,23)             109.6957                                         !
 ! A4    A(21,1,22)            108.1662                                         !
 ! A5    A(21,1,23)            108.327                                          !
 ! A6    A(22,1,23)            108.6622                                         !
 ! A7    A(1,2,3)              113.1999                                         !
 ! A8    A(1,2,4)              107.3919                                         !
 ! A9    A(1,2,5)              109.906                                          !
 ! A10   A(3,2,4)              107.9532                                         !
 ! A11   A(3,2,5)              108.2902                                         !
 ! A12   A(4,2,5)              110.0655                                         !
 ! A13   A(2,3,24)             110.2051                                         !
 ! A14   A(2,3,25)             110.2391                                         !
 ! A15   A(2,3,26)             111.3901                                         !
 ! A16   A(24,3,25)            108.2995                                         !
 ! A17   A(24,3,26)            108.128                                          !
 ! A18   A(25,3,26)            108.491                                          !
 ! A19   A(2,4,27)             112.3812                                         !
 ! A20   A(2,4,28)             107.814                                          !
 ! A21   A(2,4,29)             112.7605                                         !
 ! A22   A(27,4,28)            107.3101                                         !
 ! A23   A(27,4,29)            109.2164                                         !
 ! A24   A(28,4,29)            107.0651                                         !
 ! A25   A(2,5,6)              121.1795                                         !
 ! A26   A(2,5,13)             127.5032                                         !
 ! A27   A(6,5,13)             111.1993                                         !
 ! A28   A(5,6,7)              107.1295                                         !
 ! A29   A(5,6,30)             123.8696                                         !
 ! A30   A(7,6,30)             129.0007                                         !
 ! A31   A(6,7,8)              107.1266                                         !
 ! A32   A(6,7,31)             129.003                                          !
 ! A33   A(8,7,31)             123.8703                                         !
 ! A34   A(7,8,9)              121.1842                                         !
 ! A35   A(7,8,13)             111.2019                                         !
 ! A36   A(9,8,13)             127.4968                                         !
 ! A37   A(8,9,10)             109.898                                          !
 ! A38   A(8,9,11)             108.291                                          !
 ! A39   A(8,9,12)             110.0636                                         !
 ! A40   A(10,9,11)            113.2084                                         !
 ! A41   A(10,9,12)            107.394                                          !
 ! A42   A(11,9,12)            107.9517                                         !
 ! A43   A(9,10,32)            110.3492                                         !
 ! A44   A(9,10,33)            109.7013                                         !
 ! A45   A(9,10,34)            111.552                                          !
 ! A46   A(32,10,33)           108.3275                                         !
 ! A47   A(32,10,34)           108.1664                                         !
 ! A48   A(33,10,34)           108.6638                                         !
 ! A49   A(9,11,35)            110.242                                          !
 ! A50   A(9,11,36)            110.2006                                         !
 ! A51   A(9,11,37)            111.3874                                         !
 ! A52   A(35,11,36)           108.3004                                         !
 ! A53   A(35,11,37)           108.4955                                         !
 ! A54   A(36,11,37)           108.127                                          !
 ! A55   A(9,12,38)            112.3817                                         !
 ! A56   A(9,12,39)            112.7585                                         !
 ! A57   A(9,12,40)            107.8153                                         !
 ! A58   A(38,12,39)           109.2148                                         !
 ! A59   A(38,12,40)           107.3083                                         !
 ! A60   A(39,12,40)           107.0689                                         !
 ! A61   A(5,13,8)             103.3422                                         !
 ! A62   A(5,13,14)            128.0527                                         !
 ! A63   A(8,13,14)            128.0525                                         !
 ! A64   A(13,14,15)           117.4756                                         !
 ! A65   A(13,14,17)           117.5196                                         !
 ! A66   A(13,14,19)           102.9554                                         !
 ! A67   A(15,14,17)           100.2022                                         !
 ! A68   A(15,14,19)           109.3271                                         !
 ! A69   A(17,14,19)           109.2613                                         !
 ! A70   L(14,15,16,1,-1)      186.8454                                         !
 ! A71   L(14,17,18,10,-1)     186.8534                                         !
 ! A72   L(14,19,20,1,-1)      180.6862                                         !
 ! A73   L(14,15,16,1,-2)      187.4039                                         !
 ! A74   L(14,17,18,10,-2)     172.5749                                         !
 ! A75   L(14,19,20,1,-2)      178.8048                                         !
 ! D1    D(21,1,2,3)          -178.1147                                         !
 ! D2    D(21,1,2,4)           -59.0581                                         !
 ! D3    D(21,1,2,5)            60.6645                                         !
 ! D4    D(22,1,2,3)            61.6145                                         !
 ! D5    D(22,1,2,4)          -179.3289                                         !
 ! D6    D(22,1,2,5)           -59.6063                                         !
 ! D7    D(23,1,2,3)           -58.8391                                         !
 ! D8    D(23,1,2,4)            60.2176                                         !
 ! D9    D(23,1,2,5)           179.9401                                         !
 ! D10   D(1,2,3,24)           173.5365                                         !
 ! D11   D(1,2,3,25)            54.0457                                         !
 ! D12   D(1,2,3,26)           -66.4485                                         !
 ! D13   D(4,2,3,24)            54.804                                          !
 ! D14   D(4,2,3,25)           -64.6868                                         !
 ! D15   D(4,2,3,26)           174.8189                                         !
 ! D16   D(5,2,3,24)           -64.3359                                         !
 ! D17   D(5,2,3,25)           176.1733                                         !
 ! D18   D(5,2,3,26)            55.6791                                         !
 ! D19   D(1,2,4,27)            58.6084                                         !
 ! D20   D(1,2,4,28)           -59.446                                          !
 ! D21   D(1,2,4,29)          -177.4207                                         !
 ! D22   D(3,2,4,27)          -179.0184                                         !
 ! D23   D(3,2,4,28)            62.9273                                         !
 ! D24   D(3,2,4,29)           -55.0474                                         !
 ! D25   D(5,2,4,27)           -61.0123                                         !
 ! D26   D(5,2,4,28)          -179.0667                                         !
 ! D27   D(5,2,4,29)            62.9586                                         !
 ! D28   D(1,2,5,6)           -124.2632                                         !
 ! D29   D(1,2,5,13)            60.046                                          !
 ! D30   D(3,2,5,6)            111.615                                          !
 ! D31   D(3,2,5,13)           -64.0758                                         !
 ! D32   D(4,2,5,6)             -6.1828                                         !
 ! D33   D(4,2,5,13)           178.1264                                         !
 ! D34   D(2,5,6,7)           -176.2007                                         !
 ! D35   D(2,5,6,30)             3.9305                                         !
 ! D36   D(13,5,6,7)             0.1335                                         !
 ! D37   D(13,5,6,30)         -179.7353                                         !
 ! D38   D(2,5,13,8)           175.8436                                         !
 ! D39   D(2,5,13,14)          -12.2145                                         !
 ! D40   D(6,5,13,8)            -0.2026                                         !
 ! D41   D(6,5,13,14)          171.7392                                         !
 ! D42   D(5,6,7,8)             -0.0032                                         !
 ! D43   D(5,6,7,31)          -179.8661                                         !
 ! D44   D(30,6,7,8)           179.8566                                         !
 ! D45   D(30,6,7,31)           -0.0063                                         !
 ! D46   D(6,7,8,9)            176.2192                                         !
 ! D47   D(6,7,8,13)            -0.1281                                         !
 ! D48   D(31,7,8,9)            -3.9091                                         !
 ! D49   D(31,7,8,13)          179.7436                                         !
 ! D50   D(7,8,9,10)           124.1984                                         !
 ! D51   D(7,8,9,11)          -111.6738                                         !
 ! D52   D(7,8,9,12)             6.1215                                         !
 ! D53   D(13,8,9,10)          -60.0949                                         !
 ! D54   D(13,8,9,11)           64.0329                                         !
 ! D55   D(13,8,9,12)         -178.1719                                         !
 ! D56   D(7,8,13,5)             0.2006                                         !
 ! D57   D(7,8,13,14)         -171.7413                                         !
 ! D58   D(9,8,13,5)          -175.8603                                         !
 ! D59   D(9,8,13,14)           12.1978                                         !
 ! D60   D(8,9,10,32)          -60.7055                                         !
 ! D61   D(8,9,10,33)         -179.9829                                         !
 ! D62   D(8,9,10,34)           59.5603                                         !
 ! D63   D(11,9,10,32)         178.0726                                         !
 ! D64   D(11,9,10,33)          58.7952                                         !
 ! D65   D(11,9,10,34)         -61.6616                                         !
 ! D66   D(12,9,10,32)          59.0115                                         !
 ! D67   D(12,9,10,33)         -60.2659                                         !
 ! D68   D(12,9,10,34)         179.2773                                         !
 ! D69   D(8,9,11,35)         -176.1667                                         !
 ! D70   D(8,9,11,36)           64.3424                                         !
 ! D71   D(8,9,11,37)          -55.6665                                         !
 ! D72   D(10,9,11,35)         -54.0431                                         !
 ! D73   D(10,9,11,36)        -173.534                                          !
 ! D74   D(10,9,11,37)          66.4571                                         !
 ! D75   D(12,9,11,35)          64.6961                                         !
 ! D76   D(12,9,11,36)         -54.7948                                         !
 ! D77   D(12,9,11,37)        -174.8037                                         !
 ! D78   D(8,9,12,38)           61.0413                                         !
 ! D79   D(8,9,12,39)          -62.9264                                         !
 ! D80   D(8,9,12,40)          179.0945                                         !
 ! D81   D(10,9,12,38)         -58.5699                                         !
 ! D82   D(10,9,12,39)         177.4623                                         !
 ! D83   D(10,9,12,40)          59.4833                                         !
 ! D84   D(11,9,12,38)         179.0463                                         !
 ! D85   D(11,9,12,39)          55.0785                                         !
 ! D86   D(11,9,12,40)         -62.9006                                         !
 ! D87   D(5,13,14,15)          35.1971                                         !
 ! D88   D(5,13,14,17)         154.9358                                         !
 ! D89   D(5,13,14,19)         -84.9626                                         !
 ! D90   D(8,13,14,15)        -154.7775                                         !
 ! D91   D(8,13,14,17)         -35.0387                                         !
 ! D92   D(8,13,14,19)          85.0628                                         !
 --------------------------------------------------------------------------------
 NAtoms=     40 NQM=       40 NQMF=       0 NMMI=      0 NMMIF=      0
                NMic=       0 NMicF=      0.
                    Isotopes and Nuclear Properties:
 (Nuclear quadrupole moments (NQMom) in fm**2, nuclear magnetic moments (NMagM)
  in nuclear magnetons)

  Atom         1           2           3           4           5           6           7           8           9          10
 IAtWgt=          12          12          12          12          14          12          12          14          12          12
 AtmWgt=  12.0000000  12.0000000  12.0000000  12.0000000  14.0030740  12.0000000  12.0000000  14.0030740  12.0000000  12.0000000
 NucSpn=           0           0           0           0           2           0           0           2           0           0
 AtZEff=   3.6000000   3.6000000   3.6000000   3.6000000   4.5500000   3.6000000   3.6000000   4.5500000   3.6000000   3.6000000
 NQMom=    0.0000000   0.0000000   0.0000000   0.0000000   2.0440000   0.0000000   0.0000000   2.0440000   0.0000000   0.0000000
 NMagM=    0.0000000   0.0000000   0.0000000   0.0000000   0.4037610   0.0000000   0.0000000   0.4037610   0.0000000   0.0000000
 AtZNuc=   6.0000000   6.0000000   6.0000000   6.0000000   7.0000000   6.0000000   6.0000000   7.0000000   6.0000000   6.0000000

  Atom        11          12          13          14          15          16          17          18          19          20
 IAtWgt=          12          12          12          58          12          16          12          16          12          16
 AtmWgt=  12.0000000  12.0000000  12.0000000  57.9353471  12.0000000  15.9949146  12.0000000  15.9949146  12.0000000  15.9949146
 NucSpn=           0           0           0           0           0           0           0           0           0           0
 AtZEff=   3.6000000   3.6000000   3.6000000  16.3800000   3.6000000   5.6000000   3.6000000   5.6000000   3.6000000   5.6000000
 NQMom=    0.0000000   0.0000000   0.0000000   0.0000000   0.0000000   0.0000000   0.0000000   0.0000000   0.0000000   0.0000000
 NMagM=    0.0000000   0.0000000   0.0000000   0.0000000   0.0000000   0.0000000   0.0000000   0.0000000   0.0000000   0.0000000
 AtZNuc=   6.0000000   6.0000000   6.0000000  28.0000000   6.0000000   8.0000000   6.0000000   8.0000000   6.0000000   8.0000000

  Atom        21          22          23          24          25          26          27          28          29          30
 IAtWgt=           1           1           1           1           1           1           1           1           1           1
 AtmWgt=   1.0078250   1.0078250   1.0078250   1.0078250   1.0078250   1.0078250   1.0078250   1.0078250   1.0078250   1.0078250
 NucSpn=           1           1           1           1           1           1           1           1           1           1
 AtZEff=   1.0000000   1.0000000   1.0000000   1.0000000   1.0000000   1.0000000   1.0000000   1.0000000   1.0000000   1.0000000
 NQMom=    0.0000000   0.0000000   0.0000000   0.0000000   0.0000000   0.0000000   0.0000000   0.0000000   0.0000000   0.0000000
 NMagM=    2.7928460   2.7928460   2.7928460   2.7928460   2.7928460   2.7928460   2.7928460   2.7928460   2.7928460   2.7928460
 AtZNuc=   1.0000000   1.0000000   1.0000000   1.0000000   1.0000000   1.0000000   1.0000000   1.0000000   1.0000000   1.0000000

  Atom        31          32          33          34          35          36          37          38          39          40
 IAtWgt=           1           1           1           1           1           1           1           1           1           1
 AtmWgt=   1.0078250   1.0078250   1.0078250   1.0078250   1.0078250   1.0078250   1.0078250   1.0078250   1.0078250   1.0078250
 NucSpn=           1           1           1           1           1           1           1           1           1           1
 AtZEff=   1.0000000   1.0000000   1.0000000   1.0000000   1.0000000   1.0000000   1.0000000   1.0000000   1.0000000   1.0000000
 NQMom=    0.0000000   0.0000000   0.0000000   0.0000000   0.0000000   0.0000000   0.0000000   0.0000000   0.0000000   0.0000000
 NMagM=    2.7928460   2.7928460   2.7928460   2.7928460   2.7928460   2.7928460   2.7928460   2.7928460   2.7928460   2.7928460
 AtZNuc=   1.0000000   1.0000000   1.0000000   1.0000000   1.0000000   1.0000000   1.0000000   1.0000000   1.0000000   1.0000000
 Leave Link  101 at Wed Jul  9 16:53:28 2025, MaxMem=  6291456000 cpu:               0.4 elap:               0.3
 (Enter /share/apps/chem/gaussian-16-bin.c.02/g16/l202.exe)
                          Input orientation:                          
 ---------------------------------------------------------------------
 Center     Atomic      Atomic             Coordinates (Angstroms)
 Number     Number       Type             X           Y           Z
 ---------------------------------------------------------------------
      1          6           0       17.438947   13.610174   12.105992
      2          6           0       17.043842   14.479632   13.311025
      3          6           0       17.296426   13.790894   14.664714
      4          6           0       17.905035   15.756672   13.259762
      5          7           0       15.578384   14.838864   13.227835
      6          6           0       15.160526   16.162295   13.250231
      7          6           0       13.799256   16.153069   13.246453
      8          7           0       13.399573   14.824075   13.221714
      9          6           0       11.938726   14.444831   13.296338
     10          6           0       11.562431   13.571400   12.088140
     11          6           0       11.687949   13.751358   14.647955
     12          6           0       11.060560   15.710086   13.241474
     13          6           0       14.494858   13.970407   13.206516
     14         28           0       14.509468   11.927242   12.935633
     15          6           0       15.896985   11.005672   13.628484
     16          8           0       16.698732   10.249811   14.002153
     17          6           0       13.129020   10.986215   13.616454
     18          8           0       12.334656   10.218892   13.982439
     19          6           0       14.517164   11.758237   11.148338
     20          8           0       14.521938   11.622082    9.994014
     21          1           0       17.269721   14.162742   11.159770
     22          1           0       16.851362   12.677279   12.069292
     23          1           0       18.513866   13.349809   12.169885
     24          1           0       17.105500   14.499196   15.496349
     25          1           0       18.349078   13.451437   14.731574
     26          1           0       16.637233   12.916121   14.800495
     27          1           0       17.765448   16.322255   12.316856
     28          1           0       18.967801   15.450513   13.305945
     29          1           0       17.723267   16.431110   14.119904
     30          1           0       15.840606   17.013789   13.265087
     31          1           0       13.107587   16.995240   13.257595
     32          1           0       11.728783   14.127626   11.143548
     33          1           0       10.491032   13.295574   12.145932
     34          1           0       12.163546   12.647081   12.053417
     35          1           0       10.639710   13.397405   14.708579
     36          1           0       11.864441   14.461462   15.481249
     37          1           0       12.358406   12.885646   14.786688
     38          1           0       11.197332   16.278227   12.299690
     39          1           0       11.228764   16.386289   14.102995
     40          1           0       10.001818   15.389518   13.281909
 ---------------------------------------------------------------------
                    Distance matrix (angstroms):
                    1          2          3          4          5
     1  C    0.000000
     2  C    1.537585   0.000000
     3  C    2.569052   1.539686   0.000000
     4  C    2.481104   1.541141   2.491702   0.000000
     5  N    2.495978   1.511137   2.472758   2.501340   0.000000
     6  C    3.607465   2.526249   3.490900   2.774339   1.388012
     7  C    4.584137   3.651287   4.452139   4.124892   2.211963
     8  N    4.362904   3.661600   4.281960   4.601128   2.178870
     9  C    5.689113   5.105256   5.568217   6.108937   3.661566
    10  C    5.876671   5.689130   6.290120   6.810047   4.362711
    11  C    6.289315   5.568065   5.608642   6.678363   4.281926
    12  C    6.810489   6.108888   6.677944   6.844658   4.601081
    13  C    3.163634   2.601452   3.163440   3.850051   1.388777
    14  Ni   3.478852   3.616444   3.772275   5.128301   3.115366
    15  C    3.388076   3.672119   3.284763   5.171096   3.867220
    16  O    3.928789   4.299785   3.651780   5.686109   4.786873
    17  C    5.267079   5.255766   5.131505   6.759794   4.581846
    18  O    6.409027   6.386011   6.151737   7.887864   5.695203
    19  C    3.589371   4.297360   4.921472   5.650068   3.865327
    20  O    4.113623   5.052539   5.849527   6.261413   4.682025
    21  H    1.108740   2.186170   3.524715   2.711864   2.755840
    22  H    1.103130   2.197140   2.859097   3.465561   2.763176
    23  H    1.107847   2.177079   2.810852   2.711365   3.457398
    24  H    3.520804   2.186281   1.108946   2.687531   2.755651
    25  H    2.783382   2.186044   1.108051   2.770833   3.444261
    26  H    2.895652   2.197366   1.103721   3.471299   2.700252
    27  H    2.739790   2.214576   3.484280   1.108350   2.795279
    28  H    2.676589   2.155054   2.719207   1.106950   3.445050
    29  H    3.477694   2.219047   2.729423   1.108039   2.816302
    30  H    3.934817   2.805680   3.803344   2.417072   2.190993
    31  H    5.616542   4.671749   5.458406   4.954752   3.279586
    32  H    5.813779   5.750801   6.596260   6.728911   4.435035
    33  H    6.955149   6.760086   7.273445   7.890822   5.425257
    34  H    5.362851   5.362566   5.871426   6.639995   4.224250
    35  H    7.283430   6.643589   6.668480   7.774970   5.353588
    36  H    6.572075   5.615728   5.533792   6.565162   4.360468
    37  H    5.789902   5.164463   5.021792   6.429572   4.075946
    38  H    6.790712   6.199953   6.998508   6.796105   4.703916
    39  H    7.089513   6.170712   6.623302   6.758702   4.698896
    40  H    7.736907   7.100622   7.594673   7.911772   5.603947
                    6          7          8          9         10
     6  C    0.000000
     7  C    1.361306   0.000000
     8  N    2.211923   1.388015   0.000000
     9  C    3.651274   2.526290   1.511115   0.000000
    10  C    4.583610   3.606950   2.495851   1.537602   0.000000
    11  C    4.452532   3.491424   2.472760   1.539695   2.569200
    12  C    4.124838   2.774295   2.501277   1.541122   2.481135
    13  C    2.291157   2.291172   1.388751   2.601337   3.163716
    14  Ni   4.296339   4.296350   3.115341   3.616224   3.479443
    15  C    5.222664   5.571545   4.580691   5.254137   5.267255
    16  O    6.155399   6.620159   5.693630   6.383888   6.409211
    17  C    5.572517   5.223265   3.867581   3.671689   3.387200
    18  O    6.621609   6.156394   4.787531   4.299541   3.927341
    19  C    4.922154   4.922604   3.866169   4.298841   3.591829
    20  O    5.623546   5.624097   4.683002   5.054328   4.116295
    21  H    3.580076   4.512181   4.434751   5.750131   5.812462
    22  H    4.049553   4.773067   4.225122   5.363196   5.364009
    23  H    4.508006   5.589706   5.425477   6.760210   6.955447
    24  H    3.404977   4.327653   4.360436   5.615920   6.572846
    25  H    4.439595   5.495934   5.353636   6.643745   7.284279
    26  H    3.888655   4.576789   4.076185   5.164825   5.791362
    27  H    2.771714   4.077187   4.703635   6.199581   6.789473
    28  H    3.873640   5.216415   5.603989   7.100661   7.736512
    29  H    2.719602   4.029651   4.699323   6.171262   7.089563
    30  H    1.089850   2.215468   3.279539   4.671745   5.615873
    31  H    2.215493   1.089854   2.191005   2.805767   3.934186
    32  H    4.511635   3.579314   2.755967   2.186138   1.108745
    33  H    5.589431   4.507857   3.457345   2.177164   1.107843
    34  H    4.771895   4.048560   2.762605   2.197112   1.103137
    35  H    5.496287   4.440070   3.444270   2.186085   2.783592
    36  H    4.328331   3.405783   2.755651   2.186236   3.520881
    37  H    4.577008   3.889013   2.700125   2.197346   2.895858
    38  H    4.077238   2.771648   2.795452   2.214568   2.739519
    39  H    4.029408   2.719464   2.815951   2.219009   3.477725
    40  H    5.216364   3.873603   3.445009   2.155053   2.676966
                   11         12         13         14         15
    11  C    0.000000
    12  C    2.491670   0.000000
    13  C    3.162984   3.849949   0.000000
    14  Ni   3.770997   5.128198   2.061095   0.000000
    15  C    5.127778   6.758128   3.306610   1.804034   0.000000
    16  O    6.147019   7.885570   4.396923   2.957045   1.163508
    17  C    3.284311   5.170503   3.307410   1.804075   2.768060
    18  O    3.652322   5.685557   4.397999   2.957038   3.665310
    19  C    4.921820   5.652119   3.021637   1.795284   2.936219
    20  O    5.850169   6.264097   3.979388   2.957431   3.934474
    21  H    6.594911   6.729149   3.453408   3.971164   4.236277
    22  H    5.870603   6.641183   2.918659   2.607215   2.477132
    23  H    7.272910   7.891197   4.196686   4.318017   3.804018
    24  H    5.534338   6.564451   3.512607   4.462241   4.141756
    25  H    6.668402   7.774599   4.177337   4.504573   3.634740
    26  H    5.021584   6.429313   2.870899   2.997161   2.360379
    27  H    6.998538   6.795969   4.125463   5.504583   5.785982
    28  H    7.595023   7.911763   4.712518   5.694498   5.412075
    29  H    6.624573   6.758933   4.160764   5.658253   5.745622
    30  H    5.458969   4.954699   3.328160   5.268153   6.019362
    31  H    3.804109   2.417064   3.328175   5.268163   6.617646
    32  H    3.524786   2.711457   3.454233   3.973093   5.770218
    33  H    2.810777   2.711908   4.196530   4.317846   6.055241
    34  H    2.859589   3.465554   2.918192   2.607647   4.371914
    35  H    1.108045   2.770921   4.176923   4.503304   5.875877
    36  H    1.108952   2.687355   3.512070   4.460785   5.624646
    37  H    1.103729   3.471246   2.870205   2.995331   4.171005
    38  H    3.484267   1.108353   4.125777   5.505064   7.186951
    39  H    2.729595   1.108044   4.160232   5.657637   7.139222
    40  H    2.718949   1.106948   4.712427   5.694398   7.354673
                   16         17         18         19         20
    16  O    0.000000
    17  C    3.665228   0.000000
    18  O    4.364230   1.163505   0.000000
    19  C    3.896004   2.935057   3.894233   0.000000
    20  O    4.763059   3.932762   4.760323   1.162336   0.000000
    21  H    4.869928   5.768104   6.919269   3.654907   3.919726
    22  H    3.106742   4.371411   5.486750   2.672316   3.293392
    23  H    4.032605   6.056047   7.160351   4.421570   4.863634
    24  H    4.522760   5.629159   6.585885   5.754784   6.725196
    25  H    3.675066   5.879610   6.869048   5.512719   6.359089
    26  H    2.783943   4.175410   5.143581   4.378771   5.408444
    27  H    6.391611   7.187402   8.337788   5.722503   6.165028
    28  H    5.716703   7.356476   8.475029   6.172223   6.737319
    29  H    6.266737   7.141949   8.224820   6.398831   7.099170
    30  H    6.857919   6.618747   7.679643   5.818329   6.442772
    31  H    7.677989   6.019770   6.858696   5.819113   6.443770
    32  H    6.921666   4.236082   4.868735   3.659112   3.924397
    33  H    7.159453   3.801915   4.029600   4.423612   4.866162
    34  H    5.487475   2.476631   3.105882   2.673711   3.294507
    35  H    6.864265   3.633626   3.674652   5.513333   6.360077
    36  H    6.579978   4.141734   4.524040   5.754866   6.725631
    37  H    5.138244   2.360325   2.785491   4.378228   5.408067
    38  H    8.337000   5.785384   6.390672   5.725138   6.168373
    39  H    8.221136   5.745302   6.266922   6.400191   7.101154
    40  H    8.472543   5.411136   5.715614   6.174680   6.740572
                   21         22         23         24         25
    21  H    0.000000
    22  H    1.791328   0.000000
    23  H    1.796967   1.796200   0.000000
    24  H    4.352710   3.889561   3.790771   0.000000
    25  H    3.798520   3.151225   2.568994   1.796988   0.000000
    26  H    3.899870   2.749975   3.260359   1.791540   1.794917
    27  H    2.499618   3.765992   3.068741   3.724010   3.796457
    28  H    3.024549   3.701277   2.430977   3.028372   2.532103
    29  H    3.756806   4.365372   3.731225   2.451229   3.105516
    30  H    3.821413   4.610518   4.665891   3.591889   4.597105
    31  H    5.454106   5.837183   6.610608   5.217812   6.496490
    32  H    5.541073   5.403825   6.906209   6.927772   7.560388
    33  H    6.904718   6.390772   8.023054   7.511670   8.273979
    34  H    5.400820   4.687940   6.390145   6.301351   6.788249
    35  H    7.558891   6.787417   8.273425   6.606131   7.709592
    36  H    6.926865   6.300328   7.511043   5.241217   6.605504
    37  H    6.237509   5.254932   6.704684   5.063800   6.017583
    38  H    6.530589   6.707306   7.881888   6.949102   8.065499
    39  H    7.078128   7.036072   8.125875   6.327605   7.727053
    40  H    7.670128   7.466118   8.823376   7.493912   8.691055
                   26         27         28         29         30
    26  H    0.000000
    27  H    4.363838   0.000000
    28  H    3.753448   1.784344   0.000000
    29  H    3.741366   1.806824   1.781282   0.000000
    30  H    4.447806   2.254413   3.496405   2.148171   0.000000
    31  H    5.610540   4.799330   6.060580   4.729304   2.733093
    32  H    6.239703   6.529500   7.670031   7.078034   5.453252
    33  H    6.705705   7.880809   8.822982   8.126092   6.610263
    34  H    5.256681   6.705044   7.464982   7.035605   5.835843
    35  H    6.017505   8.065434   8.691360   7.728304   6.497017
    36  H    5.062712   6.949663   7.494525   6.329187   5.218778
    37  H    4.278958   6.866328   7.242600   6.465032   5.610932
    38  H    6.866608   6.568286   7.878950   6.776752   4.799275
    39  H    6.463754   6.776624   7.836049   6.494679   4.729158
    40  H    7.242412   7.878787   8.966223   7.836320   6.060527
                   31         32         33         34         35
    31  H    0.000000
    32  H    3.820145   0.000000
    33  H    4.665800   1.796974   0.000000
    34  H    4.609528   1.791339   1.796220   0.000000
    35  H    4.597846   3.798519   2.568975   3.151975   0.000000
    36  H    3.593060   4.352643   3.790763   3.889920   1.796998
    37  H    4.448388   3.900181   3.260172   2.750574   1.794969
    38  H    2.254055   2.498838   3.068993   3.765560   3.796422
    39  H    2.148371   3.756315   3.731871   4.365348   3.105985
    40  H    3.496389   3.024462   2.431949   3.701786   2.531957
                   36         37         38         39         40
    36  H    0.000000
    37  H    1.791539   0.000000
    38  H    3.723974   4.363812   0.000000
    39  H    2.451250   3.741394   1.806813   0.000000
    40  H    3.027828   3.753297   1.784324   1.781328   0.000000
 Stoichiometry    C14H20N2NiO3
 Framework group  C1[X(C14H20N2NiO3)]
 Deg. of freedom   114
 Full point group                 C1      NOp   1
 RotChk:  IX=3 Diff= 2.63D-15
 Largest Abelian subgroup         C1      NOp   1
 Largest concise Abelian subgroup C1      NOp   1
                         Standard orientation:                         
 ---------------------------------------------------------------------
 Center     Atomic      Atomic             Coordinates (Angstroms)
 Number     Number       Type             X           Y           Z
 ---------------------------------------------------------------------
      1          6           0        2.938455   -0.200986    1.018402
      2          6           0        2.553632   -1.171528   -0.110370
      3          6           0        2.805135   -0.596834   -1.516466
      4          6           0        3.424309   -2.433009    0.049952
      5          7           0        1.090688   -1.533935   -0.000865
      6          6           0        0.682932   -2.857800    0.086865
      7          6           0       -0.678374   -2.858909    0.086570
      8          7           0       -1.088181   -1.535682   -0.001264
      9          6           0       -2.551622   -1.175443   -0.110974
     10          6           0       -2.938213   -0.206694    1.018758
     11          6           0       -2.803506   -0.599785   -1.516617
     12          6           0       -3.420347   -2.438448    0.047750
     13          6           0        0.000558   -0.675231   -0.055112
     14         28           0       -0.001130    1.383508    0.043399
     15          6           0        1.381483    2.254500   -0.720991
     16          8           0        2.178624    2.982580   -1.154834
     17          6           0       -1.386574    2.253304   -0.717315
     18          8           0       -2.185601    2.980998   -1.148314
     19          6           0       -0.000181    1.701915    1.810222
     20          8           0        0.000031    1.934462    2.949057
     21          1           0        2.770524   -0.673527    2.007245
     22          1           0        2.343714    0.727087    0.975272
     23          1           0        4.011563    0.061479    0.935480
     24          1           0        2.622122   -1.373876   -2.286189
     25          1           0        3.855386   -0.255981   -1.609035
     26          1           0        2.139756    0.258295   -1.726764
     27          1           0        3.286124   -2.918566    1.036653
     28          1           0        4.484862   -2.123522   -0.019194
     29          1           0        3.250283   -3.178626   -0.750998
     30          1           0        1.369482   -3.702207    0.145155
     31          1           0       -1.363609   -3.704416    0.144468
     32          1           0       -2.770545   -0.680400    2.007093
     33          1           0       -4.011488    0.054945    0.935439
     34          1           0       -2.344222    0.721941    0.977246
     35          1           0       -3.854205   -0.260353   -1.609258
     36          1           0       -2.619095   -1.375895   -2.286955
     37          1           0       -2.139202    0.256441   -1.725888
     38          1           0       -3.282159   -2.924492    1.034215
     39          1           0       -3.244394   -3.183209   -0.753580
     40          1           0       -4.481357   -2.130670   -0.021997
 ---------------------------------------------------------------------
 Rotational constants (GHZ):           0.3384562           0.3107572           0.2090394
 Leave Link  202 at Wed Jul  9 16:53:28 2025, MaxMem=  6291456000 cpu:               0.1 elap:               0.0
 (Enter /share/apps/chem/gaussian-16-bin.c.02/g16/l301.exe)
 General basis read from cards:  (5D, 7F)
 Centers:       5      8     16     18     20      1      2      3      4      6
 Centers:       7      9     10     11     12     13     15     17     19     21
 Centers:      22     23     24     25     26     27     28     29     30     31
 Centers:      32     33     34     35     36     37     38     39     40
 def2tzvp
 ****
 Centers:      14
 SDD
 ****
 ======================================================================================================
                                       Pseudopotential Parameters
 ======================================================================================================
  Center     Atomic      Valence      Angular      Power
  Number     Number     Electrons     Momentum     of R      Exponent        Coefficient   SO-Coeffient
 ======================================================================================================
    1          6
                                   No pseudopotential on this center.
    2          6
                                   No pseudopotential on this center.
    3          6
                                   No pseudopotential on this center.
    4          6
                                   No pseudopotential on this center.
    5          7
                                   No pseudopotential on this center.
    6          6
                                   No pseudopotential on this center.
    7          6
                                   No pseudopotential on this center.
    8          7
                                   No pseudopotential on this center.
    9          6
                                   No pseudopotential on this center.
   10          6
                                   No pseudopotential on this center.
   11          6
                                   No pseudopotential on this center.
   12          6
                                   No pseudopotential on this center.
   13          6
                                   No pseudopotential on this center.
   14         28           18
                                      F and up 
                                                     2        1.0000000        0.00000000    0.00000000
                                      S - F
                                                     2       26.7400000      317.68227200    0.00000000
                                                     2       11.8600000       58.25539100    0.00000000
                                      P - F
                                                     2       28.8000000      252.47436600    0.00000000
                                                     2       11.7900000       36.08150300    0.00000000
                                      D - F
                                                     2       33.7000000      -18.52295500    0.00000000
                                                     2       11.6600000       -4.55766800    0.00000000
   15          6
                                   No pseudopotential on this center.
   16          8
                                   No pseudopotential on this center.
   17          6
                                   No pseudopotential on this center.
   18          8
                                   No pseudopotential on this center.
   19          6
                                   No pseudopotential on this center.
   20          8
                                   No pseudopotential on this center.
   21          1
                                   No pseudopotential on this center.
   22          1
                                   No pseudopotential on this center.
   23          1
                                   No pseudopotential on this center.
   24          1
                                   No pseudopotential on this center.
   25          1
                                   No pseudopotential on this center.
   26          1
                                   No pseudopotential on this center.
   27          1
                                   No pseudopotential on this center.
   28          1
                                   No pseudopotential on this center.
   29          1
                                   No pseudopotential on this center.
   30          1
                                   No pseudopotential on this center.
   31          1
                                   No pseudopotential on this center.
   32          1
                                   No pseudopotential on this center.
   33          1
                                   No pseudopotential on this center.
   34          1
                                   No pseudopotential on this center.
   35          1
                                   No pseudopotential on this center.
   36          1
                                   No pseudopotential on this center.
   37          1
                                   No pseudopotential on this center.
   38          1
                                   No pseudopotential on this center.
   39          1
                                   No pseudopotential on this center.
   40          1
                                   No pseudopotential on this center.
 ======================================================================================================
 Ernie: Thresh=  0.10000D-02 Tol=  0.10000D-05 Strict=F.
 There are   853 symmetry adapted cartesian basis functions of A   symmetry.
 There are   752 symmetry adapted basis functions of A   symmetry.
   752 basis functions,  1204 primitive gaussians,   853 cartesian basis functions
    80 alpha electrons       80 beta electrons
       nuclear repulsion energy      1880.7171150722 Hartrees.
 IExCor= 1009 DFT=T Ex+Corr=PBE1PBE ExCW=0 ScaHFX=  0.250000
 ScaDFX=  0.750000  0.750000  1.000000  1.000000 ScalE2=  1.000000  1.000000
 IRadAn=      5 IRanWt=     -1 IRanGd=            0 ICorTp=0 IEmpDi=  4
 NAtoms=   40 NActive=   40 NUniq=   40 SFac= 1.00D+00 NAtFMM=   60 NAOKFM=F Big=F
 Integral buffers will be    131072 words long.
 Raffenetti 2 integral format.
 Two-electron integral symmetry is turned on.
 ------------------------------------------------------------------------------
 Polarizable Continuum Model (PCM)
 =================================
 Model                : PCM.
 Atomic radii         : SMD-Coulomb.
 Polarization charges : Total charges.
 Charge compensation  : None.
 Solution method      : On-the-fly selection.
 Cavity type          : VdW (van der Waals Surface) (Alpha=1.000).
 Cavity algorithm     : GePol (No added spheres)
                        Default sphere list used, NSphG=   40.
                        Lebedev-Laikov grids with approx.  5.0 points / Ang**2.
                        Smoothing algorithm: York/Karplus (Gamma=1.0000).
                        Polarization charges: spherical gaussians, with
                                              point-specific exponents (IZeta= 3).
                        Self-potential: point-specific (ISelfS= 7).
                        Self-field    : sphere-specific E.n sum rule (ISelfD= 2).
 Solvent              : TetraHydroFuran, Eps=   7.425700 Eps(inf)=   1.974025
 ------------------------------------------------------------------------------
 GePol: Number of generator spheres                  =      40
 GePol: Total number of spheres                      =      40
 GePol: Number of exposed spheres                    =      40 (100.00%)
 GePol: Number of points                             =    3263
 GePol: Average weight of points                     =       0.12
 GePol: Minimum weight of points                     =   0.20D-09
 GePol: Maximum weight of points                     =    0.18287
 GePol: Number of points with low weight             =     170
 GePol: Fraction of low-weight points (<1% of avg)   =       5.21%
 GePol: Cavity surface area                          =    378.549 Ang**2
 GePol: Cavity volume                                =    373.968 Ang**3
 ------------------------------------------------------------------------------
 Atomic radii for non-electrostatic terms: SMD-CDS.
 ------------------------------------------------------------------------------
 PCM non-electrostatic energy =        -0.0034855512 Hartrees.
 Nuclear repulsion after PCM non-electrostatic terms =     1880.7136295210 Hartrees.
 Leave Link  301 at Wed Jul  9 16:53:28 2025, MaxMem=  6291456000 cpu:               0.2 elap:               0.1
 (Enter /share/apps/chem/gaussian-16-bin.c.02/g16/l302.exe)
 NPDir=0 NMtPBC=     1 NCelOv=     1 NCel=       1 NClECP=     1 NCelD=      1
         NCelK=      1 NCelE2=     1 NClLst=     1 CellRange=     0.0.
 One-electron integrals computed using PRISM.
 One-electron integral symmetry used in STVInt
   1 Symmetry operations used in ECPInt.
 ECPInt:  NShTT=   46360 NPrTT=  136992 LenC2=   41917 LenP2D=   89493.
 LDataN:  DoStor=T MaxTD1= 6 Len=  172
 NBasis=   752 RedAO= T EigKep=  4.65D-05  NBF=   752
 NBsUse=   752 1.00D-06 EigRej= -1.00D+00 NBFU=   752
 Precomputing XC quadrature grid using
 IXCGrd= 4 IRadAn=           5 IRanWt=          -1 IRanGd=           0 AccXCQ= 0.00D+00.
 Generated NRdTot=       0 NPtTot=           0 NUsed=           0 NTot=          32
 NSgBfM=   846   846   846   846   846 MxSgAt=    40 MxSgA2=    40.
 Leave Link  302 at Wed Jul  9 16:53:29 2025, MaxMem=  6291456000 cpu:               8.3 elap:               1.2
 (Enter /share/apps/chem/gaussian-16-bin.c.02/g16/l303.exe)
 DipDrv:  MaxL=1.
 Leave Link  303 at Wed Jul  9 16:53:29 2025, MaxMem=  6291456000 cpu:               0.3 elap:               0.1
 (Enter /share/apps/chem/gaussian-16-bin.c.02/g16/l308.exe)
 Leave Link  308 at Wed Jul  9 16:53:30 2025, MaxMem=  6291456000 cpu:               0.8 elap:               0.2
 (Enter /share/apps/chem/gaussian-16-bin.c.02/g16/l401.exe)
 ExpMin= 1.00D-02 ExpMax= 2.70D+04 ExpMxC= 9.22D+02 IAcc=3 IRadAn=         5 AccDes= 0.00D+00
 Harris functional with IExCor= 1009 and IRadAn=       5 diagonalized for initial guess.
 HarFok:  IExCor= 1009 AccDes= 0.00D+00 IRadAn=         5 IDoV= 1 UseB2=F ITyADJ=14
 ICtDFT=  3500011 ScaDFX=  1.000000  1.000000  1.000000  1.000000
 FoFCou: FMM=F IPFlag=           0 FMFlag=      100000 FMFlg1=           0
         NFxFlg=           0 DoJE=T BraDBF=F KetDBF=T FulRan=T
         wScrn=  0.000000 ICntrl=       500 IOpCl=  0 I1Cent=   200000004 NGrid=           0
         NMat0=    1 NMatS0=      1 NMatT0=    0 NMatD0=    1 NMtDS0=    0 NMtDT0=    0
 Petite list used in FoFCou.
 Harris En= -1051.34173709589    
 JPrj=0 DoOrth=F DoCkMO=F.
 Leave Link  401 at Wed Jul  9 16:53:33 2025, MaxMem=  6291456000 cpu:              37.2 elap:               3.4
 (Enter /share/apps/chem/gaussian-16-bin.c.02/g16/l502.exe)
 Integral symmetry usage will be decided dynamically.
 Closed shell SCF:
 Using DIIS extrapolation, IDIIS=  1040.
 NGot=  6291456000 LenX=  6289982046 LenY=  6289253584
 Requested convergence on RMS density matrix=1.00D-08 within 128 cycles.
 Requested convergence on MAX density matrix=1.00D-06.
 Requested convergence on             energy=1.00D-06.
 No special actions if energy rises.
 Fock matrices will be formed incrementally for  20 cycles.

 Cycle   1  Pass 1  IDiag  1:
 FoFJK:  IHMeth= 1 ICntrl=       0 DoSepK=F KAlg= 0 I1Cent=           0 FoldK=F
 IRaf= 840000000 NMat=       1 IRICut=       1 DoRegI=T DoRafI=F ISym2E= 0 IDoP0=0 IntGTp=1.
 FoFCou: FMM=F IPFlag=           0 FMFlag=      100000 FMFlg1=           0
         NFxFlg=           0 DoJE=F BraDBF=F KetDBF=F FulRan=T
         wScrn=  0.000000 ICntrl=         0 IOpCl=  0 I1Cent=           0 NGrid=           0
         NMat0=    1 NMatS0=      1 NMatT0=    0 NMatD0=    1 NMtDS0=    0 NMtDT0=    0
 Symmetry not used in FoFCou.
 Inv3:  Mode=1 IEnd=    31941507.
 Iteration    1 A*A^-1 deviation from unit magnitude is 3.33D-15 for    205.
 Iteration    1 A*A^-1 deviation from orthogonality  is 2.00D-15 for   1666    301.
 Iteration    1 A^-1*A deviation from unit magnitude is 3.11D-15 for   1994.
 Iteration    1 A^-1*A deviation from orthogonality  is 2.22D-15 for   1702     79.
 E= -1050.42040555448    
 DIIS: error= 2.65D-02 at cycle   1 NSaved=   1.
 NSaved= 1 IEnMin= 1 EnMin= -1050.42040555448     IErMin= 1 ErrMin= 2.65D-02
 ErrMax= 2.65D-02  0.00D+00 EMaxC= 1.00D-01 BMatC= 7.21D-01 BMatP= 7.21D-01
 IDIUse=3 WtCom= 7.35D-01 WtEn= 2.65D-01
 Coeff-Com:  0.100D+01
 Coeff-En:   0.100D+01
 Coeff:      0.100D+01
 Gap=     0.283 Goal=   None    Shift=    0.000
 GapD=    0.283 DampG=1.000 DampE=0.250 DampFc=0.2500 IDamp=-1.
 Damping current iteration by 2.50D-01
 RMSDP=1.77D-03 MaxDP=2.38D-01              OVMax= 2.32D-01

 Cycle   2  Pass 1  IDiag  1:
 RMSU=  4.40D-04    CP:  9.94D-01
 E= -1050.58173302372     Delta-E=       -0.161327469241 Rises=F Damp=T
 DIIS: error= 1.21D-02 at cycle   2 NSaved=   2.
 NSaved= 2 IEnMin= 2 EnMin= -1050.58173302372     IErMin= 2 ErrMin= 1.21D-02
 ErrMax= 1.21D-02  0.00D+00 EMaxC= 1.00D-01 BMatC= 1.65D-01 BMatP= 7.21D-01
 IDIUse=3 WtCom= 8.79D-01 WtEn= 1.21D-01
 Coeff-Com: -0.955D-01 0.110D+01
 Coeff-En:   0.251D-02 0.997D+00
 Coeff:     -0.836D-01 0.108D+01
 Gap=     0.214 Goal=   None    Shift=    0.000
 RMSDP=1.49D-03 MaxDP=1.96D-01 DE=-1.61D-01 OVMax= 4.71D-01

 Cycle   3  Pass 1  IDiag  1:
 RMSU=  1.46D-03    CP:  9.54D-01  6.94D-01
 E= -1049.49970270627     Delta-E=        1.082030317450 Rises=F Damp=F
 DIIS: error= 7.70D-02 at cycle   3 NSaved=   3.
 NSaved= 3 IEnMin= 2 EnMin= -1050.58173302372     IErMin= 2 ErrMin= 1.21D-02
 ErrMax= 7.70D-02  0.00D+00 EMaxC= 1.00D-01 BMatC= 3.42D+00 BMatP= 1.65D-01
 IDIUse=2 WtCom= 0.00D+00 WtEn= 1.00D+00
 Coeff-En:   0.000D+00 0.842D+00 0.158D+00
 Coeff:      0.000D+00 0.842D+00 0.158D+00
 Gap=     0.274 Goal=   None    Shift=    0.000
 RMSDP=1.50D-03 MaxDP=2.83D-01 DE= 1.08D+00 OVMax= 3.04D-01

 Cycle   4  Pass 1  IDiag  1:
 RMSU=  3.26D-04    CP:  9.79D-01  2.48D+00  1.58D-01
 E= -1050.47201585205     Delta-E=       -0.972313145783 Rises=F Damp=F
 DIIS: error= 3.80D-02 at cycle   4 NSaved=   4.
 NSaved= 4 IEnMin= 2 EnMin= -1050.58173302372     IErMin= 2 ErrMin= 1.21D-02
 ErrMax= 3.80D-02  0.00D+00 EMaxC= 1.00D-01 BMatC= 9.58D-01 BMatP= 1.65D-01
 IDIUse=2 WtCom= 0.00D+00 WtEn= 1.00D+00
 EnCoef did     4 forward-backward iterations
 Coeff-En:   0.106D+00 0.000D+00 0.281D+00 0.613D+00
 Coeff:      0.106D+00 0.000D+00 0.281D+00 0.613D+00
 Gap=     0.221 Goal=   None    Shift=    0.000
 RMSDP=8.50D-04 MaxDP=1.50D-01 DE=-9.72D-01 OVMax= 1.78D-01

 Cycle   5  Pass 1  IDiag  1:
 RMSU=  1.39D-04    CP:  9.76D-01  8.47D-01  4.54D-01  1.10D+00
 E= -1050.84183324535     Delta-E=       -0.369817393297 Rises=F Damp=F
 DIIS: error= 1.71D-02 at cycle   5 NSaved=   5.
 NSaved= 5 IEnMin= 5 EnMin= -1050.84183324535     IErMin= 2 ErrMin= 1.21D-02
 ErrMax= 1.71D-02  0.00D+00 EMaxC= 1.00D-01 BMatC= 1.98D-01 BMatP= 1.65D-01
 IDIUse=2 WtCom= 0.00D+00 WtEn= 1.00D+00
 Coeff-En:   0.000D+00 0.000D+00 0.000D+00 0.263D+00 0.737D+00
 Coeff:      0.000D+00 0.000D+00 0.000D+00 0.263D+00 0.737D+00
 Gap=     0.214 Goal=   None    Shift=    0.000
 RMSDP=4.06D-04 MaxDP=6.89D-02 DE=-3.70D-01 OVMax= 7.78D-02

 Cycle   6  Pass 1  IDiag  1:
 RMSU=  9.23D-05    CP:  9.77D-01  1.63D+00  3.33D-01  1.13D+00  4.14D-01
 E= -1050.90056637579     Delta-E=       -0.058733130442 Rises=F Damp=F
 DIIS: error= 1.07D-02 at cycle   6 NSaved=   6.
 NSaved= 6 IEnMin= 6 EnMin= -1050.90056637579     IErMin= 6 ErrMin= 1.07D-02
 ErrMax= 1.07D-02  0.00D+00 EMaxC= 1.00D-01 BMatC= 7.04D-02 BMatP= 1.65D-01
 IDIUse=3 WtCom= 8.93D-01 WtEn= 1.07D-01
 Coeff-Com: -0.216D+00 0.263D+00-0.327D-02-0.773D-01 0.492D+00 0.542D+00
 Coeff-En:   0.000D+00 0.000D+00 0.000D+00 0.000D+00 0.343D+00 0.657D+00
 Coeff:     -0.193D+00 0.235D+00-0.292D-02-0.690D-01 0.476D+00 0.554D+00
 Gap=     0.203 Goal=   None    Shift=    0.000
 RMSDP=1.61D-04 MaxDP=2.72D-02 DE=-5.87D-02 OVMax= 2.95D-02

 Cycle   7  Pass 1  IDiag  1:
 RMSU=  3.40D-05    CP:  9.76D-01  1.36D+00  3.97D-01  1.15D+00  5.81D-01
                    CP:  6.47D-01
 E= -1050.93352997640     Delta-E=       -0.032963600609 Rises=F Damp=F
 DIIS: error= 6.38D-04 at cycle   7 NSaved=   7.
 NSaved= 7 IEnMin= 7 EnMin= -1050.93352997640     IErMin= 7 ErrMin= 6.38D-04
 ErrMax= 6.38D-04  0.00D+00 EMaxC= 1.00D-01 BMatC= 3.90D-04 BMatP= 7.04D-02
 IDIUse=3 WtCom= 9.94D-01 WtEn= 6.38D-03
 Coeff-Com: -0.140D+00 0.181D+00 0.147D-03-0.626D-01 0.257D+00 0.294D+00
 Coeff-Com:  0.470D+00
 Coeff-En:   0.000D+00 0.000D+00 0.000D+00 0.000D+00 0.000D+00 0.000D+00
 Coeff-En:   0.100D+01
 Coeff:     -0.139D+00 0.180D+00 0.146D-03-0.622D-01 0.256D+00 0.293D+00
 Coeff:      0.473D+00
 Gap=     0.203 Goal=   None    Shift=    0.000
 RMSDP=2.07D-05 MaxDP=2.41D-03 DE=-3.30D-02 OVMax= 3.47D-03

 Cycle   8  Pass 1  IDiag  1:
 RMSU=  1.11D-05    CP:  9.76D-01  1.37D+00  3.89D-01  1.16D+00  6.06D-01
                    CP:  6.99D-01  7.27D-01
 E= -1050.93342476743     Delta-E=        0.000105208970 Rises=F Damp=F
 DIIS: error= 1.32D-03 at cycle   8 NSaved=   8.
 NSaved= 8 IEnMin= 7 EnMin= -1050.93352997640     IErMin= 7 ErrMin= 6.38D-04
 ErrMax= 1.32D-03  0.00D+00 EMaxC= 1.00D-01 BMatC= 9.31D-04 BMatP= 3.90D-04
 IDIUse=3 WtCom= 9.94D-01 WtEn= 6.38D-03
 Coeff-Com: -0.320D-01 0.417D-01 0.630D-02-0.288D-01 0.414D-01 0.435D-01
 Coeff-Com:  0.162D+00 0.766D+00
 Coeff-En:   0.000D+00 0.000D+00 0.000D+00 0.000D+00 0.000D+00 0.000D+00
 Coeff-En:   0.630D+00 0.370D+00
 Coeff:     -0.318D-01 0.414D-01 0.626D-02-0.286D-01 0.411D-01 0.432D-01
 Coeff:      0.165D+00 0.763D+00
 Gap=     0.202 Goal=   None    Shift=    0.000
 RMSDP=1.23D-05 MaxDP=2.37D-03 DE= 1.05D-04 OVMax= 2.74D-03

 Cycle   9  Pass 1  IDiag  1:
 RMSU=  4.08D-06    CP:  9.76D-01  1.36D+00  3.95D-01  1.16D+00  6.14D-01
                    CP:  7.42D-01  7.92D-01  9.69D-01
 E= -1050.93378691745     Delta-E=       -0.000362150016 Rises=F Damp=F
 DIIS: error= 4.49D-04 at cycle   9 NSaved=   9.
 NSaved= 9 IEnMin= 9 EnMin= -1050.93378691745     IErMin= 9 ErrMin= 4.49D-04
 ErrMax= 4.49D-04  0.00D+00 EMaxC= 1.00D-01 BMatC= 1.11D-04 BMatP= 3.90D-04
 IDIUse=3 WtCom= 9.96D-01 WtEn= 4.49D-03
 Coeff-Com:  0.570D-02-0.811D-02 0.440D-02-0.853D-02-0.155D-01-0.154D-01
 Coeff-Com:  0.207D-01 0.317D+00 0.699D+00
 Coeff-En:   0.000D+00 0.000D+00 0.000D+00 0.000D+00 0.000D+00 0.000D+00
 Coeff-En:   0.000D+00 0.000D+00 0.100D+01
 Coeff:      0.567D-02-0.807D-02 0.438D-02-0.849D-02-0.154D-01-0.154D-01
 Coeff:      0.206D-01 0.316D+00 0.701D+00
 Gap=     0.202 Goal=   None    Shift=    0.000
 RMSDP=6.14D-06 MaxDP=1.14D-03 DE=-3.62D-04 OVMax= 1.49D-03

 Cycle  10  Pass 1  IDiag  1:
 RMSU=  2.02D-06    CP:  9.76D-01  1.35D+00  3.98D-01  1.16D+00  6.16D-01
                    CP:  7.45D-01  8.19D-01  1.04D+00  9.77D-01
 E= -1050.93383573438     Delta-E=       -0.000048816931 Rises=F Damp=F
 DIIS: error= 4.07D-05 at cycle  10 NSaved=  10.
 NSaved=10 IEnMin=10 EnMin= -1050.93383573438     IErMin=10 ErrMin= 4.07D-05
 ErrMax= 4.07D-05  0.00D+00 EMaxC= 1.00D-01 BMatC= 1.26D-06 BMatP= 1.11D-04
 IDIUse=1 WtCom= 1.00D+00 WtEn= 0.00D+00
 Coeff-Com:  0.188D-02-0.267D-02 0.144D-02-0.258D-02-0.660D-02-0.957D-02
 Coeff-Com:  0.381D-03 0.626D-01 0.337D+00 0.618D+00
 Coeff:      0.188D-02-0.267D-02 0.144D-02-0.258D-02-0.660D-02-0.957D-02
 Coeff:      0.381D-03 0.626D-01 0.337D+00 0.618D+00
 Gap=     0.202 Goal=   None    Shift=    0.000
 RMSDP=1.04D-06 MaxDP=9.91D-05 DE=-4.88D-05 OVMax= 1.93D-04

 Cycle  11  Pass 1  IDiag  1:
 RMSU=  9.48D-07    CP:  9.76D-01  1.35D+00  3.98D-01  1.16D+00  6.16D-01
                    CP:  7.44D-01  8.22D-01  1.04D+00  1.00D+00  8.48D-01
 E= -1050.93383596987     Delta-E=       -0.000000235491 Rises=F Damp=F
 DIIS: error= 4.08D-05 at cycle  11 NSaved=  11.
 NSaved=11 IEnMin=11 EnMin= -1050.93383596987     IErMin=10 ErrMin= 4.07D-05
 ErrMax= 4.08D-05  0.00D+00 EMaxC= 1.00D-01 BMatC= 1.01D-06 BMatP= 1.26D-06
 IDIUse=1 WtCom= 1.00D+00 WtEn= 0.00D+00
 Coeff-Com: -0.122D-02 0.167D-02 0.260D-03-0.773D-03-0.377D-03-0.384D-02
 Coeff-Com: -0.200D-02-0.126D-01 0.796D-01 0.393D+00 0.546D+00
 Coeff:     -0.122D-02 0.167D-02 0.260D-03-0.773D-03-0.377D-03-0.384D-02
 Coeff:     -0.200D-02-0.126D-01 0.796D-01 0.393D+00 0.546D+00
 Gap=     0.202 Goal=   None    Shift=    0.000
 RMSDP=4.65D-07 MaxDP=3.77D-05 DE=-2.35D-07 OVMax= 8.04D-05

 Cycle  12  Pass 1  IDiag  1:
 RMSU=  3.85D-07    CP:  9.76D-01  1.35D+00  3.98D-01  1.16D+00  6.17D-01
                    CP:  7.44D-01  8.23D-01  1.04D+00  1.01D+00  9.30D-01
                    CP:  8.63D-01
 E= -1050.93383615352     Delta-E=       -0.000000183652 Rises=F Damp=F
 DIIS: error= 3.77D-05 at cycle  12 NSaved=  12.
 NSaved=12 IEnMin=12 EnMin= -1050.93383615352     IErMin=12 ErrMin= 3.77D-05
 ErrMax= 3.77D-05  0.00D+00 EMaxC= 1.00D-01 BMatC= 7.27D-07 BMatP= 1.01D-06
 IDIUse=1 WtCom= 1.00D+00 WtEn= 0.00D+00
 Coeff-Com: -0.683D-03 0.959D-03 0.751D-05-0.622D-04 0.304D-03-0.121D-02
 Coeff-Com: -0.253D-02-0.228D-01-0.997D-02 0.126D+00 0.296D+00 0.614D+00
 Coeff:     -0.683D-03 0.959D-03 0.751D-05-0.622D-04 0.304D-03-0.121D-02
 Coeff:     -0.253D-02-0.228D-01-0.997D-02 0.126D+00 0.296D+00 0.614D+00
 Gap=     0.202 Goal=   None    Shift=    0.000
 RMSDP=4.25D-07 MaxDP=8.64D-05 DE=-1.84D-07 OVMax= 1.32D-04

 Cycle  13  Pass 1  IDiag  1:
 RMSU=  1.61D-07    CP:  9.76D-01  1.35D+00  3.98D-01  1.16D+00  6.17D-01
                    CP:  7.45D-01  8.24D-01  1.05D+00  1.02D+00  9.77D-01
                    CP:  8.98D-01  9.97D-01
 E= -1050.93383647619     Delta-E=       -0.000000322670 Rises=F Damp=F
 DIIS: error= 9.48D-06 at cycle  13 NSaved=  13.
 NSaved=13 IEnMin=13 EnMin= -1050.93383647619     IErMin=13 ErrMin= 9.48D-06
 ErrMax= 9.48D-06  0.00D+00 EMaxC= 1.00D-01 BMatC= 4.58D-08 BMatP= 7.27D-07
 IDIUse=1 WtCom= 1.00D+00 WtEn= 0.00D+00
 Coeff-Com:  0.919D-04-0.118D-03-0.381D-04 0.175D-03 0.498D-05 0.240D-06
 Coeff-Com: -0.157D-02-0.129D-01-0.206D-01-0.345D-02 0.580D-01 0.304D+00
 Coeff-Com:  0.677D+00
 Coeff:      0.919D-04-0.118D-03-0.381D-04 0.175D-03 0.498D-05 0.240D-06
 Coeff:     -0.157D-02-0.129D-01-0.206D-01-0.345D-02 0.580D-01 0.304D+00
 Coeff:      0.677D+00
 Gap=     0.202 Goal=   None    Shift=    0.000
 RMSDP=2.24D-07 MaxDP=4.69D-05 DE=-3.23D-07 OVMax= 5.95D-05

 Cycle  14  Pass 1  IDiag  1:
 RMSU=  6.29D-08    CP:  9.76D-01  1.35D+00  3.98D-01  1.16D+00  6.17D-01
                    CP:  7.45D-01  8.26D-01  1.05D+00  1.03D+00  9.90D-01
                    CP:  9.56D-01  1.06D+00  9.29D-01
 E= -1050.93383649137     Delta-E=       -0.000000015182 Rises=F Damp=F
 DIIS: error= 5.77D-06 at cycle  14 NSaved=  14.
 NSaved=14 IEnMin=14 EnMin= -1050.93383649137     IErMin=14 ErrMin= 5.77D-06
 ErrMax= 5.77D-06  0.00D+00 EMaxC= 1.00D-01 BMatC= 1.82D-08 BMatP= 4.58D-08
 IDIUse=1 WtCom= 1.00D+00 WtEn= 0.00D+00
 Coeff-Com:  0.583D-04-0.790D-04-0.301D-04 0.889D-04 0.471D-04 0.177D-03
 Coeff-Com: -0.312D-03-0.243D-02-0.726D-02-0.155D-01-0.535D-02 0.770D-01
 Coeff-Com:  0.308D+00 0.646D+00
 Coeff:      0.583D-04-0.790D-04-0.301D-04 0.889D-04 0.471D-04 0.177D-03
 Coeff:     -0.312D-03-0.243D-02-0.726D-02-0.155D-01-0.535D-02 0.770D-01
 Coeff:      0.308D+00 0.646D+00
 Gap=     0.202 Goal=   None    Shift=    0.000
 RMSDP=5.06D-08 MaxDP=9.49D-06 DE=-1.52D-08 OVMax= 1.23D-05

 Cycle  15  Pass 1  IDiag  1:
 RMSU=  1.79D-08    CP:  9.76D-01  1.35D+00  3.98D-01  1.16D+00  6.17D-01
                    CP:  7.45D-01  8.26D-01  1.05D+00  1.03D+00  9.95D-01
                    CP:  9.65D-01  1.11D+00  1.02D+00  9.39D-01
 E= -1050.93383649745     Delta-E=       -0.000000006073 Rises=F Damp=F
 DIIS: error= 3.04D-06 at cycle  15 NSaved=  15.
 NSaved=15 IEnMin=15 EnMin= -1050.93383649745     IErMin=15 ErrMin= 3.04D-06
 ErrMax= 3.04D-06  0.00D+00 EMaxC= 1.00D-01 BMatC= 4.96D-09 BMatP= 1.82D-08
 IDIUse=1 WtCom= 1.00D+00 WtEn= 0.00D+00
 Coeff-Com: -0.187D-04 0.246D-04-0.143D-04 0.870D-05 0.624D-04 0.122D-03
 Coeff-Com:  0.302D-03 0.259D-02 0.160D-02-0.832D-02-0.184D-01-0.347D-01
 Coeff-Com: -0.518D-02 0.323D+00 0.739D+00
 Coeff:     -0.187D-04 0.246D-04-0.143D-04 0.870D-05 0.624D-04 0.122D-03
 Coeff:      0.302D-03 0.259D-02 0.160D-02-0.832D-02-0.184D-01-0.347D-01
 Coeff:     -0.518D-02 0.323D+00 0.739D+00
 Gap=     0.202 Goal=   None    Shift=    0.000
 RMSDP=4.93D-08 MaxDP=8.35D-06 DE=-6.07D-09 OVMax= 1.11D-05

 Cycle  16  Pass 1  IDiag  1:
 RMSU=  8.52D-09    CP:  9.76D-01  1.35D+00  3.98D-01  1.16D+00  6.17D-01
                    CP:  7.45D-01  8.26D-01  1.05D+00  1.03D+00  9.95D-01
                    CP:  9.74D-01  1.13D+00  1.05D+00  1.05D+00  8.66D-01
 E= -1050.93383649966     Delta-E=       -0.000000002211 Rises=F Damp=F
 DIIS: error= 1.63D-07 at cycle  16 NSaved=  16.
 NSaved=16 IEnMin=16 EnMin= -1050.93383649966     IErMin=16 ErrMin= 1.63D-07
 ErrMax= 1.63D-07  0.00D+00 EMaxC= 1.00D-01 BMatC= 1.50D-11 BMatP= 4.96D-09
 IDIUse=1 WtCom= 1.00D+00 WtEn= 0.00D+00
 Coeff-Com:  0.425D-05-0.599D-05-0.192D-05 0.136D-05-0.138D-05 0.117D-04
 Coeff-Com:  0.785D-04 0.850D-03 0.972D-03-0.460D-03-0.414D-02-0.195D-01
 Coeff-Com: -0.441D-01-0.586D-02 0.226D+00 0.847D+00
 Coeff:      0.425D-05-0.599D-05-0.192D-05 0.136D-05-0.138D-05 0.117D-04
 Coeff:      0.785D-04 0.850D-03 0.972D-03-0.460D-03-0.414D-02-0.195D-01
 Coeff:     -0.441D-01-0.586D-02 0.226D+00 0.847D+00
 Gap=     0.202 Goal=   None    Shift=    0.000
 RMSDP=7.64D-09 MaxDP=1.20D-06 DE=-2.21D-09 OVMax= 2.76D-06

 Cycle  17  Pass 1  IDiag  1:
 RMSU=  2.44D-09    CP:  9.76D-01  1.35D+00  3.98D-01  1.16D+00  6.17D-01
                    CP:  7.45D-01  8.26D-01  1.05D+00  1.03D+00  9.97D-01
                    CP:  9.76D-01  1.14D+00  1.07D+00  1.08D+00  9.92D-01
                    CP:  1.02D+00
 E= -1050.93383649970     Delta-E=       -0.000000000045 Rises=F Damp=F
 DIIS: error= 2.93D-08 at cycle  17 NSaved=  17.
 NSaved=17 IEnMin=17 EnMin= -1050.93383649970     IErMin=17 ErrMin= 2.93D-08
 ErrMax= 2.93D-08  0.00D+00 EMaxC= 1.00D-01 BMatC= 6.96D-13 BMatP= 1.50D-11
 IDIUse=1 WtCom= 1.00D+00 WtEn= 0.00D+00
 Coeff-Com:  0.906D-06-0.120D-05 0.956D-08-0.447D-06-0.321D-05-0.286D-05
 Coeff-Com:  0.116D-04 0.180D-03 0.234D-03 0.232D-03-0.608D-03-0.590D-02
 Coeff-Com: -0.182D-01-0.239D-01 0.433D-01 0.346D+00 0.658D+00
 Coeff:      0.906D-06-0.120D-05 0.956D-08-0.447D-06-0.321D-05-0.286D-05
 Coeff:      0.116D-04 0.180D-03 0.234D-03 0.232D-03-0.608D-03-0.590D-02
 Coeff:     -0.182D-01-0.239D-01 0.433D-01 0.346D+00 0.658D+00
 Gap=     0.202 Goal=   None    Shift=    0.000
 RMSDP=1.59D-09 MaxDP=2.36D-07 DE=-4.55D-11 OVMax= 3.59D-07

 Error on total polarization charges =  0.03995
 SCF Done:  E(RPBE1PBE) =  -1050.93383650     A.U. after   17 cycles
            NFock= 17  Conv=0.16D-08     -V/T= 2.0693
 KE= 9.828310255426D+02 PE=-6.225931051834D+03 EE= 2.311452560271D+03
 SMD-CDS (non-electrostatic) energy       (kcal/mol) =      -2.19
 (included in total energy above)
 Leave Link  502 at Wed Jul  9 17:03:30 2025, MaxMem=  6291456000 cpu:            7000.1 elap:             597.0
 (Enter /share/apps/chem/gaussian-16-bin.c.02/g16/l801.exe)
 DoSCS=F DFT=T ScalE2(SS,OS)=  1.000000  1.000000
 Range of M.O.s used for correlation:     1   752
 NBasis=   752 NAE=    80 NBE=    80 NFC=     0 NFV=     0
 NROrb=    752 NOA=    80 NOB=    80 NVA=   672 NVB=   672

 **** Warning!!: The largest alpha MO coefficient is  0.28786522D+02

 Leave Link  801 at Wed Jul  9 17:03:30 2025, MaxMem=  6291456000 cpu:               0.1 elap:               0.1
 (Enter /share/apps/chem/gaussian-16-bin.c.02/g16/l1002.exe)
 Minotr:  Closed shell wavefunction.
 NEqPCM:  Using equilibrium solvation (IEInf=0, Eps=   7.4257, EpsInf=   1.9740)
          Direct CPHF calculation.
          Differentiating once with respect to magnetic field using GIAOs.
          Electric field/nuclear overlap derivatives assumed to be zero.
          Requested convergence is 1.0D-08 RMS, and 1.0D-07 maximum.
          Secondary convergence is 1.0D-12 RMS, and 1.0D-12 maximum.
          NewPWx=T KeepS1=F KeepF1=F KeepIn=T MapXYZ=F SortEE=F KeepMc=T.
        12635 words used for storage of precomputed grid.
 Two-electron integral symmetry used by symmetrizing perturbed Fock matrices.
          MDV=    6291456000 using IRadAn=       1.
          Solving linear equations simultaneously, MaxMat=     384.
   1 Symmetry operations used in ECPInt.
 ECPInt:  NShTT=   46360 NPrTT=  136992 LenC2=   46361 LenP2D=  136992.
 LDataN:  DoStor=T MaxTD1= 7 Len=  274
 FoFJK:  IHMeth= 1 ICntrl=    6127 DoSepK=F KAlg= 0 I1Cent=           0 FoldK=F
 IRaf=         1 NMat=       1 IRICut=       1 DoRegI=T DoRafI=F ISym2E= 0 IDoP0=0 IntGTp=1.
          There are     3 degrees of freedom in the 1st order CPHF.  IDoFFX=0 NUNeed=     3.
      3 vectors produced by pass  0 Test12= 1.79D-12 3.33D-08 XBig12= 4.38D+01 1.44D+00.
 AX will form     3 AO Fock derivatives at one time.
      3 vectors produced by pass  1 Test12= 1.79D-12 3.33D-08 XBig12= 2.65D-01 3.06D-01.
      3 vectors produced by pass  2 Test12= 1.79D-12 3.33D-08 XBig12= 6.08D-03 3.89D-02.
      3 vectors produced by pass  3 Test12= 1.79D-12 3.33D-08 XBig12= 6.39D-05 1.90D-03.
      3 vectors produced by pass  4 Test12= 1.79D-12 3.33D-08 XBig12= 4.41D-07 2.30D-04.
      3 vectors produced by pass  5 Test12= 1.79D-12 3.33D-08 XBig12= 8.63D-09 3.01D-05.
      3 vectors produced by pass  6 Test12= 1.79D-12 3.33D-08 XBig12= 9.28D-11 2.97D-06.
      3 vectors produced by pass  7 Test12= 1.79D-12 3.33D-08 XBig12= 8.04D-13 3.22D-07.
      1 vectors produced by pass  8 Test12= 1.79D-12 3.33D-08 XBig12= 1.32D-14 6.37D-08.
 InvSVY:  IOpt=1 It=  1 EMax= 8.88D-16
 Solved reduced A of dimension    25 with     3 vectors.
 Calculating GIAO nuclear magnetic shielding tensors.
 SCF GIAO Magnetic shielding tensor (ppm):
      1  C    Isotropic =   154.8076   Anisotropy =    32.6050
   XX=   148.3956   YX=     6.9725   ZX=     4.8041
   XY=     4.0826   YY=   154.3455   ZY=    14.9505
   XZ=     3.7013   YZ=    18.0336   ZZ=   161.6817
   Eigenvalues:   140.6901   147.1885   176.5442
      2  C    Isotropic =   120.8951   Anisotropy =    48.8860
   XX=   149.9830   YX=     9.7265   ZX=    -3.6559
   XY=    13.5151   YY=   108.0148   ZY=    -1.0120
   XZ=    -6.1558   YZ=    -0.4999   ZZ=   104.6876
   Eigenvalues:   103.9573   105.2423   153.4858
      3  C    Isotropic =   154.6912   Anisotropy =    36.6307
   XX=   147.7573   YX=     6.0418   ZX=    -5.0355
   XY=     2.2818   YY=   144.2058   ZY=   -13.0308
   XZ=    -5.5829   YZ=   -14.5171   ZZ=   172.1104
   Eigenvalues:   138.1581   146.8037   179.1116
      4  C    Isotropic =   151.2812   Anisotropy =    41.1568
   XX=   145.6727   YX=   -22.5859   ZX=     4.3111
   XY=   -13.3363   YY=   168.3356   ZY=    -2.4519
   XZ=     2.1841   YZ=    -3.8086   ZZ=   139.8353
   Eigenvalues:   135.3314   139.7931   178.7191
      5  N    Isotropic =    12.2211   Anisotropy =   191.3893
   XX=   -73.0689   YX=   -70.2938   ZX=    12.1868
   XY=   -35.9046   YY=   -29.4265   ZY=    12.9205
   XZ=     0.3610   YZ=     7.3425   ZZ=   139.1586
   Eigenvalues:  -109.1305     5.9798   139.8139
      6  C    Isotropic =    61.6871   Anisotropy =   114.8812
   XX=    60.7736   YX=    17.4688   ZX=    -0.4303
   XY=    23.8286   YY=   -13.3485   ZY=    10.8099
   XZ=    -1.1059   YZ=     8.7985   ZZ=   137.6363
   Eigenvalues:   -19.3101    66.0969   138.2746
      7  C    Isotropic =    61.6901   Anisotropy =   114.8877
   XX=    60.8413   YX=   -17.3594   ZX=     0.3779
   XY=   -23.7045   YY=   -13.4169   ZY=    10.7868
   XZ=     1.0824   YZ=     8.7859   ZZ=   137.6458
   Eigenvalues:   -19.3102    66.0985   138.2818
      8  N    Isotropic =    12.2227   Anisotropy =   191.4181
   XX=   -73.2213   YX=    70.2283   ZX=   -12.2642
   XY=    35.8380   YY=   -29.2838   ZY=    12.9026
   XZ=    -0.4713   YZ=     7.4135   ZZ=   139.1731
   Eigenvalues:  -109.1380     5.9713   139.8348
      9  C    Isotropic =   120.8972   Anisotropy =    48.8793
   XX=   150.0115   YX=    -9.6671   ZX=     3.6710
   XY=   -13.4567   YY=   107.9865   ZY=    -1.0072
   XZ=     6.1539   YZ=    -0.4858   ZZ=   104.6936
   Eigenvalues:   103.9589   105.2493   153.4834
     10  C    Isotropic =   154.8159   Anisotropy =    32.6209
   XX=   148.4190   YX=    -7.0015   ZX=    -4.8392
   XY=    -4.1127   YY=   154.3088   ZY=    14.9358
   XZ=    -3.7554   YZ=    18.0173   ZZ=   161.7200
   Eigenvalues:   140.6958   147.1887   176.5632
     11  C    Isotropic =   154.6910   Anisotropy =    36.6110
   XX=   147.7847   YX=    -6.0422   ZX=     5.0382
   XY=    -2.2779   YY=   144.2070   ZY=   -13.0451
   XZ=     5.5736   YZ=   -14.5337   ZZ=   172.0814
   Eigenvalues:   138.1476   146.8271   179.0984
     12  C    Isotropic =   151.2778   Anisotropy =    41.1592
   XX=   145.5952   YX=    22.5671   ZX=    -4.2754
   XY=    13.3103   YY=   168.3936   ZY=    -2.4342
   XZ=    -2.1601   YZ=    -3.7658   ZZ=   139.8447
   Eigenvalues:   135.3114   139.8048   178.7173
     13  C    Isotropic =   -14.4627   Anisotropy =   212.0931
   XX=  -162.6805   YX=    -0.1322   ZX=    -0.0496
   XY=    -0.1069   YY=    -6.5260   ZY=     9.4924
   XZ=    -0.0576   YZ=    14.8958   ZZ=   125.8185
   Eigenvalues:  -162.6806    -7.6401   126.9327
     14  Ni   Isotropic = -4050.5345   Anisotropy =   640.6805
   XX= -4012.5896   YX=    -0.1976   ZX=    -0.0858
   XY=    -1.1991   YY= -4419.1891   ZY=  -400.7805
   XZ=    -0.6708   YZ=  -153.1909   ZZ= -3719.8247
   Eigenvalues: -4515.6008 -4012.5885 -3623.4142
     15  C    Isotropic =   -25.6415   Anisotropy =   392.8832
   XX=    40.1378   YX=   170.0533   ZX=  -110.0388
   XY=   157.6903   YY=   -19.5019   ZY=   -84.4225
   XZ=  -110.6716   YZ=   -90.6454   ZZ=   -97.5604
   Eigenvalues:  -159.8421  -153.3630   236.2806
     16  O    Isotropic =   -61.1735   Anisotropy =   537.9803
   XX=    25.9112   YX=   239.6627   ZX=  -137.9551
   XY=   222.4661   YY=   -62.4767   ZY=  -121.1139
   XZ=  -143.1176   YZ=  -132.5660   ZZ=  -146.9551
   Eigenvalues:  -255.5761  -225.4244   297.4800
     17  C    Isotropic =   -25.6194   Anisotropy =   392.8430
   XX=    41.0716   YX=  -170.3177   ZX=   109.5859
   XY=  -157.8798   YY=   -19.6770   ZY=   -83.7861
   XZ=   110.3166   YZ=   -90.0579   ZZ=   -98.2528
   Eigenvalues:  -159.8116  -153.3226   236.2759
     18  O    Isotropic =   -61.1245   Anisotropy =   537.9368
   XX=    27.2257   YX=  -240.0782   ZX=   137.3331
   XY=  -222.6772   YY=   -62.7931   ZY=  -120.2374
   XZ=   142.6875   YZ=  -131.8530   ZZ=  -147.8060
   Eigenvalues:  -255.5483  -225.3253   297.5001
     19  C    Isotropic =   -27.6554   Anisotropy =   400.4288
   XX=  -157.9299   YX=     0.0379   ZX=     0.1322
   XY=     0.0392   YY=  -148.5957   ZY=    80.1073
   XZ=     0.0802   YZ=    76.1553   ZZ=   223.5596
   Eigenvalues:  -164.3334  -157.9299   239.2972
     20  O    Isotropic =   -62.1345   Anisotropy =   572.0310
   XX=  -245.1450   YX=     0.0667   ZX=     0.1962
   XY=     0.0642   YY=  -236.8950   ZY=   125.6164
   XZ=     0.0998   YZ=   103.4234   ZZ=   295.6365
   Eigenvalues:  -260.4780  -245.1449   319.2195
     21  H    Isotropic =    30.0743   Anisotropy =     6.8635
   XX=    27.4423   YX=    -0.7920   ZX=     0.3725
   XY=    -0.5505   YY=    28.3218   ZY=     0.6260
   XZ=     1.9498   YZ=    -0.0846   ZZ=    34.4587
   Eigenvalues:    26.9032    28.6697    34.6500
     22  H    Isotropic =    27.3262   Anisotropy =    12.3921
   XX=    28.5211   YX=    -5.1928   ZX=     1.4549
   XY=    -6.8919   YY=    30.4034   ZY=    -0.4084
   XZ=     2.0304   YZ=     2.4632   ZZ=    23.0542
   Eigenvalues:    21.1987    25.1924    35.5877
     23  H    Isotropic =    29.9917   Anisotropy =     8.3909
   XX=    33.8703   YX=     2.2290   ZX=     1.3690
   XY=     2.6512   YY=    29.1274   ZY=     1.3539
   XZ=     2.5913   YZ=     1.7046   ZZ=    26.9775
   Eigenvalues:    26.1074    28.2821    35.5857
     24  H    Isotropic =    30.0429   Anisotropy =     7.4586
   XX=    27.0423   YX=    -0.1400   ZX=     0.0189
   XY=    -0.3420   YY=    28.8150   ZY=     1.4167
   XZ=    -1.8803   YZ=     2.4937   ZZ=    34.2715
   Eigenvalues:    26.9243    28.1891    35.0153
     25  H    Isotropic =    29.9648   Anisotropy =     8.8223
   XX=    32.9783   YX=     1.9981   ZX=    -2.7134
   XY=     2.0821   YY=    28.2674   ZY=    -1.5401
   XZ=    -4.2266   YZ=    -2.0977   ZZ=    28.6487
   Eigenvalues:    26.3807    27.6674    35.8463
     26  H    Isotropic =    28.1350   Anisotropy =     9.0745
   XX=    27.0639   YX=    -4.1781   ZX=    -1.1714
   XY=    -4.8963   YY=    31.0249   ZY=    -0.7500
   XZ=    -1.6031   YZ=    -3.8765   ZZ=    26.3163
   Eigenvalues:    22.4995    27.7209    34.1847
     27  H    Isotropic =    29.4170   Anisotropy =     8.3175
   XX=    27.7719   YX=    -1.6575   ZX=     1.6175
   XY=    -0.9737   YY=    31.0951   ZY=    -4.3602
   XZ=     1.6864   YZ=    -3.7187   ZZ=    29.3840
   Eigenvalues:    25.9528    27.3362    34.9620
     28  H    Isotropic =    29.6705   Anisotropy =     8.3463
   XX=    34.8767   YX=    -1.4897   ZX=    -0.0213
   XY=    -1.6217   YY=    28.4730   ZY=    -0.1086
   XZ=    -0.0703   YZ=    -0.1052   ZZ=    25.6617
   Eigenvalues:    25.6563    28.1204    35.2347
     29  H    Isotropic =    29.3718   Anisotropy =     8.4834
   XX=    27.9109   YX=    -1.7949   ZX=    -0.9846
   XY=    -0.8707   YY=    33.0953   ZY=     3.8212
   XZ=    -1.1580   YZ=     3.0027   ZZ=    27.1090
   Eigenvalues:    25.4784    27.6095    35.0273
     30  H    Isotropic =    23.5296   Anisotropy =     8.0977
   XX=    27.1349   YX=     3.0195   ZX=    -0.3513
   XY=     2.3227   YY=    24.8570   ZY=    -0.4017
   XZ=    -0.2641   YZ=    -0.6296   ZZ=    18.5969
   Eigenvalues:    18.5536    23.1070    28.9281
     31  H    Isotropic =    23.5292   Anisotropy =     8.0976
   XX=    27.1422   YX=    -3.0159   ZX=     0.3556
   XY=    -2.3188   YY=    24.8487   ZY=    -0.4023
   XZ=     0.2687   YZ=    -0.6286   ZZ=    18.5967
   Eigenvalues:    18.5533    23.1067    28.9276
     32  H    Isotropic =    30.0744   Anisotropy =     6.8669
   XX=    27.4380   YX=     0.7894   ZX=    -0.3777
   XY=     0.5476   YY=    28.3256   ZY=     0.6169
   XZ=    -1.9575   YZ=    -0.0991   ZZ=    34.4598
   Eigenvalues:    26.9026    28.6684    34.6523
     33  H    Isotropic =    29.9916   Anisotropy =     8.3929
   XX=    33.8758   YX=    -2.2253   ZX=    -1.3700
   XY=    -2.6472   YY=    29.1191   ZY=     1.3503
   XZ=    -2.5965   YZ=     1.7006   ZZ=    26.9798
   Eigenvalues:    26.1098    28.2781    35.5868
     34  H    Isotropic =    27.3279   Anisotropy =    12.3842
   XX=    28.5009   YX=     5.1882   ZX=    -1.4521
   XY=     6.8825   YY=    30.4243   ZY=    -0.4039
   XZ=    -2.0355   YZ=     2.4668   ZZ=    23.0584
   Eigenvalues:    21.1988    25.2007    35.5840
     35  H    Isotropic =    29.9648   Anisotropy =     8.8207
   XX=    32.9818   YX=    -1.9932   ZX=     2.7148
   XY=    -2.0779   YY=    28.2659   ZY=    -1.5377
   XZ=     4.2277   YZ=    -2.0920   ZZ=    28.6468
   Eigenvalues:    26.3807    27.6685    35.8453
     36  H    Isotropic =    30.0429   Anisotropy =     7.4574
   XX=    27.0412   YX=     0.1371   ZX=    -0.0244
   XY=     0.3397   YY=    28.8122   ZY=     1.4117
   XZ=     1.8739   YZ=     2.4902   ZZ=    34.2753
   Eigenvalues:    26.9248    28.1894    35.0145
     37  H    Isotropic =    28.1284   Anisotropy =     9.0801
   XX=    27.0482   YX=     4.1753   ZX=     1.1786
   XY=     4.8932   YY=    31.0368   ZY=    -0.7398
   XZ=     1.6167   YZ=    -3.8660   ZZ=    26.3004
   Eigenvalues:    22.4907    27.7128    34.1818
     38  H    Isotropic =    29.4170   Anisotropy =     8.3180
   XX=    27.7697   YX=     1.6553   ZX=    -1.6110
   XY=     0.9716   YY=    31.1048   ZY=    -4.3617
   XZ=    -1.6799   YZ=    -3.7197   ZZ=    29.3766
   Eigenvalues:    25.9523    27.3364    34.9624
     39  H    Isotropic =    29.3720   Anisotropy =     8.4826
   XX=    27.9049   YX=     1.7835   ZX=     0.9806
   XY=     0.8591   YY=    33.0944   ZY=     3.8260
   XZ=     1.1557   YZ=     3.0106   ZZ=    27.1168
   Eigenvalues:    25.4796    27.6095    35.0271
     40  H    Isotropic =    29.6700   Anisotropy =     8.3459
   XX=    34.8707   YX=     1.5009   ZX=     0.0292
   XY=     1.6321   YY=    28.4772   ZY=    -0.1076
   XZ=     0.0781   YZ=    -0.1048   ZZ=    25.6620
   Eigenvalues:    25.6565    28.1195    35.2339
 End of Minotr F.D. properties file   721 does not exist.
 End of Minotr F.D. properties file   722 does not exist.
 End of Minotr F.D. properties file   788 does not exist.
 Leave Link 1002 at Wed Jul  9 17:13:31 2025, MaxMem=  6291456000 cpu:            7143.5 elap:             601.2
 (Enter /share/apps/chem/gaussian-16-bin.c.02/g16/l601.exe)
 Copying SCF densities to generalized density rwf, IOpCl= 0 IROHF=0.

 **********************************************************************

            Population analysis using the SCF Density.

 **********************************************************************

 Orbital symmetries:
       Occupied  (A) (A) (A) (A) (A) (A) (A) (A) (A) (A) (A) (A)
                 (A) (A) (A) (A) (A) (A) (A) (A) (A) (A) (A) (A)
                 (A) (A) (A) (A) (A) (A) (A) (A) (A) (A) (A) (A)
                 (A) (A) (A) (A) (A) (A) (A) (A) (A) (A) (A) (A)
                 (A) (A) (A) (A) (A) (A) (A) (A) (A) (A) (A) (A)
                 (A) (A) (A) (A) (A) (A) (A) (A) (A) (A) (A) (A)
                 (A) (A) (A) (A) (A) (A) (A) (A)
       Virtual   (A) (A) (A) (A) (A) (A) (A) (A) (A) (A) (A) (A)
                 (A) (A) (A) (A) (A) (A) (A) (A) (A) (A) (A) (A)
                 (A) (A) (A) (A) (A) (A) (A) (A) (A) (A) (A) (A)
                 (A) (A) (A) (A) (A) (A) (A) (A) (A) (A) (A) (A)
                 (A) (A) (A) (A) (A) (A) (A) (A) (A) (A) (A) (A)
                 (A) (A) (A) (A) (A) (A) (A) (A) (A) (A) (A) (A)
                 (A) (A) (A) (A) (A) (A) (A) (A) (A) (A) (A) (A)
                 (A) (A) (A) (A) (A) (A) (A) (A) (A) (A) (A) (A)
                 (A) (A) (A) (A) (A) (A) (A) (A) (A) (A) (A) (A)
                 (A) (A) (A) (A) (A) (A) (A) (A) (A) (A) (A) (A)
                 (A) (A) (A) (A) (A) (A) (A) (A) (A) (A) (A) (A)
                 (A) (A) (A) (A) (A) (A) (A) (A) (A) (A) (A) (A)
                 (A) (A) (A) (A) (A) (A) (A) (A) (A) (A) (A) (A)
                 (A) (A) (A) (A) (A) (A) (A) (A) (A) (A) (A) (A)
                 (A) (A) (A) (A) (A) (A) (A) (A) (A) (A) (A) (A)
                 (A) (A) (A) (A) (A) (A) (A) (A) (A) (A) (A) (A)
                 (A) (A) (A) (A) (A) (A) (A) (A) (A) (A) (A) (A)
                 (A) (A) (A) (A) (A) (A) (A) (A) (A) (A) (A) (A)
                 (A) (A) (A) (A) (A) (A) (A) (A) (A) (A) (A) (A)
                 (A) (A) (A) (A) (A) (A) (A) (A) (A) (A) (A) (A)
                 (A) (A) (A) (A) (A) (A) (A) (A) (A) (A) (A) (A)
                 (A) (A) (A) (A) (A) (A) (A) (A) (A) (A) (A) (A)
                 (A) (A) (A) (A) (A) (A) (A) (A) (A) (A) (A) (A)
                 (A) (A) (A) (A) (A) (A) (A) (A) (A) (A) (A) (A)
                 (A) (A) (A) (A) (A) (A) (A) (A) (A) (A) (A) (A)
                 (A) (A) (A) (A) (A) (A) (A) (A) (A) (A) (A) (A)
                 (A) (A) (A) (A) (A) (A) (A) (A) (A) (A) (A) (A)
                 (A) (A) (A) (A) (A) (A) (A) (A) (A) (A) (A) (A)
                 (A) (A) (A) (A) (A) (A) (A) (A) (A) (A) (A) (A)
                 (A) (A) (A) (A) (A) (A) (A) (A) (A) (A) (A) (A)
                 (A) (A) (A) (A) (A) (A) (A) (A) (A) (A) (A) (A)
                 (A) (A) (A) (A) (A) (A) (A) (A) (A) (A) (A) (A)
                 (A) (A) (A) (A) (A) (A) (A) (A) (A) (A) (A) (A)
                 (A) (A) (A) (A) (A) (A) (A) (A) (A) (A) (A) (A)
                 (A) (A) (A) (A) (A) (A) (A) (A) (A) (A) (A) (A)
                 (A) (A) (A) (A) (A) (A) (A) (A) (A) (A) (A) (A)
                 (A) (A) (A) (A) (A) (A) (A) (A) (A) (A) (A) (A)
                 (A) (A) (A) (A) (A) (A) (A) (A) (A) (A) (A) (A)
                 (A) (A) (A) (A) (A) (A) (A) (A) (A) (A) (A) (A)
                 (A) (A) (A) (A) (A) (A) (A) (A) (A) (A) (A) (A)
                 (A) (A) (A) (A) (A) (A) (A) (A) (A) (A) (A) (A)
                 (A) (A) (A) (A) (A) (A) (A) (A) (A) (A) (A) (A)
                 (A) (A) (A) (A) (A) (A) (A) (A) (A) (A) (A) (A)
                 (A) (A) (A) (A) (A) (A) (A) (A) (A) (A) (A) (A)
                 (A) (A) (A) (A) (A) (A) (A) (A) (A) (A) (A) (A)
                 (A) (A) (A) (A) (A) (A) (A) (A) (A) (A) (A) (A)
                 (A) (A) (A) (A) (A) (A) (A) (A) (A) (A) (A) (A)
                 (A) (A) (A) (A) (A) (A) (A) (A) (A) (A) (A) (A)
                 (A) (A) (A) (A) (A) (A) (A) (A) (A) (A) (A) (A)
                 (A) (A) (A) (A) (A) (A) (A) (A) (A) (A) (A) (A)
                 (A) (A) (A) (A) (A) (A) (A) (A) (A) (A) (A) (A)
                 (A) (A) (A) (A) (A) (A) (A) (A) (A) (A) (A) (A)
                 (A) (A) (A) (A) (A) (A) (A) (A) (A) (A) (A) (A)
                 (A) (A) (A) (A) (A) (A) (A) (A) (A) (A) (A) (A)
                 (A) (A) (A) (A) (A) (A) (A) (A) (A) (A) (A) (A)
                 (A) (A) (A) (A) (A) (A) (A) (A) (A) (A) (A) (A)
 The electronic state is 1-A.
 Alpha  occ. eigenvalues --  -19.27308 -19.26997 -19.26996 -14.44371 -14.44370
 Alpha  occ. eigenvalues --  -10.33224 -10.32959 -10.32958 -10.28442 -10.28441
 Alpha  occ. eigenvalues --  -10.27925 -10.25165 -10.25088 -10.21650 -10.21649
 Alpha  occ. eigenvalues --  -10.21052 -10.21051 -10.20840 -10.20840  -4.20718
 Alpha  occ. eigenvalues --   -2.68472  -2.67876  -2.67360  -1.14427  -1.14162
 Alpha  occ. eigenvalues --   -1.14116  -1.04952  -0.94659  -0.84672  -0.80361
 Alpha  occ. eigenvalues --   -0.77205  -0.70976  -0.70622  -0.70568  -0.70036
 Alpha  occ. eigenvalues --   -0.66092  -0.62080  -0.59283  -0.57323  -0.57190
 Alpha  occ. eigenvalues --   -0.56533  -0.56180  -0.52233  -0.48750  -0.48412
 Alpha  occ. eigenvalues --   -0.48166  -0.46648  -0.46646  -0.46607  -0.46152
 Alpha  occ. eigenvalues --   -0.45685  -0.45684  -0.45220  -0.45007  -0.44701
 Alpha  occ. eigenvalues --   -0.44261  -0.44176  -0.43365  -0.43056  -0.42065
 Alpha  occ. eigenvalues --   -0.40504  -0.39883  -0.38855  -0.38737  -0.37501
 Alpha  occ. eigenvalues --   -0.37370  -0.37211  -0.37167  -0.35818  -0.34916
 Alpha  occ. eigenvalues --   -0.34829  -0.34021  -0.32730  -0.29405  -0.29044
 Alpha  occ. eigenvalues --   -0.28321  -0.25560  -0.23487  -0.22715  -0.22347
 Alpha virt. eigenvalues --   -0.02135  -0.01313  -0.01247   0.00000   0.00456
 Alpha virt. eigenvalues --    0.01149   0.02020   0.02258   0.03382   0.04604
 Alpha virt. eigenvalues --    0.04633   0.04850   0.07121   0.07281   0.07994
 Alpha virt. eigenvalues --    0.08567   0.08595   0.10217   0.10642   0.10918
 Alpha virt. eigenvalues --    0.11068   0.12645   0.12664   0.13095   0.13481
 Alpha virt. eigenvalues --    0.14539   0.14817   0.15133   0.15287   0.16709
 Alpha virt. eigenvalues --    0.16800   0.17039   0.17196   0.17645   0.18195
 Alpha virt. eigenvalues --    0.18271   0.18573   0.18658   0.18721   0.19531
 Alpha virt. eigenvalues --    0.19704   0.20910   0.21002   0.21719   0.22840
 Alpha virt. eigenvalues --    0.23048   0.24367   0.24633   0.25051   0.25979
 Alpha virt. eigenvalues --    0.26147   0.27136   0.27545   0.27979   0.28252
 Alpha virt. eigenvalues --    0.28703   0.29042   0.29548   0.29590   0.31215
 Alpha virt. eigenvalues --    0.31596   0.32743   0.33059   0.33305   0.33953
 Alpha virt. eigenvalues --    0.34192   0.35083   0.35409   0.35665   0.36366
 Alpha virt. eigenvalues --    0.36653   0.36711   0.37933   0.38707   0.39929
 Alpha virt. eigenvalues --    0.40226   0.40778   0.41333   0.41467   0.41648
 Alpha virt. eigenvalues --    0.42230   0.42516   0.42729   0.42881   0.42947
 Alpha virt. eigenvalues --    0.43403   0.44216   0.44323   0.44855   0.45169
 Alpha virt. eigenvalues --    0.45261   0.46086   0.46275   0.46887   0.47426
 Alpha virt. eigenvalues --    0.47436   0.47806   0.48344   0.48353   0.48874
 Alpha virt. eigenvalues --    0.49212   0.49268   0.49701   0.49885   0.50445
 Alpha virt. eigenvalues --    0.50788   0.50863   0.51412   0.51695   0.52782
 Alpha virt. eigenvalues --    0.53187   0.54033   0.54870   0.55090   0.55448
 Alpha virt. eigenvalues --    0.56820   0.57178   0.57543   0.58387   0.59090
 Alpha virt. eigenvalues --    0.60878   0.61124   0.62274   0.62675   0.62729
 Alpha virt. eigenvalues --    0.63325   0.64482   0.64821   0.65647   0.66714
 Alpha virt. eigenvalues --    0.67544   0.68545   0.69404   0.70200   0.70886
 Alpha virt. eigenvalues --    0.71025   0.71931   0.72974   0.73100   0.73752
 Alpha virt. eigenvalues --    0.74554   0.74639   0.74981   0.76242   0.77181
 Alpha virt. eigenvalues --    0.79101   0.79271   0.79338   0.79961   0.80758
 Alpha virt. eigenvalues --    0.81363   0.82462   0.82745   0.83778   0.84134
 Alpha virt. eigenvalues --    0.85414   0.85531   0.86787   0.87079   0.87679
 Alpha virt. eigenvalues --    0.88012   0.89111   0.90201   0.91253   0.91392
 Alpha virt. eigenvalues --    0.92086   0.92631   0.92678   0.94045   0.94390
 Alpha virt. eigenvalues --    0.96048   0.96958   0.98071   0.98948   0.99193
 Alpha virt. eigenvalues --    1.00872   1.01198   1.01823   1.02493   1.02636
 Alpha virt. eigenvalues --    1.04032   1.04740   1.04896   1.05568   1.06092
 Alpha virt. eigenvalues --    1.08157   1.08699   1.09672   1.09753   1.10344
 Alpha virt. eigenvalues --    1.11065   1.12190   1.12815   1.13884   1.14159
 Alpha virt. eigenvalues --    1.15032   1.15441   1.15900   1.16495   1.17548
 Alpha virt. eigenvalues --    1.19301   1.20072   1.22720   1.23769   1.24699
 Alpha virt. eigenvalues --    1.25250   1.25944   1.26761   1.27563   1.28422
 Alpha virt. eigenvalues --    1.28517   1.31771   1.32071   1.32504   1.32951
 Alpha virt. eigenvalues --    1.33784   1.35158   1.35908   1.36333   1.37683
 Alpha virt. eigenvalues --    1.40908   1.41296   1.42931   1.43271   1.43480
 Alpha virt. eigenvalues --    1.44244   1.45875   1.46572   1.48251   1.48720
 Alpha virt. eigenvalues --    1.49260   1.50281   1.50686   1.51239   1.53030
 Alpha virt. eigenvalues --    1.53331   1.54095   1.54371   1.54613   1.55354
 Alpha virt. eigenvalues --    1.55609   1.55972   1.57079   1.57629   1.57884
 Alpha virt. eigenvalues --    1.58578   1.59563   1.60139   1.60371   1.60428
 Alpha virt. eigenvalues --    1.60593   1.61618   1.61915   1.62883   1.63305
 Alpha virt. eigenvalues --    1.63570   1.63837   1.64018   1.64684   1.65531
 Alpha virt. eigenvalues --    1.65754   1.67386   1.67390   1.67923   1.69131
 Alpha virt. eigenvalues --    1.69895   1.70217   1.72047   1.73043   1.73243
 Alpha virt. eigenvalues --    1.73499   1.74404   1.75526   1.76918   1.78325
 Alpha virt. eigenvalues --    1.79048   1.79316   1.81668   1.81952   1.83593
 Alpha virt. eigenvalues --    1.84079   1.84271   1.86273   1.88446   1.88518
 Alpha virt. eigenvalues --    1.89539   1.89905   1.91355   1.93416   1.95124
 Alpha virt. eigenvalues --    1.95544   1.95736   1.96378   1.97382   1.98115
 Alpha virt. eigenvalues --    1.98975   2.00652   2.01858   2.02578   2.02789
 Alpha virt. eigenvalues --    2.03743   2.04464   2.06430   2.07453   2.07804
 Alpha virt. eigenvalues --    2.08676   2.10656   2.11549   2.11644   2.11909
 Alpha virt. eigenvalues --    2.12626   2.14893   2.15327   2.17936   2.19186
 Alpha virt. eigenvalues --    2.20198   2.20907   2.22741   2.23026   2.23081
 Alpha virt. eigenvalues --    2.24102   2.25019   2.26347   2.28861   2.29470
 Alpha virt. eigenvalues --    2.30460   2.31700   2.32311   2.33702   2.34173
 Alpha virt. eigenvalues --    2.34800   2.35231   2.35929   2.36553   2.36804
 Alpha virt. eigenvalues --    2.37711   2.38240   2.38519   2.39476   2.39556
 Alpha virt. eigenvalues --    2.39855   2.40871   2.41677   2.42327   2.42899
 Alpha virt. eigenvalues --    2.43883   2.45352   2.46540   2.47188   2.48715
 Alpha virt. eigenvalues --    2.49287   2.50000   2.51173   2.51786   2.52711
 Alpha virt. eigenvalues --    2.53427   2.54815   2.55562   2.55760   2.55775
 Alpha virt. eigenvalues --    2.57214   2.57357   2.59512   2.59628   2.61373
 Alpha virt. eigenvalues --    2.61495   2.62452   2.62506   2.64215   2.65532
 Alpha virt. eigenvalues --    2.65890   2.66465   2.66707   2.67249   2.67698
 Alpha virt. eigenvalues --    2.68913   2.69245   2.70874   2.71366   2.72330
 Alpha virt. eigenvalues --    2.73182   2.73437   2.74192   2.75592   2.75817
 Alpha virt. eigenvalues --    2.77235   2.78454   2.79063   2.79591   2.80523
 Alpha virt. eigenvalues --    2.81009   2.81022   2.82037   2.82219   2.82275
 Alpha virt. eigenvalues --    2.82713   2.83153   2.84769   2.85600   2.86252
 Alpha virt. eigenvalues --    2.87114   2.87680   2.88500   2.89039   2.89681
 Alpha virt. eigenvalues --    2.91323   2.91473   2.93700   2.94088   2.95870
 Alpha virt. eigenvalues --    2.96095   2.96525   2.98428   2.98676   2.99245
 Alpha virt. eigenvalues --    2.99558   3.00078   3.01663   3.02960   3.03569
 Alpha virt. eigenvalues --    3.04383   3.05391   3.06595   3.08285   3.08516
 Alpha virt. eigenvalues --    3.09340   3.09418   3.09765   3.11786   3.11887
 Alpha virt. eigenvalues --    3.12417   3.12871   3.13565   3.15174   3.15245
 Alpha virt. eigenvalues --    3.15391   3.16676   3.17099   3.18435   3.18669
 Alpha virt. eigenvalues --    3.18917   3.20044   3.20073   3.20869   3.21543
 Alpha virt. eigenvalues --    3.21635   3.21998   3.22508   3.23402   3.25026
 Alpha virt. eigenvalues --    3.25334   3.25605   3.25996   3.26462   3.28224
 Alpha virt. eigenvalues --    3.28247   3.29061   3.29765   3.30211   3.30796
 Alpha virt. eigenvalues --    3.32084   3.32800   3.33236   3.33898   3.33930
 Alpha virt. eigenvalues --    3.34960   3.35550   3.36400   3.37368   3.37667
 Alpha virt. eigenvalues --    3.37957   3.38295   3.39354   3.40761   3.41071
 Alpha virt. eigenvalues --    3.41557   3.41723   3.41985   3.42080   3.43597
 Alpha virt. eigenvalues --    3.44164   3.44179   3.44480   3.45924   3.48052
 Alpha virt. eigenvalues --    3.48888   3.49818   3.50781   3.51542   3.53661
 Alpha virt. eigenvalues --    3.55442   3.55918   3.57093   3.58892   3.60159
 Alpha virt. eigenvalues --    3.61387   3.62232   3.62824   3.63238   3.65449
 Alpha virt. eigenvalues --    3.66261   3.66566   3.67321   3.67817   3.68345
 Alpha virt. eigenvalues --    3.69702   3.70448   3.70645   3.70840   3.73558
 Alpha virt. eigenvalues --    3.73604   3.77944   3.80553   3.81611   3.81795
 Alpha virt. eigenvalues --    3.82802   3.83869   3.85591   3.87250   3.89543
 Alpha virt. eigenvalues --    3.90081   3.91895   3.96718   3.99971   4.01183
 Alpha virt. eigenvalues --    4.01222   4.04228   4.04855   4.06838   4.08221
 Alpha virt. eigenvalues --    4.09098   4.10176   4.11973   4.12761   4.13450
 Alpha virt. eigenvalues --    4.13700   4.14364   4.14497   4.15754   4.15988
 Alpha virt. eigenvalues --    4.16007   4.17312   4.24255   4.25980   4.26151
 Alpha virt. eigenvalues --    4.28148   4.30507   4.30539   4.30583   4.33200
 Alpha virt. eigenvalues --    4.35662   4.36845   4.37011   4.37910   4.41623
 Alpha virt. eigenvalues --    4.43368   4.44545   4.45072   4.46647   4.47546
 Alpha virt. eigenvalues --    4.48488   4.48685   4.48940   4.51342   4.52831
 Alpha virt. eigenvalues --    4.54794   4.55007   4.56206   4.62798   4.66340
 Alpha virt. eigenvalues --    4.70300   4.70858   4.70925   4.73486   4.80708
 Alpha virt. eigenvalues --    4.85613   4.89153   4.90345   4.93584   4.95040
 Alpha virt. eigenvalues --    4.98021   4.98355   5.00867   5.01772   5.05325
 Alpha virt. eigenvalues --    5.08054   5.08197   5.11852   5.11882   5.12168
 Alpha virt. eigenvalues --    5.12200   5.12227   5.12229   5.14343   5.20052
 Alpha virt. eigenvalues --    5.26822   5.28072   5.32601   5.36003   5.36796
 Alpha virt. eigenvalues --    5.37177   5.47780   5.47895   5.47950   5.48911
 Alpha virt. eigenvalues --    5.49530   5.49804   5.50714   5.57017   5.59452
 Alpha virt. eigenvalues --    5.67978   5.77895   5.86884   5.90866   5.98907
 Alpha virt. eigenvalues --    6.00398   6.03667   6.03928   6.06282   6.07665
 Alpha virt. eigenvalues --    6.14908   6.16829   6.19168   6.22928   6.28574
 Alpha virt. eigenvalues --    6.28935   6.29107   6.29346   6.29971   6.30437
 Alpha virt. eigenvalues --    6.30490   6.33505   6.34537   6.36706   6.37765
 Alpha virt. eigenvalues --    6.39690   6.40826   6.56925   6.63184   6.69119
 Alpha virt. eigenvalues --    6.76428   6.77072   6.77964   6.78898   6.80895
 Alpha virt. eigenvalues --    6.82367   7.07802   7.09142   7.09474  22.44490
 Alpha virt. eigenvalues --   22.45717  22.45726  22.46610  22.49258  22.52562
 Alpha virt. eigenvalues --   22.53288  22.77985  22.79183  22.85758  22.88887
 Alpha virt. eigenvalues --   22.90995  22.94938  22.98323  33.18723  33.28505
 Alpha virt. eigenvalues --   43.89018  43.93231  43.96740  57.58074  57.75174
 Alpha virt. eigenvalues --   57.80406  70.89897
          Condensed to atoms (all electrons):
               1          2          3          4          5          6
     1  C    5.093509   0.317540  -0.047997  -0.058671  -0.037232   0.001875
     2  C    0.317540   5.063204   0.317970   0.291828   0.311728  -0.054855
     3  C   -0.047997   0.317970   5.080973  -0.052038  -0.039984   0.001514
     4  C   -0.058671   0.291828  -0.052038   5.103760  -0.057942  -0.011583
     5  N   -0.037232   0.311728  -0.039984  -0.057942   6.256576   0.328263
     6  C    0.001875  -0.054855   0.001514  -0.011583   0.328263   5.104095
     7  C   -0.000343   0.009375  -0.000362   0.001997  -0.084700   0.563638
     8  N   -0.000317   0.005598   0.000014  -0.000848  -0.009442  -0.084634
     9  C   -0.000000  -0.000632   0.000104  -0.000030   0.005616   0.009376
    10  C    0.000080  -0.000001  -0.000046   0.000000  -0.000314  -0.000345
    11  C   -0.000047   0.000105   0.000032   0.000001   0.000012  -0.000359
    12  C    0.000000  -0.000030   0.000001   0.000025  -0.000846   0.001987
    13  C   -0.012689  -0.080939  -0.000405   0.010221   0.288186  -0.059773
    14  Ni  -0.012248   0.018095  -0.009087   0.000989  -0.057592   0.005856
    15  C   -0.019211   0.015627  -0.019581   0.000290  -0.004240   0.000154
    16  O    0.002769  -0.002135   0.002293  -0.000024   0.000107   0.000006
    17  C    0.000294  -0.000574   0.000506   0.000006  -0.000875   0.000030
    18  O   -0.000011   0.000011  -0.000004  -0.000000   0.000002  -0.000005
    19  C   -0.007859  -0.001062   0.000580  -0.000053  -0.001285   0.000470
    20  O    0.001374  -0.000172   0.000017   0.000001   0.000219  -0.000037
    21  H    0.393583  -0.030864   0.009925  -0.007123  -0.001890   0.001004
    22  H    0.409839  -0.043323  -0.004695   0.009045   0.001299  -0.000205
    23  H    0.391603  -0.025488  -0.005440  -0.008021   0.005984  -0.000241
    24  H    0.009994  -0.027096   0.388494  -0.007074  -0.001910   0.000709
    25  H   -0.005379  -0.028453   0.395730  -0.005596   0.006453  -0.000136
    26  H   -0.005061  -0.039234   0.410572   0.008796  -0.002968  -0.000061
    27  H   -0.007115  -0.038521   0.010998   0.411450  -0.001134  -0.001970
    28  H   -0.008805  -0.021141  -0.006034   0.394347   0.005317   0.001431
    29  H    0.010888  -0.032586  -0.010300   0.410111  -0.003668  -0.003095
    30  H    0.000417  -0.007074  -0.000116  -0.001698  -0.016219   0.408447
    31  H    0.000019   0.000212   0.000000  -0.000077   0.006313  -0.028497
    32  H   -0.000010   0.000009  -0.000000   0.000002  -0.000122  -0.000383
    33  H    0.000000   0.000002  -0.000000   0.000000  -0.000004  -0.000020
    34  H    0.000045  -0.000069  -0.000001   0.000001  -0.000372   0.000145
    35  H   -0.000000  -0.000002   0.000001   0.000000  -0.000016  -0.000034
    36  H    0.000001  -0.000024   0.000010  -0.000001  -0.000083  -0.000346
    37  H    0.000003  -0.000061   0.000020   0.000002  -0.000220   0.000343
    38  H   -0.000000   0.000000   0.000000  -0.000000  -0.000042   0.000070
    39  H   -0.000000   0.000002  -0.000000  -0.000000  -0.000106   0.000836
    40  H    0.000000  -0.000001   0.000000   0.000000   0.000020  -0.000101
               7          8          9         10         11         12
     1  C   -0.000343  -0.000317  -0.000000   0.000080  -0.000047   0.000000
     2  C    0.009375   0.005598  -0.000632  -0.000001   0.000105  -0.000030
     3  C   -0.000362   0.000014   0.000104  -0.000046   0.000032   0.000001
     4  C    0.001997  -0.000848  -0.000030   0.000000   0.000001   0.000025
     5  N   -0.084700  -0.009442   0.005616  -0.000314   0.000012  -0.000846
     6  C    0.563638  -0.084634   0.009376  -0.000345  -0.000359   0.001987
     7  C    5.104177   0.328197  -0.054901   0.001870   0.001529  -0.011578
     8  N    0.328197   6.256329   0.311802  -0.037230  -0.040001  -0.057935
     9  C   -0.054901   0.311802   5.063299   0.317566   0.317909   0.291780
    10  C    0.001870  -0.037230   0.317566   5.093376  -0.047992  -0.058642
    11  C    0.001529  -0.040001   0.317909  -0.047992   5.081102  -0.052021
    12  C   -0.011578  -0.057935   0.291780  -0.058642  -0.052021   5.103726
    13  C   -0.059640   0.288477  -0.081020  -0.012633  -0.000403   0.010220
    14  Ni   0.005868  -0.057534   0.018028  -0.012215  -0.009114   0.000996
    15  C    0.000030  -0.000869  -0.000575   0.000294   0.000510   0.000006
    16  O   -0.000005   0.000002   0.000011  -0.000011  -0.000004  -0.000000
    17  C    0.000155  -0.004234   0.015623  -0.019202  -0.019643   0.000292
    18  O    0.000006   0.000106  -0.002141   0.002767   0.002317  -0.000024
    19  C    0.000466  -0.001284  -0.001068  -0.007842   0.000584  -0.000053
    20  O   -0.000037   0.000219  -0.000171   0.001366   0.000017   0.000001
    21  H   -0.000384  -0.000122   0.000009  -0.000010  -0.000000   0.000002
    22  H    0.000143  -0.000373  -0.000069   0.000044  -0.000001   0.000001
    23  H   -0.000020  -0.000004   0.000002   0.000000  -0.000000   0.000000
    24  H   -0.000346  -0.000083  -0.000023   0.000001   0.000010  -0.000001
    25  H   -0.000034  -0.000016  -0.000002  -0.000000   0.000001   0.000000
    26  H    0.000344  -0.000223  -0.000060   0.000003   0.000020   0.000002
    27  H    0.000065  -0.000041   0.000000  -0.000000   0.000000  -0.000000
    28  H   -0.000101   0.000020  -0.000001   0.000000   0.000000   0.000000
    29  H    0.000842  -0.000106   0.000002  -0.000000  -0.000000  -0.000000
    30  H   -0.028511   0.006313   0.000213   0.000019   0.000000  -0.000077
    31  H    0.408434  -0.016219  -0.007074   0.000415  -0.000114  -0.001692
    32  H    0.001001  -0.001901  -0.030842   0.393535   0.009920  -0.007126
    33  H   -0.000241   0.005987  -0.025517   0.391653  -0.005440  -0.007995
    34  H   -0.000204   0.001298  -0.043366   0.409890  -0.004672   0.009038
    35  H   -0.000137   0.006452  -0.028439  -0.005375   0.395705  -0.005599
    36  H    0.000706  -0.001913  -0.027096   0.009990   0.388471  -0.007072
    37  H   -0.000062  -0.002952  -0.039259  -0.005061   0.410597   0.008786
    38  H   -0.001978  -0.001149  -0.038488  -0.007136   0.010996   0.411453
    39  H   -0.003086  -0.003657  -0.032636   0.010889  -0.010291   0.410147
    40  H    0.001432   0.005317  -0.021147  -0.008782  -0.006040   0.394337
              13         14         15         16         17         18
     1  C   -0.012689  -0.012248  -0.019211   0.002769   0.000294  -0.000011
     2  C   -0.080939   0.018095   0.015627  -0.002135  -0.000574   0.000011
     3  C   -0.000405  -0.009087  -0.019581   0.002293   0.000506  -0.000004
     4  C    0.010221   0.000989   0.000290  -0.000024   0.000006  -0.000000
     5  N    0.288186  -0.057592  -0.004240   0.000107  -0.000875   0.000002
     6  C   -0.059773   0.005856   0.000154   0.000006   0.000030  -0.000005
     7  C   -0.059640   0.005868   0.000030  -0.000005   0.000155   0.000006
     8  N    0.288477  -0.057534  -0.000869   0.000002  -0.004234   0.000106
     9  C   -0.081020   0.018028  -0.000575   0.000011   0.015623  -0.002141
    10  C   -0.012633  -0.012215   0.000294  -0.000011  -0.019202   0.002767
    11  C   -0.000403  -0.009114   0.000510  -0.000004  -0.019643   0.002317
    12  C    0.010220   0.000996   0.000006  -0.000000   0.000292  -0.000024
    13  C    5.400330   0.317804  -0.005689   0.000003  -0.005641   0.000002
    14  Ni   0.317804  17.316196   0.369950  -0.047030   0.369902  -0.047021
    15  C   -0.005689   0.369950   5.135742   0.498483  -0.031786  -0.001514
    16  O    0.000003  -0.047030   0.498483   7.667674  -0.001507   0.000395
    17  C   -0.005641   0.369902  -0.031786  -0.001507   5.135646   0.498521
    18  O    0.000002  -0.047021  -0.001514   0.000395   0.498521   7.667668
    19  C   -0.033900   0.320613  -0.010529  -0.002508  -0.010706  -0.002514
    20  O    0.000366  -0.037213  -0.001312   0.000148  -0.001315   0.000149
    21  H    0.000146   0.000562   0.000391  -0.000004  -0.000012  -0.000000
    22  H   -0.001905   0.016161   0.004177  -0.000528  -0.000494   0.000006
    23  H    0.001713  -0.000404   0.000985  -0.000234   0.000009   0.000000
    24  H   -0.000730   0.000040   0.000029   0.000126  -0.000015   0.000000
    25  H    0.000889  -0.000067   0.000753  -0.000122  -0.000017  -0.000000
    26  H   -0.000242   0.000731   0.008749  -0.002656   0.000066  -0.000011
    27  H   -0.000716   0.000176  -0.000003   0.000000  -0.000001   0.000000
    28  H    0.000106  -0.000046   0.000011  -0.000004   0.000000   0.000000
    29  H   -0.000486  -0.000010  -0.000000  -0.000000   0.000000   0.000000
    30  H   -0.002709  -0.000095  -0.000027   0.000000  -0.000003  -0.000000
    31  H   -0.002703  -0.000095  -0.000003  -0.000000  -0.000027   0.000000
    32  H    0.000153   0.000565  -0.000012  -0.000000   0.000390  -0.000004
    33  H    0.001709  -0.000409   0.000009   0.000000   0.000991  -0.000235
    34  H   -0.001907   0.016127  -0.000493   0.000006   0.004160  -0.000528
    35  H    0.000889  -0.000070  -0.000017  -0.000000   0.000758  -0.000122
    36  H   -0.000728   0.000038  -0.000016   0.000000   0.000030   0.000125
    37  H   -0.000235   0.000755   0.000066  -0.000011   0.008784  -0.002672
    38  H   -0.000717   0.000175  -0.000001   0.000000  -0.000003   0.000000
    39  H   -0.000484  -0.000010   0.000000   0.000000  -0.000000  -0.000000
    40  H    0.000106  -0.000047   0.000000   0.000000   0.000011  -0.000004
              19         20         21         22         23         24
     1  C   -0.007859   0.001374   0.393583   0.409839   0.391603   0.009994
     2  C   -0.001062  -0.000172  -0.030864  -0.043323  -0.025488  -0.027096
     3  C    0.000580   0.000017   0.009925  -0.004695  -0.005440   0.388494
     4  C   -0.000053   0.000001  -0.007123   0.009045  -0.008021  -0.007074
     5  N   -0.001285   0.000219  -0.001890   0.001299   0.005984  -0.001910
     6  C    0.000470  -0.000037   0.001004  -0.000205  -0.000241   0.000709
     7  C    0.000466  -0.000037  -0.000384   0.000143  -0.000020  -0.000346
     8  N   -0.001284   0.000219  -0.000122  -0.000373  -0.000004  -0.000083
     9  C   -0.001068  -0.000171   0.000009  -0.000069   0.000002  -0.000023
    10  C   -0.007842   0.001366  -0.000010   0.000044   0.000000   0.000001
    11  C    0.000584   0.000017  -0.000000  -0.000001  -0.000000   0.000010
    12  C   -0.000053   0.000001   0.000002   0.000001   0.000000  -0.000001
    13  C   -0.033900   0.000366   0.000146  -0.001905   0.001713  -0.000730
    14  Ni   0.320613  -0.037213   0.000562   0.016161  -0.000404   0.000040
    15  C   -0.010529  -0.001312   0.000391   0.004177   0.000985   0.000029
    16  O   -0.002508   0.000148  -0.000004  -0.000528  -0.000234   0.000126
    17  C   -0.010706  -0.001315  -0.000012  -0.000494   0.000009  -0.000015
    18  O   -0.002514   0.000149  -0.000000   0.000006   0.000000   0.000000
    19  C    5.171338   0.486713   0.000056   0.000986   0.000313   0.000002
    20  O    0.486713   7.666210  -0.000036  -0.000622  -0.000020  -0.000000
    21  H    0.000056  -0.000036   0.531867  -0.018843  -0.019387  -0.000371
    22  H    0.000986  -0.000622  -0.018843   0.488047  -0.015737  -0.000198
    23  H    0.000313  -0.000020  -0.019387  -0.015737   0.528649  -0.000063
    24  H    0.000002  -0.000000  -0.000371  -0.000198  -0.000063   0.530967
    25  H   -0.000014  -0.000000  -0.000073   0.000421   0.000709  -0.019268
    26  H    0.000015  -0.000008  -0.000241   0.000175   0.000227  -0.016246
    27  H   -0.000003  -0.000001   0.003310   0.000006  -0.000028   0.000038
    28  H   -0.000002   0.000000  -0.000170   0.000347   0.002802  -0.000131
    29  H    0.000001  -0.000000  -0.000002  -0.000339   0.000089   0.003557
    30  H   -0.000005   0.000001   0.000036  -0.000030  -0.000064   0.000052
    31  H   -0.000005   0.000001  -0.000000  -0.000001  -0.000001   0.000010
    32  H    0.000052  -0.000037  -0.000001   0.000001  -0.000000  -0.000000
    33  H    0.000311  -0.000019  -0.000000   0.000000  -0.000000  -0.000000
    34  H    0.000991  -0.000614   0.000001   0.000066   0.000000  -0.000000
    35  H   -0.000014  -0.000000   0.000000   0.000000   0.000000  -0.000000
    36  H    0.000002  -0.000000  -0.000000  -0.000000  -0.000000  -0.000000
    37  H    0.000012  -0.000008  -0.000000  -0.000000   0.000000  -0.000006
    38  H   -0.000003  -0.000001  -0.000000   0.000000  -0.000000   0.000000
    39  H    0.000001  -0.000000   0.000000  -0.000000   0.000000  -0.000000
    40  H   -0.000001   0.000000  -0.000000   0.000000  -0.000000  -0.000000
              25         26         27         28         29         30
     1  C   -0.005379  -0.005061  -0.007115  -0.008805   0.010888   0.000417
     2  C   -0.028453  -0.039234  -0.038521  -0.021141  -0.032586  -0.007074
     3  C    0.395730   0.410572   0.010998  -0.006034  -0.010300  -0.000116
     4  C   -0.005596   0.008796   0.411450   0.394347   0.410111  -0.001698
     5  N    0.006453  -0.002968  -0.001134   0.005317  -0.003668  -0.016219
     6  C   -0.000136  -0.000061  -0.001970   0.001431  -0.003095   0.408447
     7  C   -0.000034   0.000344   0.000065  -0.000101   0.000842  -0.028511
     8  N   -0.000016  -0.000223  -0.000041   0.000020  -0.000106   0.006313
     9  C   -0.000002  -0.000060   0.000000  -0.000001   0.000002   0.000213
    10  C   -0.000000   0.000003  -0.000000   0.000000  -0.000000   0.000019
    11  C    0.000001   0.000020   0.000000   0.000000  -0.000000   0.000000
    12  C    0.000000   0.000002  -0.000000   0.000000  -0.000000  -0.000077
    13  C    0.000889  -0.000242  -0.000716   0.000106  -0.000486  -0.002709
    14  Ni  -0.000067   0.000731   0.000176  -0.000046  -0.000010  -0.000095
    15  C    0.000753   0.008749  -0.000003   0.000011  -0.000000  -0.000027
    16  O   -0.000122  -0.002656   0.000000  -0.000004  -0.000000   0.000000
    17  C   -0.000017   0.000066  -0.000001   0.000000   0.000000  -0.000003
    18  O   -0.000000  -0.000011   0.000000   0.000000   0.000000  -0.000000
    19  C   -0.000014   0.000015  -0.000003  -0.000002   0.000001  -0.000005
    20  O   -0.000000  -0.000008  -0.000001   0.000000  -0.000000   0.000001
    21  H   -0.000073  -0.000241   0.003310  -0.000170  -0.000002   0.000036
    22  H    0.000421   0.000175   0.000006   0.000347  -0.000339  -0.000030
    23  H    0.000709   0.000227  -0.000028   0.002802   0.000089  -0.000064
    24  H   -0.019268  -0.016246   0.000038  -0.000131   0.003557   0.000052
    25  H    0.527197  -0.017514  -0.000061   0.001809  -0.000003  -0.000055
    26  H   -0.017514   0.495563  -0.000340   0.000058   0.000200  -0.000050
    27  H   -0.000061  -0.000340   0.508742  -0.015633  -0.025002  -0.001872
    28  H    0.001809   0.000058  -0.015633   0.504626  -0.016965   0.000664
    29  H   -0.000003   0.000200  -0.025002  -0.016965   0.513463  -0.002110
    30  H   -0.000055  -0.000050  -0.001872   0.000664  -0.002110   0.446617
    31  H   -0.000001   0.000001  -0.000008  -0.000000  -0.000003   0.000959
    32  H    0.000000  -0.000000  -0.000000  -0.000000   0.000000  -0.000000
    33  H    0.000000   0.000000  -0.000000  -0.000000   0.000000  -0.000001
    34  H    0.000000  -0.000000   0.000000   0.000000  -0.000000  -0.000001
    35  H   -0.000000   0.000000   0.000000  -0.000000  -0.000000  -0.000001
    36  H   -0.000000  -0.000006   0.000000  -0.000000  -0.000000   0.000010
    37  H    0.000000   0.000037  -0.000000   0.000000  -0.000000   0.000001
    38  H    0.000000  -0.000000  -0.000000   0.000000  -0.000000  -0.000008
    39  H   -0.000000  -0.000000  -0.000000   0.000000   0.000000  -0.000003
    40  H   -0.000000   0.000000   0.000000  -0.000000   0.000000  -0.000000
              31         32         33         34         35         36
     1  C    0.000019  -0.000010   0.000000   0.000045  -0.000000   0.000001
     2  C    0.000212   0.000009   0.000002  -0.000069  -0.000002  -0.000024
     3  C    0.000000  -0.000000  -0.000000  -0.000001   0.000001   0.000010
     4  C   -0.000077   0.000002   0.000000   0.000001   0.000000  -0.000001
     5  N    0.006313  -0.000122  -0.000004  -0.000372  -0.000016  -0.000083
     6  C   -0.028497  -0.000383  -0.000020   0.000145  -0.000034  -0.000346
     7  C    0.408434   0.001001  -0.000241  -0.000204  -0.000137   0.000706
     8  N   -0.016219  -0.001901   0.005987   0.001298   0.006452  -0.001913
     9  C   -0.007074  -0.030842  -0.025517  -0.043366  -0.028439  -0.027096
    10  C    0.000415   0.393535   0.391653   0.409890  -0.005375   0.009990
    11  C   -0.000114   0.009920  -0.005440  -0.004672   0.395705   0.388471
    12  C   -0.001692  -0.007126  -0.007995   0.009038  -0.005599  -0.007072
    13  C   -0.002703   0.000153   0.001709  -0.001907   0.000889  -0.000728
    14  Ni  -0.000095   0.000565  -0.000409   0.016127  -0.000070   0.000038
    15  C   -0.000003  -0.000012   0.000009  -0.000493  -0.000017  -0.000016
    16  O   -0.000000  -0.000000   0.000000   0.000006  -0.000000   0.000000
    17  C   -0.000027   0.000390   0.000991   0.004160   0.000758   0.000030
    18  O    0.000000  -0.000004  -0.000235  -0.000528  -0.000122   0.000125
    19  C   -0.000005   0.000052   0.000311   0.000991  -0.000014   0.000002
    20  O    0.000001  -0.000037  -0.000019  -0.000614  -0.000000  -0.000000
    21  H   -0.000000  -0.000001  -0.000000   0.000001   0.000000  -0.000000
    22  H   -0.000001   0.000001   0.000000   0.000066   0.000000  -0.000000
    23  H   -0.000001  -0.000000  -0.000000   0.000000   0.000000  -0.000000
    24  H    0.000010  -0.000000  -0.000000  -0.000000  -0.000000  -0.000000
    25  H   -0.000001   0.000000   0.000000   0.000000  -0.000000  -0.000000
    26  H    0.000001  -0.000000   0.000000  -0.000000   0.000000  -0.000006
    27  H   -0.000008  -0.000000  -0.000000   0.000000   0.000000   0.000000
    28  H   -0.000000  -0.000000  -0.000000   0.000000  -0.000000  -0.000000
    29  H   -0.000003   0.000000   0.000000  -0.000000  -0.000000  -0.000000
    30  H    0.000959  -0.000000  -0.000001  -0.000001  -0.000001   0.000010
    31  H    0.446597   0.000036  -0.000064  -0.000029  -0.000055   0.000052
    32  H    0.000036   0.531875  -0.019388  -0.018818  -0.000073  -0.000371
    33  H   -0.000064  -0.019388   0.528645  -0.015753   0.000708  -0.000063
    34  H   -0.000029  -0.018818  -0.015753   0.488046   0.000420  -0.000198
    35  H   -0.000055  -0.000073   0.000708   0.000420   0.527208  -0.019264
    36  H    0.000052  -0.000371  -0.000063  -0.000198  -0.019264   0.531010
    37  H   -0.000049  -0.000241   0.000226   0.000176  -0.017499  -0.016240
    38  H   -0.001871   0.003314  -0.000028   0.000007  -0.000061   0.000038
    39  H   -0.002113  -0.000001   0.000088  -0.000339  -0.000003   0.003557
    40  H    0.000664  -0.000170   0.002795   0.000345   0.001812  -0.000133
              37         38         39         40
     1  C    0.000003  -0.000000  -0.000000   0.000000
     2  C   -0.000061   0.000000   0.000002  -0.000001
     3  C    0.000020   0.000000  -0.000000   0.000000
     4  C    0.000002  -0.000000  -0.000000   0.000000
     5  N   -0.000220  -0.000042  -0.000106   0.000020
     6  C    0.000343   0.000070   0.000836  -0.000101
     7  C   -0.000062  -0.001978  -0.003086   0.001432
     8  N   -0.002952  -0.001149  -0.003657   0.005317
     9  C   -0.039259  -0.038488  -0.032636  -0.021147
    10  C   -0.005061  -0.007136   0.010889  -0.008782
    11  C    0.410597   0.010996  -0.010291  -0.006040
    12  C    0.008786   0.411453   0.410147   0.394337
    13  C   -0.000235  -0.000717  -0.000484   0.000106
    14  Ni   0.000755   0.000175  -0.000010  -0.000047
    15  C    0.000066  -0.000001   0.000000   0.000000
    16  O   -0.000011   0.000000   0.000000   0.000000
    17  C    0.008784  -0.000003  -0.000000   0.000011
    18  O   -0.002672   0.000000  -0.000000  -0.000004
    19  C    0.000012  -0.000003   0.000001  -0.000001
    20  O   -0.000008  -0.000001  -0.000000   0.000000
    21  H   -0.000000  -0.000000   0.000000  -0.000000
    22  H   -0.000000   0.000000  -0.000000   0.000000
    23  H    0.000000  -0.000000   0.000000  -0.000000
    24  H   -0.000006   0.000000  -0.000000  -0.000000
    25  H    0.000000   0.000000  -0.000000  -0.000000
    26  H    0.000037  -0.000000  -0.000000   0.000000
    27  H   -0.000000  -0.000000  -0.000000   0.000000
    28  H    0.000000   0.000000   0.000000  -0.000000
    29  H   -0.000000  -0.000000   0.000000   0.000000
    30  H    0.000001  -0.000008  -0.000003  -0.000000
    31  H   -0.000049  -0.001871  -0.002113   0.000664
    32  H   -0.000241   0.003314  -0.000001  -0.000170
    33  H    0.000226  -0.000028   0.000088   0.002795
    34  H    0.000176   0.000007  -0.000339   0.000345
    35  H   -0.017499  -0.000061  -0.000003   0.001812
    36  H   -0.016240   0.000038   0.003557  -0.000133
    37  H    0.495390  -0.000340   0.000200   0.000059
    38  H   -0.000340   0.508766  -0.025007  -0.015641
    39  H    0.000200  -0.025007   0.513437  -0.016954
    40  H    0.000059  -0.015641  -0.016954   0.504632
 Mulliken charges:
               1
     1  C   -0.410838
     2  C    0.083034
     3  C   -0.423662
     4  C   -0.432092
     5  N    0.107113
     6  C   -0.183568
     7  C   -0.183605
     8  N    0.106957
     9  C    0.083219
    10  C   -0.410922
    11  C   -0.423697
    12  C   -0.432110
    13  C    0.044978
    14  Ni  -0.489320
    15  C    0.059623
    16  O   -0.115239
    17  C    0.059880
    18  O   -0.115268
    19  C    0.097206
    20  O   -0.115179
    21  H    0.138642
    22  H    0.156598
    23  H    0.142067
    24  H    0.139533
    25  H    0.142852
    26  H    0.159363
    27  H    0.157666
    28  H    0.157495
    29  H    0.155521
    30  H    0.196979
    31  H    0.196989
    32  H    0.138648
    33  H    0.142052
    34  H    0.156603
    35  H    0.142830
    36  H    0.139513
    37  H    0.159459
    38  H    0.157656
    39  H    0.155534
    40  H    0.157491
 Sum of Mulliken charges =  -0.00000
 Mulliken charges with hydrogens summed into heavy atoms:
               1
     1  C    0.026469
     2  C    0.083034
     3  C    0.018085
     4  C    0.038590
     5  N    0.107113
     6  C    0.013412
     7  C    0.013384
     8  N    0.106957
     9  C    0.083219
    10  C    0.026381
    11  C    0.018105
    12  C    0.038571
    13  C    0.044978
    14  Ni  -0.489320
    15  C    0.059623
    16  O   -0.115239
    17  C    0.059880
    18  O   -0.115268
    19  C    0.097206
    20  O   -0.115179
 Electronic spatial extent (au):  <R**2>=           5709.3724
 Charge=             -0.0000 electrons
 Dipole moment (field-independent basis, Debye):
    X=              0.0074    Y=             -8.2810    Z=             -0.2062  Tot=              8.2835
 Quadrupole moment (field-independent basis, Debye-Ang):
   XX=           -112.7686   YY=           -127.6320   ZZ=           -135.5846
   XY=              0.0153   XZ=              0.0073   YZ=              0.9837
 Traceless Quadrupole moment (field-independent basis, Debye-Ang):
   XX=             12.5598   YY=             -2.3036   ZZ=            -10.2562
   XY=              0.0153   XZ=              0.0073   YZ=              0.9837
 Octapole moment (field-independent basis, Debye-Ang**2):
  XXX=              0.1130  YYY=            -27.7345  ZZZ=            -14.3088  XYY=              0.0015
  XXY=            -31.3470  XXZ=              7.9737  XZZ=             -0.0397  YZZ=              2.1755
  YYZ=             10.0861  XYZ=              0.0126
 Hexadecapole moment (field-independent basis, Debye-Ang**3):
 XXXX=          -3441.2337 YYYY=          -2834.9455 ZZZZ=          -1087.9447 XXXY=              0.1984
 XXXZ=             -0.0326 YYYX=             -0.0411 YYYZ=             29.6325 ZZZX=              0.0287
 ZZZY=            -38.8353 XXYY=          -1109.8352 XXZZ=           -793.8894 YYZZ=           -696.9259
 XXYZ=             31.3195 YYXZ=              0.0745 ZZXY=             -0.1100
 N-N= 1.880713629521D+03 E-N=-6.225931074009D+03  KE= 9.828310255426D+02
 Calculating spin-rotation constants.
 Leave Link  601 at Wed Jul  9 17:14:06 2025, MaxMem=  6291456000 cpu:              40.5 elap:              34.2
 (Enter /share/apps/chem/gaussian-16-bin.c.02/g16/l602.exe)

 **********************************************************************

            Electrostatic Properties Using The SCF Density.

 **********************************************************************

       Atomic Center    1 is at   2.938455 -0.200986  1.018402
       Atomic Center    2 is at   2.553632 -1.171528 -0.110370
       Atomic Center    3 is at   2.805135 -0.596834 -1.516466
       Atomic Center    4 is at   3.424309 -2.433009  0.049952
       Atomic Center    5 is at   1.090688 -1.533935 -0.000865
       Atomic Center    6 is at   0.682932 -2.857800  0.086865
       Atomic Center    7 is at  -0.678374 -2.858909  0.086570
       Atomic Center    8 is at  -1.088181 -1.535682 -0.001264
       Atomic Center    9 is at  -2.551622 -1.175443 -0.110974
       Atomic Center   10 is at  -2.938213 -0.206694  1.018758
       Atomic Center   11 is at  -2.803506 -0.599785 -1.516617
       Atomic Center   12 is at  -3.420347 -2.438448  0.047750
       Atomic Center   13 is at   0.000558 -0.675231 -0.055112
       Atomic Center   14 is at  -0.001130  1.383508  0.043399
       Atomic Center   15 is at   1.381483  2.254500 -0.720991
       Atomic Center   16 is at   2.178624  2.982580 -1.154834
       Atomic Center   17 is at  -1.386574  2.253304 -0.717315
       Atomic Center   18 is at  -2.185601  2.980998 -1.148314
       Atomic Center   19 is at  -0.000181  1.701915  1.810222
       Atomic Center   20 is at   0.000031  1.934462  2.949057
       Atomic Center   21 is at   2.770524 -0.673527  2.007245
       Atomic Center   22 is at   2.343714  0.727087  0.975272
       Atomic Center   23 is at   4.011563  0.061479  0.935480
       Atomic Center   24 is at   2.622122 -1.373876 -2.286189
       Atomic Center   25 is at   3.855386 -0.255981 -1.609035
       Atomic Center   26 is at   2.139756  0.258295 -1.726764
       Atomic Center   27 is at   3.286124 -2.918566  1.036653
       Atomic Center   28 is at   4.484862 -2.123522 -0.019194
       Atomic Center   29 is at   3.250283 -3.178626 -0.750998
       Atomic Center   30 is at   1.369482 -3.702207  0.145155
       Atomic Center   31 is at  -1.363609 -3.704416  0.144468
       Atomic Center   32 is at  -2.770545 -0.680400  2.007093
       Atomic Center   33 is at  -4.011488  0.054945  0.935439
       Atomic Center   34 is at  -2.344222  0.721941  0.977246
       Atomic Center   35 is at  -3.854205 -0.260353 -1.609258
       Atomic Center   36 is at  -2.619095 -1.375895 -2.286955
       Atomic Center   37 is at  -2.139202  0.256441 -1.725888
       Atomic Center   38 is at  -3.282159 -2.924492  1.034215
       Atomic Center   39 is at  -3.244394 -3.183209 -0.753580
       Atomic Center   40 is at  -4.481357 -2.130670 -0.021997
 -----------------------------------------------------------------

              Electrostatic Properties (Atomic Units)

 -----------------------------------------------------------------
    Center     Electric         -------- Electric Field --------
               Potential          X             Y             Z
 -----------------------------------------------------------------
    1 Atom    -14.768833     -0.004842      0.004079     -0.001102
    2 Atom    -14.683890      0.009117      0.006592     -0.001036
    3 Atom    -14.765975     -0.004565      0.004196      0.000789
    4 Atom    -14.745094     -0.001591      0.003578     -0.000143
    5 Atom    -18.308212     -0.004525      0.005888      0.000374
    6 Atom    -14.722259     -0.013013      0.002784     -0.000116
    7 Atom    -14.722255      0.013011      0.002808     -0.000109
    8 Atom    -18.308214      0.004515      0.005895      0.000371
    9 Atom    -14.683898     -0.009127      0.006577     -0.001036
   10 Atom    -14.768825      0.004835      0.004087     -0.001098
   11 Atom    -14.765993      0.004562      0.004202      0.000793
   12 Atom    -14.745099      0.001585      0.003580     -0.000141
   13 Atom    -14.714191     -0.000017      0.020300     -0.002553
   14 Atom    -23.831919      0.000016     -0.003694     -0.002110
   15 Atom    -14.699300     -0.005195     -0.002055      0.002368
   16 Atom    -22.310809      0.016735      0.017845     -0.009471
   17 Atom    -14.699298      0.005200     -0.002050      0.002357
   18 Atom    -22.310812     -0.016780      0.017839     -0.009408
   19 Atom    -14.695250     -0.000002     -0.000149     -0.005190
   20 Atom    -22.306403      0.000003      0.006615      0.025429
   21 Atom     -1.109173     -0.002111      0.003299      0.001083
   22 Atom     -1.123070     -0.001958      0.003627      0.000485
   23 Atom     -1.104648     -0.001890      0.003533      0.001099
   24 Atom     -1.105730     -0.002167      0.003495     -0.001085
   25 Atom     -1.103918     -0.001933      0.003363     -0.001450
   26 Atom     -1.121778     -0.003643      0.003746     -0.000681
   27 Atom     -1.087219      0.000928      0.002236      0.001186
   28 Atom     -1.087924      0.000442      0.000991      0.000065
   29 Atom     -1.085974      0.001436      0.002289     -0.000972
   30 Atom     -1.045408     -0.004356      0.005192      0.000091
   31 Atom     -1.045400      0.004353      0.005200      0.000098
   32 Atom     -1.109160      0.002103      0.003306      0.001083
   33 Atom     -1.104652      0.001880      0.003535      0.001099
   34 Atom     -1.123063      0.001950      0.003630      0.000492
   35 Atom     -1.103933      0.001926      0.003368     -0.001445
   36 Atom     -1.105749      0.002160      0.003501     -0.001083
   37 Atom     -1.121791      0.003632      0.003743     -0.000679
   38 Atom     -1.087218     -0.000935      0.002234      0.001181
   39 Atom     -1.085978     -0.001446      0.002290     -0.000975
   40 Atom     -1.087928     -0.000448      0.000991      0.000062
 -----------------------------------------------------------------
 -----------------------------------------------------
    Center         ---- Electric Field Gradient ----
                     XX            YY            ZZ
 -----------------------------------------------------
    1 Atom     -510.901482   -510.909890   -510.979464
    2 Atom     -511.164549   -510.673187   -510.652748
    3 Atom     -510.896999   -510.896050   -511.008602
    4 Atom     -510.943762   -510.975606   -510.913853
    5 Atom     -830.505297   -830.536775   -829.824238
    6 Atom     -511.148577   -511.456701   -511.469457
    7 Atom     -511.148963   -511.456300   -511.469446
    8 Atom     -830.505270   -830.536794   -829.824340
    9 Atom     -511.164865   -510.672907   -510.652800
   10 Atom     -510.901593   -510.909658   -510.979556
   11 Atom     -510.897007   -510.895980   -511.008611
   12 Atom     -510.943590   -510.975860   -510.913875
   13 Atom     -512.412415   -511.793202   -512.579325
   14 Atom        0.062952      0.253215     -0.462541
   15 Atom     -515.091439   -515.142705   -515.476469
   16 Atom    -1265.374668  -1265.385897  -1265.505563
   17 Atom     -515.088782   -515.143198   -515.478862
   18 Atom    -1265.373681  -1265.385914  -1265.506441
   19 Atom     -515.615731   -515.567575   -514.462724
   20 Atom    -1265.569428  -1265.541749  -1265.209468
   21 Atom       -1.634948     -1.707635     -1.951779
   22 Atom       -1.746691     -1.925818     -1.636930
   23 Atom       -2.010919     -1.649616     -1.633350
   24 Atom       -1.637190     -1.833299     -1.826251
   25 Atom       -1.993887     -1.662265     -1.634814
   26 Atom       -1.780298     -1.886782     -1.654395
   27 Atom       -1.637845     -1.708983     -1.950195
   28 Atom       -2.002489     -1.666882     -1.626492
   29 Atom       -1.645617     -1.816507     -1.843748
   30 Atom       -1.778105     -1.861468     -1.583623
   31 Atom       -1.777443     -1.862099     -1.583593
   32 Atom       -1.634931     -1.707997     -1.951444
   33 Atom       -2.011039     -1.649452     -1.633380
   34 Atom       -1.746388     -1.926155     -1.636870
   35 Atom       -1.994228     -1.661955     -1.634820
   36 Atom       -1.637361     -1.832806     -1.826551
   37 Atom       -1.779725     -1.887343     -1.654201
   38 Atom       -1.637857     -1.709152     -1.950053
   39 Atom       -1.645832     -1.816062     -1.843925
   40 Atom       -2.002819     -1.666521     -1.626515
 -----------------------------------------------------
 -----------------------------------------------------
    Center         ---- Electric Field Gradient ----
                     XY            XZ            YZ
 -----------------------------------------------------
    1 Atom       -0.046516     -0.026798     -0.053286
    2 Atom       -0.110545      0.042305      0.013070
    3 Atom       -0.022671      0.023496      0.029183
    4 Atom        0.059471     -0.007346      0.007933
    5 Atom       -0.012947      0.036915      0.059843
    6 Atom       -0.126180      0.008388     -0.001177
    7 Atom        0.126678     -0.008260     -0.001124
    8 Atom        0.013015     -0.037112      0.059703
    9 Atom        0.109832     -0.042387      0.012984
   10 Atom        0.046477      0.026935     -0.053156
   11 Atom        0.022743     -0.023508      0.029241
   12 Atom       -0.059396      0.007269      0.007851
   13 Atom       -0.000473      0.000063     -0.050262
   14 Atom        0.000372      0.000875      0.223447
   15 Atom        0.516628     -0.315262     -0.272039
   16 Atom        0.138238     -0.132199     -0.054604
   17 Atom       -0.517571      0.314031     -0.269993
   18 Atom       -0.138446      0.131896     -0.053936
   19 Atom        0.000093      0.000177      0.241867
   20 Atom        0.000090      0.000086      0.065384
   21 Atom       -0.029668      0.054679      0.153227
   22 Atom        0.184358     -0.009488      0.011463
   23 Atom       -0.093317      0.032328      0.002650
   24 Atom       -0.049550     -0.045833     -0.194048
   25 Atom       -0.119370      0.029176      0.012475
   26 Atom        0.193480     -0.046317      0.061329
   27 Atom       -0.022024      0.048014      0.156492
   28 Atom       -0.110267      0.024579      0.008367
   29 Atom       -0.044480     -0.049122     -0.195247
   30 Atom        0.204679     -0.013537      0.019241
   31 Atom       -0.204549      0.013401      0.019148
   32 Atom        0.029701     -0.054555      0.153517
   33 Atom        0.093047     -0.032468      0.002667
   34 Atom       -0.184223      0.009158      0.010964
   35 Atom        0.118922     -0.029216      0.012452
   36 Atom        0.049862      0.046220     -0.193964
   37 Atom       -0.193354      0.046013      0.061117
   38 Atom        0.022053     -0.048004      0.156601
   39 Atom        0.044890      0.049643     -0.195102
   40 Atom        0.109721     -0.024807      0.008384
 -----------------------------------------------------
 -----------------------------------------------------
    Center         ---- Electric Field Gradient ----
                   ----       Eigenvalues       ----
 -----------------------------------------------------
    1 Atom     -511.025883   -510.908900   -510.856053
    2 Atom     -511.191882   -510.653193   -510.645408
    3 Atom     -511.022175   -510.905813   -510.873663
    4 Atom     -511.022318   -510.912851   -510.898052
    5 Atom     -830.547995   -830.500923   -829.817392
    6 Atom     -511.501869   -511.469554   -511.103312
    7 Atom     -511.501876   -511.469535   -511.103299
    8 Atom     -830.548043   -830.500865   -829.817496
    9 Atom     -511.191890   -510.653195   -510.645487
   10 Atom     -511.025855   -510.908873   -510.856079
   11 Atom     -511.022221   -510.905823   -510.873553
   12 Atom     -511.022319   -510.912897   -510.898109
   13 Atom     -512.582526   -512.412415   -511.790001
   14 Atom       -0.526570      0.062952      0.317245
   15 Atom     -515.657624   -515.619146   -514.433842
   16 Atom    -1265.592811  -1265.488184  -1265.185133
   17 Atom     -515.657777   -515.619155   -514.433911
   18 Atom    -1265.592967  -1265.487985  -1265.185084
   19 Atom     -515.618205   -515.615730   -514.412096
   20 Atom    -1265.569429  -1265.554152  -1265.197066
   21 Atom       -2.035260     -1.634725     -1.624376
   22 Atom       -2.041754     -1.637059     -1.630626
   23 Atom       -2.036146     -1.634270     -1.623468
   24 Atom       -2.035289     -1.636078     -1.625374
   25 Atom       -2.034882     -1.633214     -1.622871
   26 Atom       -2.049174     -1.639450     -1.632852
   27 Atom       -2.034198     -1.632950     -1.629875
   28 Atom       -2.037115     -1.633997     -1.624749
   29 Atom       -2.037065     -1.635366     -1.633441
   30 Atom       -2.029901     -1.611006     -1.582290
   31 Atom       -2.029871     -1.610989     -1.582275
   32 Atom       -2.035255     -1.634736     -1.624381
   33 Atom       -2.036150     -1.634260     -1.623462
   34 Atom       -2.041746     -1.637041     -1.630625
   35 Atom       -2.034905     -1.633221     -1.622878
   36 Atom       -2.035274     -1.636075     -1.625368
   37 Atom       -2.049057     -1.639396     -1.632816
   38 Atom       -2.034204     -1.632965     -1.629893
   39 Atom       -2.037041     -1.635352     -1.633426
   40 Atom       -2.037118     -1.633991     -1.624746
 -----------------------------------------------------
 -----------------------------------------------------
    Center         ---- Electric Field Gradient ----
                       ( tensor representation )
                   3XX-RR        3YY-RR        3ZZ-RR
 -----------------------------------------------------
    1 Atom        0.028796      0.020389     -0.049185
    2 Atom       -0.334388      0.156975      0.177413
    3 Atom        0.036885      0.037833     -0.074718
    4 Atom        0.000645     -0.031199      0.030554
    5 Atom       -0.216527     -0.248005      0.464532
    6 Atom        0.209668     -0.098456     -0.111212
    7 Atom        0.209273     -0.098063     -0.111210
    8 Atom       -0.216469     -0.247993      0.464462
    9 Atom       -0.334675      0.157284      0.177391
   10 Atom        0.028676      0.020611     -0.049287
   11 Atom        0.036859      0.037886     -0.074745
   12 Atom        0.000852     -0.031418      0.030566
   13 Atom       -0.150767      0.468445     -0.317678
   14 Atom        0.111743      0.302006     -0.413749
   15 Atom        0.145432      0.094166     -0.239598
   16 Atom        0.047375      0.036145     -0.083520
   17 Atom        0.148165      0.093750     -0.241915
   18 Atom        0.048331      0.036098     -0.084429
   19 Atom       -0.400387     -0.352232      0.752619
   20 Atom       -0.129213     -0.101534      0.230747
   21 Atom        0.129839      0.057152     -0.186992
   22 Atom        0.023122     -0.156005      0.132883
   23 Atom       -0.246290      0.115012      0.131278
   24 Atom        0.128390     -0.067719     -0.060671
   25 Atom       -0.230232      0.101390      0.128842
   26 Atom       -0.006473     -0.112957      0.119430
   27 Atom        0.127829      0.056691     -0.184521
   28 Atom       -0.237202      0.098406      0.138796
   29 Atom        0.123007     -0.047883     -0.075124
   30 Atom       -0.037040     -0.120402      0.157442
   31 Atom       -0.036398     -0.121054      0.157452
   32 Atom        0.129860      0.056794     -0.186654
   33 Atom       -0.246415      0.115171      0.131244
   34 Atom        0.023416     -0.156351      0.132934
   35 Atom       -0.230560      0.101712      0.128848
   36 Atom        0.128211     -0.067233     -0.060978
   37 Atom       -0.005969     -0.113586      0.119555
   38 Atom        0.127830      0.056535     -0.184365
   39 Atom        0.122774     -0.047456     -0.075319
   40 Atom       -0.237534      0.098764      0.138770
 -----------------------------------------------------
 -----------------------------------------------------
    Center         ---- Electric Field Gradient ----
                       ( tensor representation )
                   ----       Eigenvalues       ----
 -----------------------------------------------------
    1 Atom       -0.095604      0.021378      0.074226
    2 Atom       -0.361721      0.176968      0.184753
    3 Atom       -0.088292      0.028071      0.060221
    4 Atom       -0.077911      0.031556      0.046355
    5 Atom       -0.259225     -0.212153      0.471378
    6 Atom       -0.143624     -0.111309      0.254933
    7 Atom       -0.143640     -0.111298      0.254938
    8 Atom       -0.259242     -0.212064      0.471305
    9 Atom       -0.361699      0.176996      0.184704
   10 Atom       -0.095586      0.021396      0.074190
   11 Atom       -0.088355      0.028043      0.060312
   12 Atom       -0.077878      0.031545      0.046333
   13 Atom       -0.320878     -0.150768      0.471646
   14 Atom       -0.477779      0.111743      0.366036
   15 Atom       -0.420754     -0.382276      0.803029
   16 Atom       -0.170768     -0.066142      0.236910
   17 Atom       -0.420829     -0.382207      0.803037
   18 Atom       -0.170955     -0.065973      0.236928
   19 Atom       -0.402861     -0.400386      0.803247
   20 Atom       -0.129213     -0.113936      0.243150
   21 Atom       -0.270473      0.130062      0.140411
   22 Atom       -0.271941      0.132755      0.139187
   23 Atom       -0.271518      0.130358      0.141160
   24 Atom       -0.269709      0.129502      0.140206
   25 Atom       -0.271226      0.130442      0.140784
   26 Atom       -0.275348      0.134375      0.140973
   27 Atom       -0.268524      0.132724      0.135800
   28 Atom       -0.271828      0.131290      0.140538
   29 Atom       -0.268441      0.133258      0.135183
   30 Atom       -0.288835      0.130060      0.158776
   31 Atom       -0.288826      0.130056      0.158770
   32 Atom       -0.270464      0.130055      0.140410
   33 Atom       -0.271526      0.130364      0.141162
   34 Atom       -0.271942      0.132764      0.139179
   35 Atom       -0.271237      0.130446      0.140790
   36 Atom       -0.269702      0.129497      0.140205
   37 Atom       -0.275300      0.134360      0.140940
   38 Atom       -0.268517      0.132722      0.135794
   39 Atom       -0.268434      0.133254      0.135180
   40 Atom       -0.271833      0.131294      0.140539
 -----------------------------------------------------
 Leave Link  602 at Wed Jul  9 17:14:06 2025, MaxMem=  6291456000 cpu:               1.2 elap:               0.2
 (Enter /share/apps/chem/gaussian-16-bin.c.02/g16/l607.exe)
 ******************************Gaussian NBO Version 3.1******************************
             N A T U R A L   A T O M I C   O R B I T A L   A N D
          N A T U R A L   B O N D   O R B I T A L   A N A L Y S I S
 ******************************Gaussian NBO Version 3.1******************************
       /RESON  / : Allow strongly delocalized NBO set
       /NLMO   / : Form Natural Localized Molecular Orbitals
       /NMR /    : Analyze NMR Sheilding Tensor 

 Analyzing the SCF density

 Job title: Gaussian input prepared by ASE                                  

 Storage needed:   1702104 in NPA,   2265915 in NBO,   1701872 in NLMO (6291447600 available)
 GSVD:  LWork=      204262 too small for GESVD, short by      514415 words or      514415 for optimal perf.


 NATURAL POPULATIONS:  Natural atomic orbital occupancies 
                                                          
   NAO  Atom  No  lang   Type(AO)    Occupancy      Energy
 ----------------------------------------------------------
     1    C    1  S      Cor( 1S)     1.99937     -10.06390
     2    C    1  S      Val( 2S)     1.11696      -0.30040
     3    C    1  S      Ryd( 3S)     0.00046       1.36196
     4    C    1  S      Ryd( 4S)     0.00028       2.60191
     5    C    1  S      Ryd( 5S)     0.00000      21.21283
     6    C    1  px     Val( 2p)     1.21419      -0.10118
     7    C    1  px     Ryd( 3p)     0.00083       0.91348
     8    C    1  px     Ryd( 4p)     0.00017       1.92793
     9    C    1  py     Val( 2p)     1.16829      -0.09315
    10    C    1  py     Ryd( 3p)     0.00127       0.88086
    11    C    1  py     Ryd( 4p)     0.00022       1.89514
    12    C    1  pz     Val( 2p)     1.12704      -0.09600
    13    C    1  pz     Ryd( 3p)     0.00109       0.77511
    14    C    1  pz     Ryd( 4p)     0.00034       2.08235
    15    C    1  dxy    Ryd( 3d)     0.00145       1.54261
    16    C    1  dxy    Ryd( 4d)     0.00007       3.15095
    17    C    1  dxz    Ryd( 3d)     0.00080       1.40727
    18    C    1  dxz    Ryd( 4d)     0.00006       2.92900
    19    C    1  dyz    Ryd( 3d)     0.00280       1.56658
    20    C    1  dyz    Ryd( 4d)     0.00004       3.29145
    21    C    1  dx2y2  Ryd( 3d)     0.00175       1.51724
    22    C    1  dx2y2  Ryd( 4d)     0.00005       3.15262
    23    C    1  dz2    Ryd( 3d)     0.00160       1.58243
    24    C    1  dz2    Ryd( 4d)     0.00006       3.24995
    25    C    1  f(0)   Ryd( 4f)     0.00007       3.57434
    26    C    1  f(C1)  Ryd( 4f)     0.00004       3.57635
    27    C    1  f(S1)  Ryd( 4f)     0.00020       3.81109
    28    C    1  f(C2)  Ryd( 4f)     0.00005       3.45105
    29    C    1  f(S2)  Ryd( 4f)     0.00006       3.47198
    30    C    1  f(C3)  Ryd( 4f)     0.00016       3.70700
    31    C    1  f(S3)  Ryd( 4f)     0.00008       3.44336
 
    32    C    2  S      Cor( 1S)     1.99936     -10.14746
    33    C    2  S      Val( 2S)     0.94166      -0.27331
    34    C    2  S      Ryd( 4S)     0.00034       2.26345
    35    C    2  S      Ryd( 3S)     0.00004       1.78591
    36    C    2  S      Ryd( 5S)     0.00001      20.76903
    37    C    2  px     Val( 2p)     0.82307      -0.07617
    38    C    2  px     Ryd( 3p)     0.00189       1.15747
    39    C    2  px     Ryd( 4p)     0.00030       1.43465
    40    C    2  py     Val( 2p)     1.03344      -0.10622
    41    C    2  py     Ryd( 3p)     0.00364       1.24776
    42    C    2  py     Ryd( 4p)     0.00047       1.46328
    43    C    2  pz     Val( 2p)     1.03625      -0.10455
    44    C    2  pz     Ryd( 3p)     0.00219       1.17027
    45    C    2  pz     Ryd( 4p)     0.00028       1.38803
    46    C    2  dxy    Ryd( 4d)     0.00062       3.50681
    47    C    2  dxy    Ryd( 3d)     0.00042       1.96881
    48    C    2  dxz    Ryd( 4d)     0.00102       3.10080
    49    C    2  dxz    Ryd( 3d)     0.00023       1.64520
    50    C    2  dyz    Ryd( 4d)     0.00063       3.39393
    51    C    2  dyz    Ryd( 3d)     0.00065       1.78264
    52    C    2  dx2y2  Ryd( 4d)     0.00084       3.48193
    53    C    2  dx2y2  Ryd( 3d)     0.00019       2.21518
    54    C    2  dz2    Ryd( 4d)     0.00064       3.58520
    55    C    2  dz2    Ryd( 3d)     0.00052       2.00337
    56    C    2  f(0)   Ryd( 4f)     0.00003       3.83421
    57    C    2  f(C1)  Ryd( 4f)     0.00004       3.85933
    58    C    2  f(S1)  Ryd( 4f)     0.00004       3.97912
    59    C    2  f(C2)  Ryd( 4f)     0.00003       3.74261
    60    C    2  f(S2)  Ryd( 4f)     0.00003       3.71913
    61    C    2  f(C3)  Ryd( 4f)     0.00006       4.02132
    62    C    2  f(S3)  Ryd( 4f)     0.00005       3.91929
 
    63    C    3  S      Cor( 1S)     1.99938     -10.06654
    64    C    3  S      Val( 2S)     1.11998      -0.30546
    65    C    3  S      Ryd( 3S)     0.00042       1.36122
    66    C    3  S      Ryd( 4S)     0.00028       2.58525
    67    C    3  S      Ryd( 5S)     0.00000      21.21043
    68    C    3  px     Val( 2p)     1.22016      -0.10186
    69    C    3  px     Ryd( 3p)     0.00081       0.86975
    70    C    3  px     Ryd( 4p)     0.00012       1.84896
    71    C    3  py     Val( 2p)     1.20428      -0.09981
    72    C    3  py     Ryd( 3p)     0.00143       0.88880
    73    C    3  py     Ryd( 4p)     0.00015       1.79761
    74    C    3  pz     Val( 2p)     1.07830      -0.09336
    75    C    3  pz     Ryd( 3p)     0.00061       0.73121
    76    C    3  pz     Ryd( 4p)     0.00049       2.20932
    77    C    3  dxy    Ryd( 3d)     0.00157       1.53489
    78    C    3  dxy    Ryd( 4d)     0.00006       3.15266
    79    C    3  dxz    Ryd( 3d)     0.00060       1.41343
    80    C    3  dxz    Ryd( 4d)     0.00006       2.97249
    81    C    3  dyz    Ryd( 3d)     0.00226       1.57020
    82    C    3  dyz    Ryd( 4d)     0.00006       3.28853
    83    C    3  dx2y2  Ryd( 3d)     0.00157       1.47091
    84    C    3  dx2y2  Ryd( 4d)     0.00004       3.08313
    85    C    3  dz2    Ryd( 3d)     0.00260       1.55731
    86    C    3  dz2    Ryd( 4d)     0.00005       3.30135
    87    C    3  f(0)   Ryd( 4f)     0.00010       3.61629
    88    C    3  f(C1)  Ryd( 4f)     0.00004       3.67985
    89    C    3  f(S1)  Ryd( 4f)     0.00019       3.69499
    90    C    3  f(C2)  Ryd( 4f)     0.00006       3.57982
    91    C    3  f(S2)  Ryd( 4f)     0.00004       3.49027
    92    C    3  f(C3)  Ryd( 4f)     0.00013       3.51086
    93    C    3  f(S3)  Ryd( 4f)     0.00011       3.43009
 
    94    C    4  S      Cor( 1S)     1.99941     -10.07255
    95    C    4  S      Val( 2S)     1.12331      -0.31522
    96    C    4  S      Ryd( 4S)     0.00034       2.68834
    97    C    4  S      Ryd( 3S)     0.00019       1.50265
    98    C    4  S      Ryd( 5S)     0.00000      21.03214
    99    C    4  px     Val( 2p)     1.17608      -0.10632
   100    C    4  px     Ryd( 3p)     0.00052       0.85064
   101    C    4  px     Ryd( 4p)     0.00029       2.01895
   102    C    4  py     Val( 2p)     1.11154      -0.10089
   103    C    4  py     Ryd( 3p)     0.00066       0.74881
   104    C    4  py     Ryd( 4p)     0.00028       2.14452
   105    C    4  pz     Val( 2p)     1.22276      -0.10580
   106    C    4  pz     Ryd( 3p)     0.00139       0.80603
   107    C    4  pz     Ryd( 4p)     0.00006       1.80932
   108    C    4  dxy    Ryd( 3d)     0.00276       1.55547
   109    C    4  dxy    Ryd( 4d)     0.00003       3.21007
   110    C    4  dxz    Ryd( 3d)     0.00056       1.34411
   111    C    4  dxz    Ryd( 4d)     0.00004       2.85635
   112    C    4  dyz    Ryd( 3d)     0.00166       1.58680
   113    C    4  dyz    Ryd( 4d)     0.00008       3.24475
   114    C    4  dx2y2  Ryd( 3d)     0.00103       1.51489
   115    C    4  dx2y2  Ryd( 4d)     0.00004       3.15710
   116    C    4  dz2    Ryd( 3d)     0.00221       1.54708
   117    C    4  dz2    Ryd( 4d)     0.00004       3.19716
   118    C    4  f(0)   Ryd( 4f)     0.00005       3.38364
   119    C    4  f(C1)  Ryd( 4f)     0.00010       3.48071
   120    C    4  f(S1)  Ryd( 4f)     0.00018       3.78437
   121    C    4  f(C2)  Ryd( 4f)     0.00004       3.53930
   122    C    4  f(S2)  Ryd( 4f)     0.00002       3.42081
   123    C    4  f(C3)  Ryd( 4f)     0.00013       3.58739
   124    C    4  f(S3)  Ryd( 4f)     0.00007       3.77699
 
   125    N    5  S      Cor( 1S)     1.99938     -14.25860
   126    N    5  S      Val( 2S)     1.22626      -0.55232
   127    N    5  S      Ryd( 3S)     0.00243       2.04522
   128    N    5  S      Ryd( 4S)     0.00011       4.26896
   129    N    5  S      Ryd( 5S)     0.00000      29.26186
   130    N    5  px     Val( 2p)     1.29790      -0.25136
   131    N    5  px     Ryd( 3p)     0.00620       1.42392
   132    N    5  px     Ryd( 4p)     0.00018       3.90067
   133    N    5  py     Val( 2p)     1.27984      -0.24534
   134    N    5  py     Ryd( 3p)     0.00306       1.10969
   135    N    5  py     Ryd( 4p)     0.00013       3.53605
   136    N    5  pz     Val( 2p)     1.52991      -0.26092
   137    N    5  pz     Ryd( 3p)     0.00490       0.72282
   138    N    5  pz     Ryd( 4p)     0.00036       2.63094
   139    N    5  dxy    Ryd( 3d)     0.00279       1.90372
   140    N    5  dxy    Ryd( 4d)     0.00024       5.02261
   141    N    5  dxz    Ryd( 3d)     0.00113       1.66293
   142    N    5  dxz    Ryd( 4d)     0.00011       4.68290
   143    N    5  dyz    Ryd( 3d)     0.00073       1.56961
   144    N    5  dyz    Ryd( 4d)     0.00008       4.62204
   145    N    5  dx2y2  Ryd( 3d)     0.00317       1.87790
   146    N    5  dx2y2  Ryd( 4d)     0.00013       4.98223
   147    N    5  dz2    Ryd( 3d)     0.00245       1.99521
   148    N    5  dz2    Ryd( 4d)     0.00006       4.83129
   149    N    5  f(0)   Ryd( 4f)     0.00031       4.47034
   150    N    5  f(C1)  Ryd( 4f)     0.00021       4.52893
   151    N    5  f(S1)  Ryd( 4f)     0.00016       4.52319
   152    N    5  f(C2)  Ryd( 4f)     0.00003       4.52197
   153    N    5  f(S2)  Ryd( 4f)     0.00005       4.56286
   154    N    5  f(C3)  Ryd( 4f)     0.00017       5.10896
   155    N    5  f(S3)  Ryd( 4f)     0.00017       5.18017
 
   156    C    6  S      Cor( 1S)     1.99903     -10.10622
   157    C    6  S      Val( 2S)     0.95658      -0.21610
   158    C    6  S      Ryd( 3S)     0.00130       1.40249
   159    C    6  S      Ryd( 4S)     0.00014       1.48291
   160    C    6  S      Ryd( 5S)     0.00001      21.51749
   161    C    6  px     Val( 2p)     1.08208      -0.07698
   162    C    6  px     Ryd( 3p)     0.00301       1.17028
   163    C    6  px     Ryd( 4p)     0.00067       1.76040
   164    C    6  py     Val( 2p)     0.97472      -0.05016
   165    C    6  py     Ryd( 3p)     0.00306       1.06297
   166    C    6  py     Ryd( 4p)     0.00045       1.55584
   167    C    6  pz     Val( 2p)     1.07455      -0.12939
   168    C    6  pz     Ryd( 3p)     0.00359       0.60137
   169    C    6  pz     Ryd( 4p)     0.00030       1.31447
   170    C    6  dxy    Ryd( 3d)     0.00078       2.33287
   171    C    6  dxy    Ryd( 4d)     0.00051       3.58148
   172    C    6  dxz    Ryd( 3d)     0.00069       1.56410
   173    C    6  dxz    Ryd( 4d)     0.00011       2.78627
   174    C    6  dyz    Ryd( 3d)     0.00079       1.62348
   175    C    6  dyz    Ryd( 4d)     0.00007       2.73925
   176    C    6  dx2y2  Ryd( 3d)     0.00096       2.26523
   177    C    6  dx2y2  Ryd( 4d)     0.00033       3.61823
   178    C    6  dz2    Ryd( 3d)     0.00068       1.96076
   179    C    6  dz2    Ryd( 4d)     0.00010       3.35267
   180    C    6  f(0)   Ryd( 4f)     0.00021       3.44993
   181    C    6  f(C1)  Ryd( 4f)     0.00009       3.90423
   182    C    6  f(S1)  Ryd( 4f)     0.00007       3.71720
   183    C    6  f(C2)  Ryd( 4f)     0.00003       3.58305
   184    C    6  f(S2)  Ryd( 4f)     0.00003       3.38724
   185    C    6  f(C3)  Ryd( 4f)     0.00009       4.42205
   186    C    6  f(S3)  Ryd( 4f)     0.00005       4.15394
 
   187    C    7  S      Cor( 1S)     1.99903     -10.10622
   188    C    7  S      Val( 2S)     0.95658      -0.21610
   189    C    7  S      Ryd( 3S)     0.00130       1.40247
   190    C    7  S      Ryd( 4S)     0.00014       1.48297
   191    C    7  S      Ryd( 5S)     0.00001      21.51751
   192    C    7  px     Val( 2p)     1.08163      -0.07695
   193    C    7  px     Ryd( 3p)     0.00301       1.17000
   194    C    7  px     Ryd( 4p)     0.00067       1.76014
   195    C    7  py     Val( 2p)     0.97518      -0.05019
   196    C    7  py     Ryd( 3p)     0.00306       1.06328
   197    C    7  py     Ryd( 4p)     0.00045       1.55613
   198    C    7  pz     Val( 2p)     1.07454      -0.12939
   199    C    7  pz     Ryd( 3p)     0.00359       0.60139
   200    C    7  pz     Ryd( 4p)     0.00030       1.31443
   201    C    7  dxy    Ryd( 3d)     0.00078       2.33322
   202    C    7  dxy    Ryd( 4d)     0.00051       3.58179
   203    C    7  dxz    Ryd( 3d)     0.00069       1.56423
   204    C    7  dxz    Ryd( 4d)     0.00011       2.78640
   205    C    7  dyz    Ryd( 3d)     0.00079       1.62332
   206    C    7  dyz    Ryd( 4d)     0.00007       2.73906
   207    C    7  dx2y2  Ryd( 3d)     0.00096       2.26492
   208    C    7  dx2y2  Ryd( 4d)     0.00033       3.61793
   209    C    7  dz2    Ryd( 3d)     0.00068       1.96083
   210    C    7  dz2    Ryd( 4d)     0.00010       3.35271
   211    C    7  f(0)   Ryd( 4f)     0.00021       3.44989
   212    C    7  f(C1)  Ryd( 4f)     0.00009       3.90399
   213    C    7  f(S1)  Ryd( 4f)     0.00007       3.71754
   214    C    7  f(C2)  Ryd( 4f)     0.00003       3.58248
   215    C    7  f(S2)  Ryd( 4f)     0.00003       3.38775
   216    C    7  f(C3)  Ryd( 4f)     0.00009       4.42194
   217    C    7  f(S3)  Ryd( 4f)     0.00005       4.15408
 
   218    N    8  S      Cor( 1S)     1.99938     -14.25859
   219    N    8  S      Val( 2S)     1.22625      -0.55231
   220    N    8  S      Ryd( 3S)     0.00243       2.04494
   221    N    8  S      Ryd( 4S)     0.00011       4.26910
   222    N    8  S      Ryd( 5S)     0.00000      29.26234
   223    N    8  px     Val( 2p)     1.29786      -0.25134
   224    N    8  px     Ryd( 3p)     0.00621       1.42427
   225    N    8  px     Ryd( 4p)     0.00018       3.90090
   226    N    8  py     Val( 2p)     1.27991      -0.24537
   227    N    8  py     Ryd( 3p)     0.00306       1.10944
   228    N    8  py     Ryd( 4p)     0.00013       3.53572
   229    N    8  pz     Val( 2p)     1.52990      -0.26092
   230    N    8  pz     Ryd( 3p)     0.00490       0.72283
   231    N    8  pz     Ryd( 4p)     0.00036       2.63099
   232    N    8  dxy    Ryd( 3d)     0.00280       1.90395
   233    N    8  dxy    Ryd( 4d)     0.00024       5.02323
   234    N    8  dxz    Ryd( 3d)     0.00113       1.66300
   235    N    8  dxz    Ryd( 4d)     0.00011       4.68296
   236    N    8  dyz    Ryd( 3d)     0.00073       1.56956
   237    N    8  dyz    Ryd( 4d)     0.00008       4.62202
   238    N    8  dx2y2  Ryd( 3d)     0.00317       1.87768
   239    N    8  dx2y2  Ryd( 4d)     0.00013       4.98165
   240    N    8  dz2    Ryd( 3d)     0.00245       1.99516
   241    N    8  dz2    Ryd( 4d)     0.00006       4.83131
   242    N    8  f(0)   Ryd( 4f)     0.00031       4.47035
   243    N    8  f(C1)  Ryd( 4f)     0.00021       4.52893
   244    N    8  f(S1)  Ryd( 4f)     0.00016       4.52324
   245    N    8  f(C2)  Ryd( 4f)     0.00003       4.52162
   246    N    8  f(S2)  Ryd( 4f)     0.00005       4.56324
   247    N    8  f(C3)  Ryd( 4f)     0.00017       5.10986
   248    N    8  f(S3)  Ryd( 4f)     0.00017       5.17932
 
   249    C    9  S      Cor( 1S)     1.99936     -10.14745
   250    C    9  S      Val( 2S)     0.94166      -0.27330
   251    C    9  S      Ryd( 4S)     0.00034       2.26376
   252    C    9  S      Ryd( 3S)     0.00004       1.78661
   253    C    9  S      Ryd( 5S)     0.00001      20.76847
   254    C    9  px     Val( 2p)     0.82292      -0.07614
   255    C    9  px     Ryd( 3p)     0.00189       1.15725
   256    C    9  px     Ryd( 4p)     0.00030       1.43448
   257    C    9  py     Val( 2p)     1.03358      -0.10624
   258    C    9  py     Ryd( 3p)     0.00364       1.24793
   259    C    9  py     Ryd( 4p)     0.00047       1.46347
   260    C    9  pz     Val( 2p)     1.03625      -0.10455
   261    C    9  pz     Ryd( 3p)     0.00219       1.17036
   262    C    9  pz     Ryd( 4p)     0.00028       1.38802
   263    C    9  dxy    Ryd( 4d)     0.00062       3.50569
   264    C    9  dxy    Ryd( 3d)     0.00042       1.96756
   265    C    9  dxz    Ryd( 4d)     0.00102       3.10139
   266    C    9  dxz    Ryd( 3d)     0.00023       1.64538
   267    C    9  dyz    Ryd( 4d)     0.00064       3.39356
   268    C    9  dyz    Ryd( 3d)     0.00065       1.78229
   269    C    9  dx2y2  Ryd( 4d)     0.00084       3.48313
   270    C    9  dx2y2  Ryd( 3d)     0.00019       2.21633
   271    C    9  dz2    Ryd( 4d)     0.00064       3.58539
   272    C    9  dz2    Ryd( 3d)     0.00052       2.00333
   273    C    9  f(0)   Ryd( 4f)     0.00003       3.83392
   274    C    9  f(C1)  Ryd( 4f)     0.00004       3.85970
   275    C    9  f(S1)  Ryd( 4f)     0.00004       3.97938
   276    C    9  f(C2)  Ryd( 4f)     0.00003       3.74264
   277    C    9  f(S2)  Ryd( 4f)     0.00003       3.71886
   278    C    9  f(C3)  Ryd( 4f)     0.00006       4.02103
   279    C    9  f(S3)  Ryd( 4f)     0.00005       3.91955
 
   280    C   10  S      Cor( 1S)     1.99937     -10.06391
   281    C   10  S      Val( 2S)     1.11697      -0.30041
   282    C   10  S      Ryd( 3S)     0.00046       1.36164
   283    C   10  S      Ryd( 4S)     0.00028       2.60160
   284    C   10  S      Ryd( 5S)     0.00000      21.21291
   285    C   10  px     Val( 2p)     1.21408      -0.10117
   286    C   10  px     Ryd( 3p)     0.00083       0.91303
   287    C   10  px     Ryd( 4p)     0.00017       1.92802
   288    C   10  py     Val( 2p)     1.16854      -0.09317
   289    C   10  py     Ryd( 3p)     0.00127       0.88109
   290    C   10  py     Ryd( 4p)     0.00022       1.89398
   291    C   10  pz     Val( 2p)     1.12688      -0.09599
   292    C   10  pz     Ryd( 3p)     0.00108       0.77511
   293    C   10  pz     Ryd( 4p)     0.00034       2.08270
   294    C   10  dxy    Ryd( 3d)     0.00145       1.54229
   295    C   10  dxy    Ryd( 4d)     0.00007       3.15037
   296    C   10  dxz    Ryd( 3d)     0.00080       1.40749
   297    C   10  dxz    Ryd( 4d)     0.00006       2.92947
   298    C   10  dyz    Ryd( 3d)     0.00280       1.56662
   299    C   10  dyz    Ryd( 4d)     0.00004       3.29140
   300    C   10  dx2y2  Ryd( 3d)     0.00175       1.51745
   301    C   10  dx2y2  Ryd( 4d)     0.00005       3.15296
   302    C   10  dz2    Ryd( 3d)     0.00160       1.58231
   303    C   10  dz2    Ryd( 4d)     0.00006       3.24983
   304    C   10  f(0)   Ryd( 4f)     0.00007       3.57399
   305    C   10  f(C1)  Ryd( 4f)     0.00004       3.57664
   306    C   10  f(S1)  Ryd( 4f)     0.00020       3.81147
   307    C   10  f(C2)  Ryd( 4f)     0.00005       3.45170
   308    C   10  f(S2)  Ryd( 4f)     0.00006       3.47154
   309    C   10  f(C3)  Ryd( 4f)     0.00016       3.70743
   310    C   10  f(S3)  Ryd( 4f)     0.00008       3.44237
 
   311    C   11  S      Cor( 1S)     1.99938     -10.06652
   312    C   11  S      Val( 2S)     1.11999      -0.30544
   313    C   11  S      Ryd( 3S)     0.00042       1.36105
   314    C   11  S      Ryd( 4S)     0.00028       2.58545
   315    C   11  S      Ryd( 5S)     0.00000      21.21068
   316    C   11  px     Val( 2p)     1.22016      -0.10184
   317    C   11  px     Ryd( 3p)     0.00081       0.86990
   318    C   11  px     Ryd( 4p)     0.00012       1.84925
   319    C   11  py     Val( 2p)     1.20424      -0.09979
   320    C   11  py     Ryd( 3p)     0.00143       0.88891
   321    C   11  py     Ryd( 4p)     0.00015       1.79763
   322    C   11  pz     Val( 2p)     1.07837      -0.09336
   323    C   11  pz     Ryd( 3p)     0.00061       0.73124
   324    C   11  pz     Ryd( 4p)     0.00049       2.20919
   325    C   11  dxy    Ryd( 3d)     0.00157       1.53461
   326    C   11  dxy    Ryd( 4d)     0.00006       3.15222
   327    C   11  dxz    Ryd( 3d)     0.00060       1.41347
   328    C   11  dxz    Ryd( 4d)     0.00006       2.97253
   329    C   11  dyz    Ryd( 3d)     0.00226       1.57006
   330    C   11  dyz    Ryd( 4d)     0.00006       3.28861
   331    C   11  dx2y2  Ryd( 3d)     0.00157       1.47131
   332    C   11  dx2y2  Ryd( 4d)     0.00004       3.08387
   333    C   11  dz2    Ryd( 3d)     0.00260       1.55735
   334    C   11  dz2    Ryd( 4d)     0.00005       3.30120
   335    C   11  f(0)   Ryd( 4f)     0.00010       3.61590
   336    C   11  f(C1)  Ryd( 4f)     0.00004       3.67995
   337    C   11  f(S1)  Ryd( 4f)     0.00019       3.69545
   338    C   11  f(C2)  Ryd( 4f)     0.00006       3.57916
   339    C   11  f(S2)  Ryd( 4f)     0.00004       3.49041
   340    C   11  f(C3)  Ryd( 4f)     0.00013       3.51320
   341    C   11  f(S3)  Ryd( 4f)     0.00011       3.42826
 
   342    C   12  S      Cor( 1S)     1.99941     -10.07255
   343    C   12  S      Val( 2S)     1.12331      -0.31522
   344    C   12  S      Ryd( 4S)     0.00034       2.68842
   345    C   12  S      Ryd( 3S)     0.00019       1.50290
   346    C   12  S      Ryd( 5S)     0.00000      21.03205
   347    C   12  px     Val( 2p)     1.17636      -0.10634
   348    C   12  px     Ryd( 3p)     0.00052       0.85100
   349    C   12  px     Ryd( 4p)     0.00029       2.01829
   350    C   12  py     Val( 2p)     1.11123      -0.10087
   351    C   12  py     Ryd( 3p)     0.00066       0.74846
   352    C   12  py     Ryd( 4p)     0.00028       2.14527
   353    C   12  pz     Val( 2p)     1.22279      -0.10580
   354    C   12  pz     Ryd( 3p)     0.00139       0.80605
   355    C   12  pz     Ryd( 4p)     0.00006       1.80927
   356    C   12  dxy    Ryd( 3d)     0.00276       1.55514
   357    C   12  dxy    Ryd( 4d)     0.00003       3.20913
   358    C   12  dxz    Ryd( 3d)     0.00056       1.34419
   359    C   12  dxz    Ryd( 4d)     0.00004       2.85645
   360    C   12  dyz    Ryd( 3d)     0.00166       1.58677
   361    C   12  dyz    Ryd( 4d)     0.00008       3.24471
   362    C   12  dx2y2  Ryd( 3d)     0.00103       1.51521
   363    C   12  dx2y2  Ryd( 4d)     0.00004       3.15814
   364    C   12  dz2    Ryd( 3d)     0.00221       1.54703
   365    C   12  dz2    Ryd( 4d)     0.00004       3.19708
   366    C   12  f(0)   Ryd( 4f)     0.00004       3.38334
   367    C   12  f(C1)  Ryd( 4f)     0.00010       3.48047
   368    C   12  f(S1)  Ryd( 4f)     0.00018       3.78482
   369    C   12  f(C2)  Ryd( 4f)     0.00004       3.53871
   370    C   12  f(S2)  Ryd( 4f)     0.00002       3.42150
   371    C   12  f(C3)  Ryd( 4f)     0.00013       3.58848
   372    C   12  f(S3)  Ryd( 4f)     0.00007       3.77602
 
   373    C   13  S      Cor( 1S)     1.99907     -10.15233
   374    C   13  S      Val( 2S)     1.05448      -0.22810
   375    C   13  S      Ryd( 3S)     0.00925       2.44094
   376    C   13  S      Ryd( 4S)     0.00036       2.80904
   377    C   13  S      Ryd( 5S)     0.00000      21.92070
   378    C   13  px     Val( 2p)     0.69750       0.01504
   379    C   13  px     Ryd( 3p)     0.00360       1.28296
   380    C   13  px     Ryd( 4p)     0.00080       1.81241
   381    C   13  py     Val( 2p)     1.11324      -0.05502
   382    C   13  py     Ryd( 4p)     0.00859       3.05340
   383    C   13  py     Ryd( 3p)     0.00053       2.90148
   384    C   13  pz     Val( 2p)     0.78646      -0.09273
   385    C   13  pz     Ryd( 3p)     0.00344       0.83779
   386    C   13  pz     Ryd( 4p)     0.00052       1.32643
   387    C   13  dxy    Ryd( 3d)     0.00084       2.34511
   388    C   13  dxy    Ryd( 4d)     0.00044       4.42527
   389    C   13  dxz    Ryd( 3d)     0.00027       1.29157
   390    C   13  dxz    Ryd( 4d)     0.00060       3.36232
   391    C   13  dyz    Ryd( 3d)     0.00111       1.39611
   392    C   13  dyz    Ryd( 4d)     0.00046       3.33447
   393    C   13  dx2y2  Ryd( 3d)     0.00117       2.12912
   394    C   13  dx2y2  Ryd( 4d)     0.00057       3.75662
   395    C   13  dz2    Ryd( 3d)     0.00035       2.04447
   396    C   13  dz2    Ryd( 4d)     0.00011       3.97643
   397    C   13  f(0)   Ryd( 4f)     0.00003       3.51036
   398    C   13  f(C1)  Ryd( 4f)     0.00006       3.65112
   399    C   13  f(S1)  Ryd( 4f)     0.00002       3.62361
   400    C   13  f(C2)  Ryd( 4f)     0.00002       3.26156
   401    C   13  f(S2)  Ryd( 4f)     0.00001       3.71423
   402    C   13  f(C3)  Ryd( 4f)     0.00003       4.26885
   403    C   13  f(S3)  Ryd( 4f)     0.00006       4.04303
 
   404   Ni   14  S      Cor( 3S)     1.99104      -4.09410
   405   Ni   14  S      Val( 4S)     0.44745       0.81287
   406   Ni   14  S      Ryd( 6S)     0.00074       4.92680
   407   Ni   14  S      Ryd( 7S)     0.00034      16.94078
   408   Ni   14  S      Ryd( 5S)     0.00023       1.63066
   409   Ni   14  S      Ryd( 8S)     0.00003      33.42559
   410   Ni   14  px     Cor( 3p)     1.99756      -2.65940
   411   Ni   14  px     Val( 4p)     0.50109       0.23961
   412   Ni   14  px     Ryd( 5p)     0.00082       0.52650
   413   Ni   14  px     Ryd( 6p)     0.00021       4.26536
   414   Ni   14  px     Ryd( 7p)     0.00000      56.14853
   415   Ni   14  py     Cor( 3p)     1.99846      -2.65689
   416   Ni   14  py     Val( 4p)     0.47758       0.23911
   417   Ni   14  py     Ryd( 5p)     0.00083       0.68601
   418   Ni   14  py     Ryd( 6p)     0.00015       3.67654
   419   Ni   14  py     Ryd( 7p)     0.00000      56.03648
   420   Ni   14  pz     Cor( 3p)     1.99752      -2.66290
   421   Ni   14  pz     Val( 4p)     0.51661       0.19385
   422   Ni   14  pz     Ryd( 5p)     0.00075       0.41415
   423   Ni   14  pz     Ryd( 6p)     0.00024       4.42311
   424   Ni   14  pz     Ryd( 7p)     0.00000      56.17803
   425   Ni   14  dxy    Val( 3d)     1.88493      -0.27464
   426   Ni   14  dxy    Ryd( 4d)     0.00244       0.77262
   427   Ni   14  dxy    Ryd( 5d)     0.00008       1.94538
   428   Ni   14  dxz    Val( 3d)     1.80348      -0.26953
   429   Ni   14  dxz    Ryd( 4d)     0.00193       0.92388
   430   Ni   14  dxz    Ryd( 5d)     0.00009       1.85617
   431   Ni   14  dyz    Val( 3d)     1.87480      -0.27129
   432   Ni   14  dyz    Ryd( 4d)     0.00282       1.14046
   433   Ni   14  dyz    Ryd( 5d)     0.00022       1.73950
   434   Ni   14  dx2y2  Val( 3d)     1.78114      -0.25679
   435   Ni   14  dx2y2  Ryd( 4d)     0.00134       0.78420
   436   Ni   14  dx2y2  Ryd( 5d)     0.00011       2.07213
   437   Ni   14  dz2    Val( 3d)     1.76543      -0.26859
   438   Ni   14  dz2    Ryd( 4d)     0.00161       0.70354
   439   Ni   14  dz2    Ryd( 5d)     0.00008       1.94060
   440   Ni   14  f(0)   Ryd( 4f)     0.00002       6.24199
   441   Ni   14  f(C1)  Ryd( 4f)     0.00000       6.17749
   442   Ni   14  f(S1)  Ryd( 4f)     0.00001       6.19807
   443   Ni   14  f(C2)  Ryd( 4f)     0.00001       6.17592
   444   Ni   14  f(S2)  Ryd( 4f)     0.00002       6.21821
   445   Ni   14  f(C3)  Ryd( 4f)     0.00000       6.18486
   446   Ni   14  f(S3)  Ryd( 4f)     0.00001       6.24140
 
   447    C   15  S      Cor( 1S)     1.99906     -10.18251
   448    C   15  S      Val( 2S)     1.24478      -0.32377
   449    C   15  S      Ryd( 4S)     0.04097       3.20071
   450    C   15  S      Ryd( 3S)     0.00014       2.75403
   451    C   15  S      Ryd( 5S)     0.00001      21.20727
   452    C   15  px     Val( 2p)     0.68473      -0.03955
   453    C   15  px     Ryd( 4p)     0.00774       1.91127
   454    C   15  px     Ryd( 3p)     0.00024       1.62231
   455    C   15  py     Val( 2p)     0.68679      -0.04348
   456    C   15  py     Ryd( 3p)     0.00657       1.28253
   457    C   15  py     Ryd( 4p)     0.00019       1.39130
   458    C   15  pz     Val( 2p)     0.62200      -0.07577
   459    C   15  pz     Ryd( 3p)     0.00378       1.18681
   460    C   15  pz     Ryd( 4p)     0.00026       1.22507
   461    C   15  dxy    Ryd( 4d)     0.00051       3.01408
   462    C   15  dxy    Ryd( 3d)     0.00044       2.46683
   463    C   15  dxz    Ryd( 4d)     0.00063       2.81853
   464    C   15  dxz    Ryd( 3d)     0.00029       2.30665
   465    C   15  dyz    Ryd( 4d)     0.00052       2.78699
   466    C   15  dyz    Ryd( 3d)     0.00021       2.18108
   467    C   15  dx2y2  Ryd( 4d)     0.00111       3.11213
   468    C   15  dx2y2  Ryd( 3d)     0.00011       2.41326
   469    C   15  dz2    Ryd( 4d)     0.00055       2.72649
   470    C   15  dz2    Ryd( 3d)     0.00012       2.35027
   471    C   15  f(0)   Ryd( 4f)     0.00010       3.02792
   472    C   15  f(C1)  Ryd( 4f)     0.00004       3.11045
   473    C   15  f(S1)  Ryd( 4f)     0.00003       3.01618
   474    C   15  f(C2)  Ryd( 4f)     0.00005       3.11073
   475    C   15  f(S2)  Ryd( 4f)     0.00020       3.23420
   476    C   15  f(C3)  Ryd( 4f)     0.00007       3.28346
   477    C   15  f(S3)  Ryd( 4f)     0.00018       3.29556
 
   478    O   16  S      Cor( 1S)     1.99977     -18.99147
   479    O   16  S      Val( 2S)     1.70498      -1.00174
   480    O   16  S      Ryd( 3S)     0.00310       1.81617
   481    O   16  S      Ryd( 4S)     0.00008       3.91549
   482    O   16  S      Ryd( 5S)     0.00000      41.92141
   483    O   16  px     Val( 2p)     1.60589      -0.36331
   484    O   16  px     Ryd( 3p)     0.00141       0.77608
   485    O   16  px     Ryd( 4p)     0.00010       3.46442
   486    O   16  py     Val( 2p)     1.59981      -0.35834
   487    O   16  py     Ryd( 3p)     0.00175       0.68406
   488    O   16  py     Ryd( 4p)     0.00010       3.34813
   489    O   16  pz     Val( 2p)     1.56584      -0.33549
   490    O   16  pz     Ryd( 3p)     0.00172       0.68540
   491    O   16  pz     Ryd( 4p)     0.00004       3.04768
   492    O   16  dxy    Ryd( 3d)     0.00809       1.83516
   493    O   16  dxy    Ryd( 4d)     0.00001       6.47964
   494    O   16  dxz    Ryd( 3d)     0.00504       1.63987
   495    O   16  dxz    Ryd( 4d)     0.00001       6.35902
   496    O   16  dyz    Ryd( 3d)     0.00438       1.61846
   497    O   16  dyz    Ryd( 4d)     0.00001       6.33699
   498    O   16  dx2y2  Ryd( 3d)     0.00604       1.60652
   499    O   16  dx2y2  Ryd( 4d)     0.00003       6.37862
   500    O   16  dz2    Ryd( 3d)     0.00362       1.56208
   501    O   16  dz2    Ryd( 4d)     0.00001       6.30391
   502    O   16  f(0)   Ryd( 4f)     0.00009       5.40037
   503    O   16  f(C1)  Ryd( 4f)     0.00014       5.40879
   504    O   16  f(S1)  Ryd( 4f)     0.00012       5.37236
   505    O   16  f(C2)  Ryd( 4f)     0.00010       5.41023
   506    O   16  f(S2)  Ryd( 4f)     0.00023       5.61629
   507    O   16  f(C3)  Ryd( 4f)     0.00023       5.62154
   508    O   16  f(S3)  Ryd( 4f)     0.00023       5.63234
 
   509    C   17  S      Cor( 1S)     1.99906     -10.18251
   510    C   17  S      Val( 2S)     1.24482      -0.32375
   511    C   17  S      Ryd( 4S)     0.04098       3.20196
   512    C   17  S      Ryd( 3S)     0.00014       2.75439
   513    C   17  S      Ryd( 5S)     0.00001      21.20742
   514    C   17  px     Val( 2p)     0.68518      -0.03929
   515    C   17  px     Ryd( 4p)     0.00777       1.91533
   516    C   17  px     Ryd( 3p)     0.00024       1.62358
   517    C   17  py     Val( 2p)     0.68675      -0.04351
   518    C   17  py     Ryd( 3p)     0.00657       1.28161
   519    C   17  py     Ryd( 4p)     0.00019       1.39124
   520    C   17  pz     Val( 2p)     0.62157      -0.07597
   521    C   17  pz     Ryd( 3p)     0.00377       1.18396
   522    C   17  pz     Ryd( 4p)     0.00026       1.22410
   523    C   17  dxy    Ryd( 4d)     0.00051       3.01525
   524    C   17  dxy    Ryd( 3d)     0.00044       2.46813
   525    C   17  dxz    Ryd( 4d)     0.00063       2.81894
   526    C   17  dxz    Ryd( 3d)     0.00029       2.30740
   527    C   17  dyz    Ryd( 4d)     0.00052       2.78512
   528    C   17  dyz    Ryd( 3d)     0.00021       2.17972
   529    C   17  dx2y2  Ryd( 4d)     0.00111       3.11343
   530    C   17  dx2y2  Ryd( 3d)     0.00011       2.41402
   531    C   17  dz2    Ryd( 4d)     0.00054       2.72435
   532    C   17  dz2    Ryd( 3d)     0.00012       2.34920
   533    C   17  f(0)   Ryd( 4f)     0.00010       3.02738
   534    C   17  f(C1)  Ryd( 4f)     0.00004       3.11047
   535    C   17  f(S1)  Ryd( 4f)     0.00003       3.01479
   536    C   17  f(C2)  Ryd( 4f)     0.00005       3.11009
   537    C   17  f(S2)  Ryd( 4f)     0.00020       3.23368
   538    C   17  f(C3)  Ryd( 4f)     0.00007       3.28504
   539    C   17  f(S3)  Ryd( 4f)     0.00019       3.29711
 
   540    O   18  S      Cor( 1S)     1.99977     -18.99147
   541    O   18  S      Val( 2S)     1.70498      -1.00174
   542    O   18  S      Ryd( 3S)     0.00310       1.81716
   543    O   18  S      Ryd( 4S)     0.00008       3.91420
   544    O   18  S      Ryd( 5S)     0.00000      41.92150
   545    O   18  px     Val( 2p)     1.60618      -0.36350
   546    O   18  px     Ryd( 3p)     0.00141       0.77665
   547    O   18  px     Ryd( 4p)     0.00010       3.46702
   548    O   18  py     Val( 2p)     1.59979      -0.35831
   549    O   18  py     Ryd( 3p)     0.00175       0.68409
   550    O   18  py     Ryd( 4p)     0.00010       3.34777
   551    O   18  pz     Val( 2p)     1.56559      -0.33533
   552    O   18  pz     Ryd( 3p)     0.00173       0.68512
   553    O   18  pz     Ryd( 4p)     0.00004       3.04547
   554    O   18  dxy    Ryd( 3d)     0.00811       1.83637
   555    O   18  dxy    Ryd( 4d)     0.00001       6.48043
   556    O   18  dxz    Ryd( 3d)     0.00503       1.63912
   557    O   18  dxz    Ryd( 4d)     0.00001       6.35874
   558    O   18  dyz    Ryd( 3d)     0.00435       1.61709
   559    O   18  dyz    Ryd( 4d)     0.00001       6.33608
   560    O   18  dx2y2  Ryd( 3d)     0.00606       1.60703
   561    O   18  dx2y2  Ryd( 4d)     0.00003       6.37910
   562    O   18  dz2    Ryd( 3d)     0.00362       1.56252
   563    O   18  dz2    Ryd( 4d)     0.00001       6.30385
   564    O   18  f(0)   Ryd( 4f)     0.00009       5.39972
   565    O   18  f(C1)  Ryd( 4f)     0.00014       5.40909
   566    O   18  f(S1)  Ryd( 4f)     0.00012       5.37141
   567    O   18  f(C2)  Ryd( 4f)     0.00010       5.40946
   568    O   18  f(S2)  Ryd( 4f)     0.00023       5.61499
   569    O   18  f(C3)  Ryd( 4f)     0.00023       5.62279
   570    O   18  f(S3)  Ryd( 4f)     0.00023       5.63446
 
   571    C   19  S      Cor( 1S)     1.99907     -10.18529
   572    C   19  S      Val( 2S)     1.22634      -0.31861
   573    C   19  S      Ryd( 4S)     0.04003       2.62540
   574    C   19  S      Ryd( 3S)     0.00021       2.24860
   575    C   19  S      Ryd( 5S)     0.00001      21.34256
   576    C   19  px     Val( 2p)     0.58604      -0.08985
   577    C   19  px     Ryd( 3p)     0.00149       0.95718
   578    C   19  px     Ryd( 4p)     0.00023       1.27695
   579    C   19  py     Val( 2p)     0.59335      -0.08424
   580    C   19  py     Ryd( 3p)     0.00251       0.96696
   581    C   19  py     Ryd( 4p)     0.00021       1.23743
   582    C   19  pz     Val( 2p)     0.79518       0.01390
   583    C   19  pz     Ryd( 4p)     0.01376       2.20915
   584    C   19  pz     Ryd( 3p)     0.00023       1.70046
   585    C   19  dxy    Ryd( 4d)     0.00010       2.45454
   586    C   19  dxy    Ryd( 3d)     0.00011       2.12250
   587    C   19  dxz    Ryd( 4d)     0.00121       3.26710
   588    C   19  dxz    Ryd( 3d)     0.00004       2.48991
   589    C   19  dyz    Ryd( 4d)     0.00113       3.30494
   590    C   19  dyz    Ryd( 3d)     0.00014       2.45999
   591    C   19  dx2y2  Ryd( 4d)     0.00009       2.45702
   592    C   19  dx2y2  Ryd( 3d)     0.00006       1.96061
   593    C   19  dz2    Ryd( 4d)     0.00061       3.43710
   594    C   19  dz2    Ryd( 3d)     0.00084       2.53139
   595    C   19  f(0)   Ryd( 4f)     0.00042       3.64120
   596    C   19  f(C1)  Ryd( 4f)     0.00006       3.42991
   597    C   19  f(S1)  Ryd( 4f)     0.00014       3.47240
   598    C   19  f(C2)  Ryd( 4f)     0.00001       3.05194
   599    C   19  f(S2)  Ryd( 4f)     0.00001       3.04518
   600    C   19  f(C3)  Ryd( 4f)     0.00000       2.72111
   601    C   19  f(S3)  Ryd( 4f)     0.00001       2.72282
 
   602    O   20  S      Cor( 1S)     1.99977     -18.99236
   603    O   20  S      Val( 2S)     1.70673      -1.00652
   604    O   20  S      Ryd( 3S)     0.00285       1.73975
   605    O   20  S      Ryd( 4S)     0.00005       3.77033
   606    O   20  S      Ryd( 5S)     0.00000      42.04973
   607    O   20  px     Val( 2p)     1.55065      -0.32659
   608    O   20  px     Ryd( 3p)     0.00193       0.65247
   609    O   20  px     Ryd( 4p)     0.00002       2.88742
   610    O   20  py     Val( 2p)     1.55672      -0.32990
   611    O   20  py     Ryd( 3p)     0.00180       0.66132
   612    O   20  py     Ryd( 4p)     0.00002       2.91758
   613    O   20  pz     Val( 2p)     1.65763      -0.40430
   614    O   20  pz     Ryd( 3p)     0.00064       0.77725
   615    O   20  pz     Ryd( 4p)     0.00022       4.00835
   616    O   20  dxy    Ryd( 3d)     0.00029       1.46070
   617    O   20  dxy    Ryd( 4d)     0.00000       6.19284
   618    O   20  dxz    Ryd( 3d)     0.00668       1.61002
   619    O   20  dxz    Ryd( 4d)     0.00003       6.39061
   620    O   20  dyz    Ryd( 3d)     0.00736       1.68150
   621    O   20  dyz    Ryd( 4d)     0.00002       6.42503
   622    O   20  dx2y2  Ryd( 3d)     0.00030       1.45416
   623    O   20  dx2y2  Ryd( 4d)     0.00000       6.19052
   624    O   20  dz2    Ryd( 3d)     0.01228       2.04635
   625    O   20  dz2    Ryd( 4d)     0.00001       6.63410
   626    O   20  f(0)   Ryd( 4f)     0.00039       6.05395
   627    O   20  f(C1)  Ryd( 4f)     0.00031       5.68559
   628    O   20  f(S1)  Ryd( 4f)     0.00032       5.78528
   629    O   20  f(C2)  Ryd( 4f)     0.00003       5.35551
   630    O   20  f(S2)  Ryd( 4f)     0.00003       5.35388
   631    O   20  f(C3)  Ryd( 4f)     0.00000       5.11572
   632    O   20  f(S3)  Ryd( 4f)     0.00000       5.11573
 
   633    H   21  S      Val( 1S)     0.77626       0.03215
   634    H   21  S      Ryd( 2S)     0.00046       0.99843
   635    H   21  S      Ryd( 3S)     0.00011       1.60577
   636    H   21  px     Ryd( 2p)     0.00012       2.27279
   637    H   21  py     Ryd( 2p)     0.00012       2.40985
   638    H   21  pz     Ryd( 2p)     0.00023       3.02803
 
   639    H   22  S      Val( 1S)     0.76235       0.06869
   640    H   22  S      Ryd( 2S)     0.00082       1.50246
   641    H   22  S      Ryd( 3S)     0.00011       1.82749
   642    H   22  px     Ryd( 2p)     0.00021       2.51774
   643    H   22  py     Ryd( 2p)     0.00025       2.98224
   644    H   22  pz     Ryd( 2p)     0.00011       2.35167
 
   645    H   23  S      Val( 1S)     0.77237       0.03261
   646    H   23  S      Ryd( 2S)     0.00031       1.10088
   647    H   23  S      Ryd( 3S)     0.00011       1.46954
   648    H   23  px     Ryd( 2p)     0.00024       2.96105
   649    H   23  py     Ryd( 2p)     0.00012       2.35940
   650    H   23  pz     Ryd( 2p)     0.00008       2.32655
 
   651    H   24  S      Val( 1S)     0.77701       0.03107
   652    H   24  S      Ryd( 2S)     0.00044       1.08965
   653    H   24  S      Ryd( 3S)     0.00009       1.48689
   654    H   24  px     Ryd( 2p)     0.00011       2.25472
   655    H   24  py     Ryd( 2p)     0.00016       2.57876
   656    H   24  pz     Ryd( 2p)     0.00019       2.84117
 
   657    H   25  S      Val( 1S)     0.77259       0.03113
   658    H   25  S      Ryd( 2S)     0.00031       1.09362
   659    H   25  S      Ryd( 3S)     0.00011       1.46726
   660    H   25  px     Ryd( 2p)     0.00024       2.90265
   661    H   25  py     Ryd( 2p)     0.00012       2.32529
   662    H   25  pz     Ryd( 2p)     0.00008       2.39780
 
   663    H   26  S      Val( 1S)     0.76853       0.05221
   664    H   26  S      Ryd( 3S)     0.00089       1.55173
   665    H   26  S      Ryd( 2S)     0.00011       1.46762
   666    H   26  px     Ryd( 2p)     0.00016       2.55354
   667    H   26  py     Ryd( 2p)     0.00022       2.77807
   668    H   26  pz     Ryd( 2p)     0.00011       2.46256
 
   669    H   27  S      Val( 1S)     0.77252       0.03132
   670    H   27  S      Ryd( 2S)     0.00050       0.98511
   671    H   27  S      Ryd( 3S)     0.00012       1.60891
   672    H   27  px     Ryd( 2p)     0.00010       2.36805
   673    H   27  py     Ryd( 2p)     0.00013       2.52987
   674    H   27  pz     Ryd( 2p)     0.00022       2.82675
 
   675    H   28  S      Val( 1S)     0.76166       0.03624
   676    H   28  S      Ryd( 2S)     0.00029       1.25157
   677    H   28  S      Ryd( 3S)     0.00010       1.30909
   678    H   28  px     Ryd( 2p)     0.00023       3.03754
   679    H   28  py     Ryd( 2p)     0.00009       2.38773
   680    H   28  pz     Ryd( 2p)     0.00010       2.21482
 
   681    H   29  S      Val( 1S)     0.77436       0.03073
   682    H   29  S      Ryd( 2S)     0.00050       0.98507
   683    H   29  S      Ryd( 3S)     0.00012       1.62919
   684    H   29  px     Ryd( 2p)     0.00010       2.36158
   685    H   29  py     Ryd( 2p)     0.00018       2.74458
   686    H   29  pz     Ryd( 2p)     0.00018       2.60315
 
   687    H   30  S      Val( 1S)     0.74416       0.03893
   688    H   30  S      Ryd( 3S)     0.00038       1.84824
   689    H   30  S      Ryd( 2S)     0.00005       1.04188
   690    H   30  px     Ryd( 2p)     0.00021       2.84584
   691    H   30  py     Ryd( 2p)     0.00029       2.90301
   692    H   30  pz     Ryd( 2p)     0.00026       2.18657
 
   693    H   31  S      Val( 1S)     0.74415       0.03892
   694    H   31  S      Ryd( 3S)     0.00038       1.84824
   695    H   31  S      Ryd( 2S)     0.00005       1.04187
   696    H   31  px     Ryd( 2p)     0.00021       2.84512
   697    H   31  py     Ryd( 2p)     0.00029       2.90374
   698    H   31  pz     Ryd( 2p)     0.00026       2.18653
 
   699    H   32  S      Val( 1S)     0.77628       0.03215
   700    H   32  S      Ryd( 2S)     0.00046       0.99868
   701    H   32  S      Ryd( 3S)     0.00011       1.60540
   702    H   32  px     Ryd( 2p)     0.00012       2.27281
   703    H   32  py     Ryd( 2p)     0.00012       2.41016
   704    H   32  pz     Ryd( 2p)     0.00023       3.02753
 
   705    H   33  S      Val( 1S)     0.77237       0.03260
   706    H   33  S      Ryd( 2S)     0.00031       1.10105
   707    H   33  S      Ryd( 3S)     0.00011       1.46926
   708    H   33  px     Ryd( 2p)     0.00024       2.96140
   709    H   33  py     Ryd( 2p)     0.00012       2.35871
   710    H   33  pz     Ryd( 2p)     0.00008       2.32677
 
   711    H   34  S      Val( 1S)     0.76237       0.06867
   712    H   34  S      Ryd( 2S)     0.00082       1.50283
   713    H   34  S      Ryd( 3S)     0.00011       1.82697
   714    H   34  px     Ryd( 2p)     0.00021       2.51715
   715    H   34  py     Ryd( 2p)     0.00025       2.98252
   716    H   34  pz     Ryd( 2p)     0.00011       2.35188
 
   717    H   35  S      Val( 1S)     0.77259       0.03114
   718    H   35  S      Ryd( 2S)     0.00031       1.09374
   719    H   35  S      Ryd( 3S)     0.00011       1.46706
   720    H   35  px     Ryd( 2p)     0.00024       2.90329
   721    H   35  py     Ryd( 2p)     0.00012       2.32479
   722    H   35  pz     Ryd( 2p)     0.00008       2.39774
 
   723    H   36  S      Val( 1S)     0.77702       0.03107
   724    H   36  S      Ryd( 2S)     0.00044       1.08945
   725    H   36  S      Ryd( 3S)     0.00009       1.48709
   726    H   36  px     Ryd( 2p)     0.00011       2.25503
   727    H   36  py     Ryd( 2p)     0.00016       2.57800
   728    H   36  pz     Ryd( 2p)     0.00019       2.84178
 
   729    H   37  S      Val( 1S)     0.76847       0.05228
   730    H   37  S      Ryd( 3S)     0.00089       1.55187
   731    H   37  S      Ryd( 2S)     0.00011       1.46826
   732    H   37  px     Ryd( 2p)     0.00016       2.55274
   733    H   37  py     Ryd( 2p)     0.00022       2.77961
   734    H   37  pz     Ryd( 2p)     0.00011       2.46213
 
   735    H   38  S      Val( 1S)     0.77254       0.03132
   736    H   38  S      Ryd( 2S)     0.00050       0.98508
   737    H   38  S      Ryd( 3S)     0.00012       1.60902
   738    H   38  px     Ryd( 2p)     0.00010       2.36780
   739    H   38  py     Ryd( 2p)     0.00013       2.53065
   740    H   38  pz     Ryd( 2p)     0.00022       2.82627
 
   741    H   39  S      Val( 1S)     0.77435       0.03073
   742    H   39  S      Ryd( 2S)     0.00050       0.98511
   743    H   39  S      Ryd( 3S)     0.00012       1.62916
   744    H   39  px     Ryd( 2p)     0.00010       2.36149
   745    H   39  py     Ryd( 2p)     0.00018       2.74424
   746    H   39  pz     Ryd( 2p)     0.00018       2.60362
 
   747    H   40  S      Val( 1S)     0.76166       0.03625
   748    H   40  S      Ryd( 2S)     0.00029       1.25184
   749    H   40  S      Ryd( 3S)     0.00010       1.30884
   750    H   40  px     Ryd( 2p)     0.00023       3.03776
   751    H   40  py     Ryd( 2p)     0.00009       2.38751
   752    H   40  pz     Ryd( 2p)     0.00010       2.21485

 [ 10 electrons found in the effective core potential]

 WARNING:  4 low occupancy (<1.9990e) core orbitals found on Ni   14

 WARNING:  Population inversion found on atom  C    2
           Population inversion found on atom  C    4
           Population inversion found on atom  C    9
           Population inversion found on atom  C   12
           Population inversion found on atom  C   13
           Population inversion found on atom Ni   14
           Population inversion found on atom  C   15
           Population inversion found on atom  C   17
           Population inversion found on atom  C   19
           Population inversion found on atom  H   26
           Population inversion found on atom  H   30
           Population inversion found on atom  H   31
           Population inversion found on atom  H   37


 Summary of Natural Population Analysis:                  
                                                          
                                       Natural Population 
                Natural  -----------------------------------------------
    Atom  No    Charge         Core      Valence    Rydberg      Total
 -----------------------------------------------------------------------
      C    1   -0.63984      1.99937     4.62648    0.01399     6.63984
      C    2    0.15102      1.99936     3.83442    0.01520     5.84898
      C    3   -0.63597      1.99938     4.62273    0.01386     6.63597
      C    4   -0.64588      1.99941     4.63369    0.01277     6.64588
      N    5   -0.36265      1.99938     5.33392    0.02936     7.36265
      C    6   -0.10508      1.99903     4.08793    0.01812     6.10508
      C    7   -0.10508      1.99903     4.08793    0.01812     6.10508
      N    8   -0.36266      1.99938     5.33392    0.02936     7.36266
      C    9    0.15102      1.99936     3.83442    0.01520     5.84898
      C   10   -0.63983      1.99937     4.62647    0.01399     6.63983
      C   11   -0.63600      1.99938     4.62276    0.01387     6.63600
      C   12   -0.64588      1.99941     4.63369    0.01277     6.64588
      C   13    0.31602      1.99907     3.65167    0.03324     5.68398
     Ni   14   -1.05223     17.98457    11.05251    0.01515    29.05223
      C   15    0.69759      1.99906     3.23830    0.06505     5.30241
      O   16   -0.51298      1.99977     6.47652    0.03668     8.51298
      C   17    0.69755      1.99906     3.23833    0.06506     5.30245
      O   18   -0.51300      1.99977     6.47654    0.03669     8.51300
      C   19    0.73635      1.99907     3.20091    0.06367     5.26365
      O   20   -0.50709      1.99977     6.47174    0.03559     8.50709
      H   21    0.22269      0.00000     0.77626    0.00104     0.77731
      H   22    0.23615      0.00000     0.76235    0.00150     0.76385
      H   23    0.22676      0.00000     0.77237    0.00086     0.77324
      H   24    0.22201      0.00000     0.77701    0.00098     0.77799
      H   25    0.22655      0.00000     0.77259    0.00086     0.77345
      H   26    0.22998      0.00000     0.76853    0.00149     0.77002
      H   27    0.22641      0.00000     0.77252    0.00106     0.77359
      H   28    0.23752      0.00000     0.76166    0.00082     0.76248
      H   29    0.22456      0.00000     0.77436    0.00108     0.77544
      H   30    0.25465      0.00000     0.74416    0.00119     0.74535
      H   31    0.25466      0.00000     0.74415    0.00119     0.74534
      H   32    0.22268      0.00000     0.77628    0.00104     0.77732
      H   33    0.22676      0.00000     0.77237    0.00086     0.77324
      H   34    0.23614      0.00000     0.76237    0.00150     0.76386
      H   35    0.22655      0.00000     0.77259    0.00086     0.77345
      H   36    0.22200      0.00000     0.77702    0.00098     0.77800
      H   37    0.23004      0.00000     0.76847    0.00149     0.76996
      H   38    0.22640      0.00000     0.77254    0.00106     0.77360
      H   39    0.22457      0.00000     0.77435    0.00108     0.77543
      H   40    0.23753      0.00000     0.76166    0.00082     0.76247
 =======================================================================
   * Total *    0.00000     55.97200   113.44847    0.57953   170.00000

                                 Natural Population      
 --------------------------------------------------------
   Effective Core            10.00000
   Core                      45.97200 ( 99.9391% of  46)
   Valence                  113.44847 ( 99.5162% of 114)
   Natural Minimal Basis    169.42047 ( 99.6591% of 170)
   Natural Rydberg Basis      0.57953 (  0.3409% of 170)
 --------------------------------------------------------

    Atom  No          Natural Electron Configuration
 ----------------------------------------------------------------------------
      C    1      [core]2S( 1.12)2p( 3.51)3d( 0.01)
      C    2      [core]2S( 0.94)2p( 2.89)3p( 0.01)
      C    3      [core]2S( 1.12)2p( 3.50)3d( 0.01)
      C    4      [core]2S( 1.12)2p( 3.51)3d( 0.01)
      N    5      [core]2S( 1.23)2p( 4.11)3p( 0.01)3d( 0.01)
      C    6      [core]2S( 0.96)2p( 3.13)3p( 0.01)
      C    7      [core]2S( 0.96)2p( 3.13)3p( 0.01)
      N    8      [core]2S( 1.23)2p( 4.11)3p( 0.01)3d( 0.01)
      C    9      [core]2S( 0.94)2p( 2.89)3p( 0.01)
      C   10      [core]2S( 1.12)2p( 3.51)3d( 0.01)
      C   11      [core]2S( 1.12)2p( 3.50)3d( 0.01)
      C   12      [core]2S( 1.12)2p( 3.51)3d( 0.01)
      C   13      [core]2S( 1.05)2p( 2.60)3S( 0.01)3p( 0.01)4p( 0.01)
     Ni   14      [core]4S( 0.45)3d( 9.11)4p( 1.50)4d( 0.01)
      C   15      [core]2S( 1.24)2p( 1.99)3p( 0.01)4S( 0.04)4p( 0.01)
      O   16      [core]2S( 1.70)2p( 4.77)3d( 0.03)
      C   17      [core]2S( 1.24)2p( 1.99)3p( 0.01)4S( 0.04)4p( 0.01)
      O   18      [core]2S( 1.70)2p( 4.77)3d( 0.03)
      C   19      [core]2S( 1.23)2p( 1.97)4S( 0.04)4p( 0.01)
      O   20      [core]2S( 1.71)2p( 4.77)3d( 0.03)
      H   21            1S( 0.78)
      H   22            1S( 0.76)
      H   23            1S( 0.77)
      H   24            1S( 0.78)
      H   25            1S( 0.77)
      H   26            1S( 0.77)
      H   27            1S( 0.77)
      H   28            1S( 0.76)
      H   29            1S( 0.77)
      H   30            1S( 0.74)
      H   31            1S( 0.74)
      H   32            1S( 0.78)
      H   33            1S( 0.77)
      H   34            1S( 0.76)
      H   35            1S( 0.77)
      H   36            1S( 0.78)
      H   37            1S( 0.77)
      H   38            1S( 0.77)
      H   39            1S( 0.77)
      H   40            1S( 0.76)


 NATURAL BOND ORBITAL ANALYSIS:

                       Occupancies       Lewis Structure    Low   High
           Occ.    -------------------  -----------------   occ   occ
  Cycle   Thresh.   Lewis   Non-Lewis     CR  BD  3C  LP    (L)   (NL)   Dev
 =============================================================================
   1(1)    1.90   163.54292   6.45708     23  49   0   8    15     14    0.64
   2(2)    1.90   163.54292   6.45708     23  49   0   8    15     14    0.64
   3(1)    1.80   166.64677   3.35323     23  49   0   8     3     11    0.27
   4(2)    1.80   165.94567   4.05433     23  49   0   8     2     10    0.64
   5(3)    1.80   166.39360   3.60640     23  48   0   9     2     10    0.27
   6(4)    1.80   166.39358   3.60642     23  48   0   9     2     10    0.27
   7(5)    1.80   165.94567   4.05433     23  49   0   8     2     10    0.64
   8(6)    1.80   166.39360   3.60640     23  48   0   9     2     10    0.27
   9(7)    1.80   166.39358   3.60642     23  48   0   9     2     10    0.27
  10(8)    1.80   165.94567   4.05433     23  49   0   8     2     10    0.64
  11(9)    1.80   166.39360   3.60640     23  48   0   9     2     10    0.27
  12(1)    1.70   167.40606   2.59394     23  48   0   9     1      8    0.27
  13(2)    1.70   166.90319   3.09681     23  48   0   9     1      8    0.64
  14(3)    1.70   167.40608   2.59392     23  48   0   9     1      8    0.27
  15(1)    1.60   167.40608   2.59392     23  48   0   9     1      8    0.27
  16(2)    1.60   167.40606   2.59394     23  48   0   9     1      8    0.27
  17(1)    1.50   164.43792   5.56208     23  41   0  16     0      8    1.10
  18(2)    1.50   164.43792   5.56208     23  41   0  16     0      8    1.10
  19(1)    1.70   167.40608   2.59392     23  48   0   9     1      8    0.27
 -----------------------------------------------------------------------------

 Structure accepted: RESONANCE keyword permits strongly delocalized structure

 WARNING:  4 low occupancy (<1.9990e) core orbitals found on Ni   14

 --------------------------------------------------------
   Effective Core           10.00000
   Core                     45.97180 ( 99.939% of  46)
   Valence Lewis           111.43428 ( 97.749% of 114)
  ==================       ============================
   Total Lewis             167.40608 ( 98.474% of 170)
  -----------------------------------------------------
   Valence non-Lewis         2.29508 (  1.350% of 170)
   Rydberg non-Lewis         0.29884 (  0.176% of 170)
  ==================       ============================
   Total non-Lewis           2.59392 (  1.526% of 170)
 --------------------------------------------------------


       (Occupancy)   Bond orbital/ Coefficients/ Hybrids
 ---------------------------------------------------------------------------------
     1. (1.97590) BD ( 1) C   1 - C   2  
                ( 48.73%)   0.6980* C   1 s( 28.62%)p 2.49( 71.15%)d 0.01(  0.21%)
                                                  f 0.00(  0.02%)
                                            0.0003  0.5348  0.0013 -0.0117  0.0002
                                           -0.2176  0.0004  0.0051 -0.5293 -0.0037
                                            0.0119 -0.6194 -0.0041  0.0137  0.0132
                                            0.0003  0.0155 -0.0001  0.0367  0.0008
                                           -0.0136  0.0006  0.0138  0.0005  0.0025
                                           -0.0036 -0.0092  0.0037 -0.0045  0.0055
                                            0.0021
                ( 51.27%)   0.7161* C   2 s( 26.68%)p 2.75( 73.29%)d 0.00(  0.02%)
                                                  f 0.00(  0.00%)
                                           -0.0001  0.5165 -0.0009 -0.0005  0.0002
                                            0.1940  0.0012  0.0053  0.5592 -0.0023
                                           -0.0017  0.6185  0.0003  0.0002 -0.0036
                                            0.0000  0.0007  0.0061 -0.0058  0.0108
                                            0.0023 -0.0035 -0.0019  0.0041 -0.0009
                                            0.0013  0.0022  0.0011 -0.0013 -0.0029
                                           -0.0013
     2. (1.98557) BD ( 1) C   1 - H  21  
                ( 61.10%)   0.7817* C   1 s( 23.10%)p 3.32( 76.75%)d 0.01(  0.15%)
                                                  f 0.00(  0.01%)
                                           -0.0001  0.4806 -0.0026  0.0048  0.0001
                                           -0.1258  0.0003  0.0019 -0.3775  0.0077
                                           -0.0018  0.7804  0.0005  0.0084  0.0060
                                           -0.0007 -0.0112  0.0000 -0.0306  0.0000
                                           -0.0059  0.0002  0.0178  0.0022  0.0041
                                           -0.0022 -0.0047 -0.0014  0.0014  0.0042
                                            0.0024
                ( 38.90%)   0.6237* H  21 s( 99.97%)p 0.00(  0.03%)
                                            0.9998  0.0013  0.0001  0.0025  0.0076
                                           -0.0158
     3. (1.97955) BD ( 1) C   1 - H  22  
                ( 61.85%)   0.7864* C   1 s( 25.16%)p 2.97( 74.69%)d 0.01(  0.13%)
                                                  f 0.00(  0.01%)
                                            0.0000  0.5016  0.0040  0.0002 -0.0003
                                           -0.4612  0.0008  0.0057  0.7302  0.0019
                                            0.0045 -0.0300  0.0075  0.0020 -0.0279
                                           -0.0035  0.0002  0.0022 -0.0102  0.0009
                                           -0.0076 -0.0006 -0.0195 -0.0003  0.0009
                                           -0.0002 -0.0056 -0.0019  0.0012  0.0079
                                            0.0022
                ( 38.15%)   0.6177* H  22 s( 99.96%)p 0.00(  0.04%)
                                            0.9998  0.0006  0.0005  0.0107 -0.0161
                                           -0.0004
     4. (1.98182) BD ( 1) C   1 - H  23  
                ( 61.18%)   0.7822* C   1 s( 23.07%)p 3.33( 76.77%)d 0.01(  0.16%)
                                                  f 0.00(  0.01%)
                                           -0.0002  0.4803 -0.0012  0.0057  0.0001
                                            0.8499 -0.0036  0.0058  0.2043  0.0039
                                            0.0036 -0.0599  0.0047  0.0025  0.0086
                                            0.0016 -0.0132  0.0016 -0.0055  0.0007
                                            0.0313 -0.0002 -0.0171 -0.0010  0.0012
                                           -0.0024 -0.0047 -0.0009  0.0023  0.0046
                                            0.0039
                ( 38.82%)   0.6230* H  23 s( 99.97%)p 0.00(  0.03%)
                                            0.9998  0.0009  0.0001 -0.0173 -0.0035
                                            0.0017
     5. (1.97484) BD ( 1) C   2 - C   3  
                ( 51.11%)   0.7149* C   2 s( 26.44%)p 2.78( 73.54%)d 0.00(  0.02%)
                                                  f 0.00(  0.00%)
                                           -0.0001  0.5142 -0.0015 -0.0004  0.0002
                                            0.1272  0.0019  0.0057  0.3401 -0.0007
                                           -0.0013 -0.7768 -0.0008  0.0006 -0.0027
                                           -0.0021 -0.0002 -0.0042  0.0048 -0.0076
                                            0.0008 -0.0006 -0.0048  0.0103 -0.0009
                                            0.0005  0.0013 -0.0009  0.0012 -0.0035
                                           -0.0016
                ( 48.89%)   0.6992* C   3 s( 28.88%)p 2.46( 70.89%)d 0.01(  0.21%)
                                                  f 0.00(  0.02%)
                                            0.0003  0.5372  0.0016 -0.0124  0.0002
                                           -0.1390  0.0000  0.0042 -0.3086 -0.0025
                                            0.0077  0.7707  0.0046 -0.0180  0.0052
                                            0.0002 -0.0129  0.0000 -0.0273 -0.0003
                                           -0.0047  0.0006  0.0342  0.0009  0.0063
                                           -0.0044 -0.0095 -0.0008  0.0026  0.0035
                                            0.0024
     6. (1.97882) BD ( 1) C   2 - C   4  
                ( 51.17%)   0.7153* C   2 s( 25.66%)p 2.90( 74.31%)d 0.00(  0.03%)
                                                  f 0.00(  0.00%)
                                           -0.0001  0.5065 -0.0003 -0.0015  0.0003
                                            0.4545 -0.0057  0.0025 -0.7266  0.0085
                                            0.0017  0.0915 -0.0003 -0.0000  0.0037
                                           -0.0131 -0.0002  0.0018  0.0009 -0.0027
                                            0.0021 -0.0074  0.0026 -0.0083 -0.0014
                                            0.0028  0.0025 -0.0000  0.0005 -0.0019
                                           -0.0009
                ( 48.83%)   0.6988* C   4 s( 29.49%)p 2.38( 70.29%)d 0.01(  0.20%)
                                                  f 0.00(  0.02%)
                                            0.0003  0.5429 -0.0112  0.0060  0.0001
                                           -0.5043 -0.0029  0.0125  0.6640  0.0073
                                           -0.0147 -0.0850 -0.0010  0.0018 -0.0360
                                            0.0002  0.0046 -0.0001 -0.0063 -0.0002
                                           -0.0112 -0.0001 -0.0221 -0.0005  0.0028
                                            0.0017 -0.0078  0.0009  0.0014  0.0086
                                            0.0043
     7. (1.97994) BD ( 1) C   2 - N   5  
                ( 36.67%)   0.6056* C   2 s( 21.21%)p 3.71( 78.75%)d 0.00(  0.04%)
                                                  f 0.00(  0.01%)
                                           -0.0000  0.4605  0.0053  0.0033 -0.0010
                                           -0.8596 -0.0016 -0.0044 -0.2077 -0.0016
                                           -0.0047  0.0730  0.0026  0.0018 -0.0086
                                            0.0004  0.0034 -0.0002  0.0007 -0.0002
                                           -0.0148  0.0036  0.0090 -0.0033 -0.0011
                                           -0.0041  0.0034 -0.0019 -0.0007  0.0016
                                            0.0044
                ( 63.33%)   0.7958* N   5 s( 32.86%)p 2.04( 67.03%)d 0.00(  0.10%)
                                                  f 0.00(  0.02%)
                                           -0.0001  0.5731  0.0097  0.0028 -0.0006
                                            0.7873  0.0235 -0.0062  0.2206  0.0012
                                           -0.0032 -0.0344 -0.0008  0.0005  0.0139
                                           -0.0001 -0.0057  0.0006 -0.0014  0.0004
                                            0.0234  0.0019 -0.0144  0.0006  0.0014
                                           -0.0094 -0.0024 -0.0013 -0.0010  0.0066
                                            0.0060
     8. (1.98596) BD ( 1) C   3 - H  24  
                ( 61.07%)   0.7815* C   3 s( 23.31%)p 3.28( 76.53%)d 0.01(  0.15%)
                                                  f 0.00(  0.01%)
                                           -0.0001  0.4827 -0.0018  0.0048  0.0002
                                           -0.1400  0.0004  0.0010 -0.6144  0.0069
                                           -0.0025 -0.6067 -0.0028 -0.0074  0.0097
                                           -0.0005  0.0087 -0.0000  0.0325  0.0009
                                           -0.0167 -0.0004 -0.0025  0.0023  0.0006
                                           -0.0013 -0.0050  0.0027 -0.0011  0.0046
                                            0.0042
                ( 38.93%)   0.6239* H  24 s( 99.97%)p 0.00(  0.03%)
                                            0.9998  0.0014  0.0000  0.0028  0.0123
                                            0.0125
     9. (1.98238) BD ( 1) C   3 - H  25  
                ( 61.18%)   0.7822* C   3 s( 23.12%)p 3.32( 76.72%)d 0.01(  0.15%)
                                                  f 0.00(  0.01%)
                                           -0.0002  0.4808 -0.0011  0.0050  0.0001
                                            0.8310 -0.0032  0.0057  0.2654  0.0021
                                            0.0024 -0.0779 -0.0051 -0.0038  0.0158
                                            0.0013  0.0040 -0.0018  0.0035 -0.0009
                                            0.0279  0.0004 -0.0213 -0.0004  0.0025
                                           -0.0012 -0.0036  0.0009 -0.0021  0.0046
                                            0.0053
                ( 38.82%)   0.6230* H  25 s( 99.97%)p 0.00(  0.03%)
                                            0.9998  0.0009  0.0000 -0.0167 -0.0050
                                            0.0011
    10. (1.98043) BD ( 1) C   3 - H  26  
                ( 61.50%)   0.7842* C   3 s( 24.64%)p 3.05( 75.20%)d 0.01(  0.15%)
                                                  f 0.00(  0.01%)
                                            0.0000 -0.4963 -0.0029 -0.0015  0.0003
                                            0.5185 -0.0017 -0.0003 -0.6744 -0.0001
                                           -0.0023  0.1683  0.0047  0.0063  0.0285
                                            0.0036 -0.0073  0.0014 -0.0010  0.0026
                                            0.0058 -0.0002  0.0239 -0.0010 -0.0025
                                           -0.0007  0.0036 -0.0032 -0.0012 -0.0074
                                           -0.0049
                ( 38.50%)   0.6205* H  26 s( 99.97%)p 0.00(  0.03%)
                                           -0.9998 -0.0017 -0.0002 -0.0109  0.0140
                                           -0.0044
    11. (1.98716) BD ( 1) C   4 - H  27  
                ( 61.34%)   0.7832* C   4 s( 23.72%)p 3.21( 76.12%)d 0.01(  0.15%)
                                                  f 0.00(  0.01%)
                                            0.0001 -0.4870 -0.0031  0.0019  0.0001
                                            0.1170 -0.0048 -0.0045  0.3869  0.0049
                                            0.0029 -0.7731  0.0032 -0.0048 -0.0109
                                            0.0015  0.0124 -0.0011  0.0192  0.0023
                                            0.0005  0.0012 -0.0289 -0.0005 -0.0018
                                            0.0039  0.0064  0.0013  0.0013 -0.0016
                                           -0.0021
                ( 38.66%)   0.6218* H  27 s( 99.97%)p 0.00(  0.03%)
                                           -0.9998 -0.0015 -0.0000 -0.0015 -0.0076
                                            0.0157
    12. (1.98040) BD ( 1) C   4 - H  28  
                ( 61.71%)   0.7855* C   4 s( 22.94%)p 3.35( 76.90%)d 0.01(  0.15%)
                                                  f 0.00(  0.01%)
                                           -0.0001  0.4790  0.0044 -0.0014  0.0001
                                            0.8412 -0.0030  0.0067  0.2416 -0.0087
                                           -0.0033 -0.0536  0.0012  0.0002  0.0274
                                           -0.0012 -0.0054  0.0002 -0.0013  0.0000
                                            0.0223  0.0021 -0.0157 -0.0008  0.0020
                                           -0.0050 -0.0047  0.0006 -0.0008  0.0033
                                            0.0018
                ( 38.29%)   0.6188* H  28 s( 99.97%)p 0.00(  0.03%)
                                            0.9999  0.0008  0.0001 -0.0163 -0.0053
                                            0.0011
    13. (1.98736) BD ( 1) C   4 - H  29  
                ( 61.25%)   0.7827* C   4 s( 23.79%)p 3.20( 76.06%)d 0.01(  0.15%)
                                                  f 0.00(  0.01%)
                                            0.0001 -0.4877 -0.0033  0.0014  0.0001
                                            0.1482 -0.0052 -0.0047  0.5899  0.0041
                                            0.0039  0.6249 -0.0043  0.0039 -0.0156
                                            0.0019 -0.0104  0.0005 -0.0286 -0.0021
                                            0.0068  0.0023 -0.0153  0.0004 -0.0030
                                            0.0041  0.0050 -0.0030  0.0004 -0.0015
                                           -0.0029
                ( 38.75%)   0.6225* H  29 s( 99.97%)p 0.00(  0.03%)
                                           -0.9998 -0.0015 -0.0000 -0.0020 -0.0120
                                           -0.0130
    14. (1.98252) BD ( 1) N   5 - C   6  
                ( 61.76%)   0.7859* N   5 s( 31.55%)p 2.16( 68.20%)d 0.01(  0.24%)
                                                  f 0.00(  0.02%)
                                           -0.0001  0.5617 -0.0051 -0.0013  0.0004
                                           -0.1809 -0.0143  0.0040 -0.8036  0.0115
                                            0.0040  0.0558 -0.0011 -0.0001  0.0246
                                           -0.0004 -0.0018  0.0002 -0.0041 -0.0002
                                           -0.0296 -0.0026 -0.0294  0.0037 -0.0016
                                            0.0027  0.0092 -0.0015  0.0010  0.0049
                                            0.0056
                ( 38.24%)   0.6184* C   6 s( 28.58%)p 2.50( 71.37%)d 0.00(  0.05%)
                                                  f 0.00(  0.00%)
                                           -0.0001  0.5345  0.0085 -0.0003 -0.0017
                                            0.3230  0.0284  0.0077  0.7778  0.0243
                                            0.0035 -0.0535 -0.0008  0.0002 -0.0039
                                            0.0132  0.0000 -0.0008 -0.0011 -0.0013
                                            0.0005 -0.0133 -0.0061 -0.0075 -0.0004
                                            0.0016  0.0018 -0.0003  0.0001 -0.0019
                                           -0.0002
    15. (1.97932) BD ( 1) N   5 - C  13  
                ( 65.15%)   0.8071* N   5 s( 35.41%)p 1.82( 64.38%)d 0.01(  0.20%)
                                                  f 0.00(  0.01%)
                                           -0.0001  0.5950 -0.0097 -0.0021  0.0001
                                           -0.5870 -0.0106  0.0077  0.5459 -0.0180
                                           -0.0038 -0.0254  0.0010  0.0000 -0.0316
                                           -0.0026  0.0022  0.0002 -0.0031  0.0007
                                            0.0141 -0.0013 -0.0280  0.0038  0.0007
                                            0.0061 -0.0048  0.0003  0.0006  0.0035
                                            0.0055
                ( 34.85%)   0.5904* C  13 s( 27.72%)p 2.61( 72.23%)d 0.00(  0.05%)
                                                  f 0.00(  0.00%)
                                           -0.0004  0.5241  0.0502  0.0048 -0.0001
                                            0.7065  0.0280  0.0169 -0.4697 -0.0075
                                           -0.0032  0.0365 -0.0010  0.0014  0.0091
                                           -0.0151 -0.0005  0.0014 -0.0019 -0.0008
                                           -0.0078  0.0039 -0.0098 -0.0055 -0.0002
                                            0.0038 -0.0003  0.0000  0.0008  0.0030
                                           -0.0009
    16. (1.97840) BD ( 1) C   6 - C   7  
                ( 50.00%)   0.7071* C   6 s( 36.89%)p 1.71( 62.97%)d 0.00(  0.13%)
                                                  f 0.00(  0.01%)
                                           -0.0000  0.6073  0.0069  0.0045  0.0003
                                           -0.7875 -0.0217  0.0061 -0.0879 -0.0285
                                           -0.0142  0.0165  0.0015  0.0009 -0.0089
                                            0.0061  0.0004 -0.0006 -0.0004  0.0002
                                            0.0268  0.0047 -0.0215 -0.0001 -0.0001
                                            0.0070 -0.0007  0.0002  0.0003 -0.0056
                                           -0.0015
                ( 50.00%)   0.7071* C   7 s( 36.89%)p 1.71( 62.97%)d 0.00(  0.13%)
                                                  f 0.00(  0.01%)
                                           -0.0000  0.6073  0.0069  0.0045  0.0003
                                            0.7876  0.0217 -0.0061 -0.0866 -0.0285
                                           -0.0142  0.0168  0.0015  0.0009  0.0090
                                           -0.0061 -0.0004  0.0006 -0.0004  0.0002
                                            0.0268  0.0048 -0.0215 -0.0001 -0.0001
                                           -0.0070 -0.0007  0.0003 -0.0003  0.0056
                                           -0.0015
    17. (1.87586) BD ( 2) C   6 - C   7  
                ( 50.00%)   0.7071* C   6 s(  0.00%)p 1.00( 99.92%)d 0.00(  0.05%)
                                                  f 0.00(  0.03%)
                                           -0.0000 -0.0066  0.0004  0.0000 -0.0000
                                            0.0080  0.0002  0.0001  0.0698 -0.0016
                                            0.0005  0.9967 -0.0278  0.0049 -0.0012
                                           -0.0005 -0.0209 -0.0055  0.0047 -0.0005
                                           -0.0006 -0.0000 -0.0005  0.0000 -0.0144
                                            0.0004 -0.0019  0.0049 -0.0051  0.0004
                                            0.0004
                ( 50.00%)   0.7071* C   7 s(  0.00%)p 1.00( 99.92%)d 0.00(  0.05%)
                                                  f 0.00(  0.03%)
                                           -0.0000 -0.0066  0.0004 -0.0000 -0.0000
                                           -0.0085 -0.0001 -0.0001  0.0698 -0.0016
                                            0.0005  0.9967 -0.0278  0.0049  0.0012
                                            0.0005  0.0209  0.0055  0.0047 -0.0005
                                           -0.0007 -0.0000 -0.0005  0.0001 -0.0144
                                           -0.0004 -0.0019  0.0049  0.0051 -0.0004
                                            0.0004
    18. (1.97910) BD ( 1) C   6 - H  30  
                ( 62.77%)   0.7923* C   6 s( 34.40%)p 1.90( 65.53%)d 0.00(  0.05%)
                                                  f 0.00(  0.01%)
                                           -0.0004  0.5865 -0.0074 -0.0036  0.0008
                                            0.5223 -0.0118 -0.0117 -0.6167  0.0067
                                           -0.0015  0.0429 -0.0003  0.0002 -0.0209
                                           -0.0029  0.0014  0.0002 -0.0014 -0.0002
                                           -0.0041 -0.0008 -0.0083 -0.0028 -0.0010
                                           -0.0044  0.0057 -0.0004 -0.0009 -0.0055
                                           -0.0032
                ( 37.23%)   0.6102* H  30 s( 99.95%)p 0.00(  0.05%)
                                            0.9997  0.0014 -0.0003 -0.0139  0.0184
                                           -0.0013
    19. (1.98251) BD ( 1) C   7 - N   8  
                ( 38.24%)   0.6184* C   7 s( 28.58%)p 2.50( 71.37%)d 0.00(  0.05%)
                                                  f 0.00(  0.00%)
                                            0.0001 -0.5345 -0.0085  0.0003  0.0017
                                            0.3243  0.0284  0.0078 -0.7773 -0.0242
                                           -0.0035  0.0536  0.0008 -0.0002 -0.0039
                                            0.0133  0.0000 -0.0008  0.0011  0.0013
                                           -0.0005  0.0133  0.0061  0.0075  0.0004
                                            0.0016 -0.0018  0.0003  0.0001 -0.0019
                                            0.0002
                ( 61.76%)   0.7859* N   8 s( 31.55%)p 2.16( 68.20%)d 0.01(  0.24%)
                                                  f 0.00(  0.02%)
                                            0.0001 -0.5616  0.0051  0.0013 -0.0004
                                           -0.1823 -0.0142  0.0041  0.8036 -0.0115
                                           -0.0040 -0.0506  0.0010  0.0002  0.0247
                                           -0.0004 -0.0017  0.0002  0.0041  0.0002
                                            0.0295  0.0026  0.0294 -0.0037  0.0015
                                            0.0027 -0.0092  0.0015  0.0010  0.0049
                                           -0.0056
    20. (1.97910) BD ( 1) C   7 - H  31  
                ( 62.77%)   0.7923* C   7 s( 34.40%)p 1.90( 65.53%)d 0.00(  0.05%)
                                                  f 0.00(  0.01%)
                                            0.0004 -0.5865  0.0074  0.0036 -0.0008
                                            0.5213 -0.0118 -0.0117  0.6176 -0.0067
                                            0.0015 -0.0427  0.0003 -0.0002 -0.0209
                                           -0.0029  0.0014  0.0002  0.0014  0.0002
                                            0.0041  0.0008  0.0083  0.0028  0.0010
                                           -0.0044 -0.0057  0.0004 -0.0009 -0.0055
                                            0.0032
                ( 37.23%)   0.6102* H  31 s( 99.95%)p 0.00(  0.05%)
                                           -0.9997 -0.0014  0.0003 -0.0139 -0.0184
                                            0.0013
    21. (1.97991) BD ( 1) N   8 - C   9  
                ( 63.32%)   0.7958* N   8 s( 32.85%)p 2.04( 67.03%)d 0.00(  0.10%)
                                                  f 0.00(  0.02%)
                                            0.0001 -0.5731 -0.0097 -0.0028  0.0006
                                            0.7874  0.0235 -0.0062 -0.2188 -0.0012
                                            0.0032  0.0434  0.0008 -0.0004  0.0139
                                           -0.0001 -0.0055  0.0006  0.0014 -0.0004
                                           -0.0235 -0.0019  0.0144 -0.0006 -0.0016
                                           -0.0094  0.0023  0.0013 -0.0009  0.0066
                                           -0.0060
                ( 36.68%)   0.6056* C   9 s( 21.21%)p 3.71( 78.75%)d 0.00(  0.04%)
                                                  f 0.00(  0.01%)
                                            0.0000 -0.4605 -0.0053 -0.0033  0.0010
                                           -0.8599 -0.0016 -0.0044  0.2064  0.0016
                                            0.0047 -0.0731 -0.0025 -0.0018 -0.0085
                                            0.0004  0.0034 -0.0002 -0.0007  0.0002
                                            0.0148 -0.0036 -0.0090  0.0033  0.0011
                                           -0.0041 -0.0034  0.0019 -0.0007  0.0016
                                           -0.0044
    22. (1.97931) BD ( 1) N   8 - C  13  
                ( 65.15%)   0.8071* N   8 s( 35.41%)p 1.82( 64.38%)d 0.01(  0.20%)
                                                  f 0.00(  0.01%)
                                           -0.0001  0.5950 -0.0097 -0.0021  0.0001
                                            0.5862  0.0107 -0.0077  0.5467 -0.0180
                                           -0.0038 -0.0265  0.0010  0.0000  0.0317
                                            0.0026 -0.0022 -0.0002 -0.0031  0.0007
                                            0.0140 -0.0013 -0.0280  0.0038  0.0007
                                           -0.0061 -0.0048  0.0003 -0.0006 -0.0036
                                            0.0055
                ( 34.85%)   0.5904* C  13 s( 27.72%)p 2.61( 72.23%)d 0.00(  0.05%)
                                                  f 0.00(  0.00%)
                                           -0.0004  0.5241  0.0502  0.0048 -0.0001
                                           -0.7057 -0.0280 -0.0169 -0.4709 -0.0076
                                           -0.0033  0.0363 -0.0010  0.0014 -0.0091
                                            0.0151  0.0005 -0.0014 -0.0019 -0.0008
                                           -0.0078  0.0039 -0.0098 -0.0055 -0.0002
                                           -0.0038 -0.0003  0.0000 -0.0008 -0.0029
                                           -0.0009
    23. (1.87251) BD ( 2) N   8 - C  13  
                ( 76.19%)   0.8729* N   8 s(  0.01%)p99.99( 99.92%)d 3.05(  0.05%)
                                                  f 1.42(  0.02%)
                                            0.0000  0.0122 -0.0013  0.0001 -0.0001
                                           -0.0279  0.0011 -0.0005  0.0650 -0.0011
                                            0.0007  0.9970 -0.0057  0.0143  0.0010
                                           -0.0002  0.0210 -0.0031 -0.0001  0.0025
                                           -0.0003 -0.0000 -0.0006  0.0001 -0.0139
                                            0.0004 -0.0020  0.0019  0.0032 -0.0003
                                            0.0002
                ( 23.81%)   0.4880* C  13 s(  0.06%)p99.99( 99.71%)d 3.56(  0.22%)
                                                  f 0.05(  0.00%)
                                            0.0000 -0.0242 -0.0058  0.0014  0.0001
                                           -0.0002  0.0020 -0.0009  0.0495 -0.0016
                                            0.0008  0.9967  0.0327 -0.0150  0.0001
                                           -0.0016 -0.0125 -0.0213 -0.0332 -0.0217
                                            0.0026  0.0020  0.0039  0.0016 -0.0056
                                            0.0002 -0.0005 -0.0016  0.0004  0.0000
                                           -0.0003
    24. (1.97589) BD ( 1) C   9 - C  10  
                ( 51.27%)   0.7160* C   9 s( 26.68%)p 2.75( 73.29%)d 0.00(  0.02%)
                                                  f 0.00(  0.00%)
                                           -0.0001  0.5165 -0.0009 -0.0005  0.0002
                                           -0.1951 -0.0012 -0.0053  0.5583 -0.0023
                                           -0.0017  0.6190  0.0003  0.0001  0.0036
                                           -0.0000 -0.0007 -0.0061 -0.0058  0.0108
                                            0.0023 -0.0035 -0.0019  0.0041 -0.0009
                                           -0.0013  0.0022  0.0011  0.0013  0.0029
                                           -0.0013
                ( 48.73%)   0.6981* C  10 s( 28.62%)p 2.49( 71.15%)d 0.01(  0.21%)
                                                  f 0.00(  0.02%)
                                            0.0003  0.5348  0.0013 -0.0117  0.0002
                                            0.2185 -0.0004 -0.0051 -0.5283 -0.0037
                                            0.0119 -0.6199 -0.0041  0.0137 -0.0132
                                           -0.0003 -0.0156  0.0001  0.0366  0.0008
                                           -0.0135  0.0006  0.0139  0.0005  0.0024
                                            0.0036 -0.0092  0.0037  0.0045 -0.0055
                                            0.0020
    25. (1.97485) BD ( 1) C   9 - C  11  
                ( 51.11%)   0.7149* C   9 s( 26.44%)p 2.78( 73.54%)d 0.00(  0.02%)
                                                  f 0.00(  0.00%)
                                           -0.0001  0.5142 -0.0015 -0.0004  0.0002
                                           -0.1274 -0.0019 -0.0057  0.3407 -0.0007
                                           -0.0013 -0.7765 -0.0008  0.0005  0.0027
                                            0.0021  0.0001  0.0042  0.0048 -0.0076
                                            0.0008 -0.0006 -0.0047  0.0103 -0.0009
                                           -0.0005  0.0014 -0.0009 -0.0012  0.0035
                                           -0.0016
                ( 48.89%)   0.6992* C  11 s( 28.87%)p 2.46( 70.90%)d 0.01(  0.21%)
                                                  f 0.00(  0.02%)
                                            0.0003  0.5372  0.0016 -0.0124  0.0002
                                            0.1392 -0.0000 -0.0042 -0.3091 -0.0025
                                            0.0077  0.7705  0.0046 -0.0180 -0.0052
                                           -0.0002  0.0129 -0.0000 -0.0273 -0.0003
                                           -0.0047  0.0006  0.0341  0.0009  0.0063
                                            0.0044 -0.0095 -0.0008 -0.0026 -0.0035
                                            0.0024
    26. (1.97882) BD ( 1) C   9 - C  12  
                ( 51.17%)   0.7153* C   9 s( 25.66%)p 2.90( 74.31%)d 0.00(  0.03%)
                                                  f 0.00(  0.00%)
                                           -0.0001  0.5065 -0.0003 -0.0015  0.0003
                                           -0.4535  0.0057 -0.0025 -0.7274  0.0085
                                            0.0017  0.0906 -0.0003 -0.0000 -0.0037
                                            0.0131  0.0002 -0.0018  0.0009 -0.0027
                                            0.0021 -0.0074  0.0026 -0.0083 -0.0014
                                           -0.0028  0.0025 -0.0000 -0.0005  0.0019
                                           -0.0008
                ( 48.83%)   0.6988* C  12 s( 29.49%)p 2.38( 70.29%)d 0.01(  0.20%)
                                                  f 0.00(  0.02%)
                                            0.0003  0.5429 -0.0112  0.0060  0.0001
                                            0.5033  0.0029 -0.0125  0.6649  0.0073
                                           -0.0147 -0.0841 -0.0010  0.0017  0.0360
                                           -0.0002 -0.0045  0.0001 -0.0063 -0.0002
                                           -0.0113 -0.0001 -0.0221 -0.0005  0.0028
                                           -0.0017 -0.0078  0.0009 -0.0014 -0.0086
                                            0.0043
    27. (1.98557) BD ( 1) C  10 - H  32  
                ( 61.10%)   0.7817* C  10 s( 23.10%)p 3.32( 76.75%)d 0.01(  0.15%)
                                                  f 0.00(  0.01%)
                                           -0.0001  0.4806 -0.0027  0.0048  0.0001
                                            0.1256 -0.0003 -0.0019 -0.3784  0.0077
                                           -0.0018  0.7800  0.0005  0.0084 -0.0060
                                            0.0007  0.0112 -0.0000 -0.0307  0.0000
                                           -0.0059  0.0002  0.0178  0.0022  0.0041
                                            0.0022 -0.0047 -0.0015 -0.0014 -0.0042
                                            0.0024
                ( 38.90%)   0.6237* H  32 s( 99.97%)p 0.00(  0.03%)
                                            0.9998  0.0013  0.0001 -0.0025  0.0076
                                           -0.0158
    28. (1.98182) BD ( 1) C  10 - H  33  
                ( 61.18%)   0.7822* C  10 s( 23.07%)p 3.33( 76.77%)d 0.01(  0.16%)
                                                  f 0.00(  0.01%)
                                            0.0002 -0.4803  0.0012 -0.0057 -0.0001
                                            0.8500 -0.0036  0.0059 -0.2037 -0.0039
                                           -0.0036  0.0603 -0.0047 -0.0025  0.0086
                                            0.0016 -0.0132  0.0016  0.0055 -0.0007
                                           -0.0313  0.0002  0.0171  0.0010 -0.0012
                                           -0.0024  0.0047  0.0010  0.0023  0.0046
                                           -0.0039
                ( 38.82%)   0.6230* H  33 s( 99.97%)p 0.00(  0.03%)
                                           -0.9998 -0.0009 -0.0001 -0.0173  0.0034
                                           -0.0017
    29. (1.97955) BD ( 1) C  10 - H  34  
                ( 61.85%)   0.7864* C  10 s( 25.16%)p 2.97( 74.69%)d 0.01(  0.13%)
                                                  f 0.00(  0.01%)
                                            0.0000  0.5016  0.0040  0.0002 -0.0003
                                            0.4606 -0.0008 -0.0057  0.7306  0.0019
                                            0.0045 -0.0287  0.0075  0.0020  0.0279
                                            0.0035 -0.0001 -0.0022 -0.0102  0.0009
                                           -0.0077 -0.0006 -0.0195 -0.0003  0.0009
                                            0.0002 -0.0056 -0.0020 -0.0012 -0.0080
                                            0.0021
                ( 38.15%)   0.6177* H  34 s( 99.96%)p 0.00(  0.04%)
                                            0.9998  0.0006  0.0005 -0.0107 -0.0161
                                           -0.0005
    30. (1.98238) BD ( 1) C  11 - H  35  
                ( 61.18%)   0.7822* C  11 s( 23.12%)p 3.32( 76.72%)d 0.01(  0.15%)
                                                  f 0.00(  0.01%)
                                            0.0002 -0.4808  0.0011 -0.0050 -0.0001
                                            0.8313 -0.0032  0.0057 -0.2643 -0.0021
                                           -0.0024  0.0780  0.0051  0.0038  0.0157
                                            0.0013  0.0040 -0.0018 -0.0035  0.0009
                                           -0.0280 -0.0004  0.0213  0.0004 -0.0025
                                           -0.0012  0.0036 -0.0009 -0.0021  0.0046
                                           -0.0053
                ( 38.82%)   0.6230* H  35 s( 99.97%)p 0.00(  0.03%)
                                           -0.9998 -0.0009 -0.0000 -0.0167  0.0050
                                           -0.0011
    31. (1.98595) BD ( 1) C  11 - H  36  
                ( 61.07%)   0.7815* C  11 s( 23.31%)p 3.28( 76.54%)d 0.01(  0.15%)
                                                  f 0.00(  0.01%)
                                           -0.0001  0.4827 -0.0018  0.0048  0.0002
                                            0.1411 -0.0004 -0.0010 -0.6137  0.0069
                                           -0.0024 -0.6072 -0.0028 -0.0074 -0.0097
                                            0.0005 -0.0088  0.0000  0.0325  0.0009
                                           -0.0166 -0.0004 -0.0025  0.0023  0.0006
                                            0.0013 -0.0050  0.0027  0.0011 -0.0046
                                            0.0042
                ( 38.93%)   0.6239* H  36 s( 99.97%)p 0.00(  0.03%)
                                            0.9998  0.0014  0.0000 -0.0029  0.0123
                                            0.0125
    32. (1.98041) BD ( 1) C  11 - H  37  
                ( 61.50%)   0.7842* C  11 s( 24.64%)p 3.05( 75.20%)d 0.01(  0.15%)
                                                  f 0.00(  0.01%)
                                           -0.0000  0.4964  0.0029  0.0015 -0.0003
                                            0.5176 -0.0017 -0.0003  0.6753  0.0001
                                            0.0023 -0.1675 -0.0047 -0.0063  0.0285
                                            0.0036 -0.0073  0.0014  0.0011 -0.0026
                                           -0.0059  0.0002 -0.0239  0.0010  0.0025
                                           -0.0007 -0.0036  0.0032 -0.0012 -0.0074
                                            0.0049
                ( 38.50%)   0.6205* H  37 s( 99.97%)p 0.00(  0.03%)
                                            0.9998  0.0017  0.0002 -0.0108 -0.0141
                                            0.0044
    33. (1.98716) BD ( 1) C  12 - H  38  
                ( 61.33%)   0.7832* C  12 s( 23.72%)p 3.21( 76.12%)d 0.01(  0.15%)
                                                  f 0.00(  0.01%)
                                            0.0001 -0.4870 -0.0031  0.0019  0.0001
                                           -0.1171  0.0048  0.0045  0.3872  0.0049
                                            0.0030 -0.7730  0.0032 -0.0048  0.0109
                                           -0.0015 -0.0124  0.0011  0.0192  0.0023
                                            0.0005  0.0012 -0.0289 -0.0005 -0.0018
                                           -0.0039  0.0064  0.0014 -0.0013  0.0016
                                           -0.0020
                ( 38.67%)   0.6218* H  38 s( 99.97%)p 0.00(  0.03%)
                                           -0.9998 -0.0015 -0.0000  0.0015 -0.0077
                                            0.0157
    34. (1.98735) BD ( 1) C  12 - H  39  
                ( 61.25%)   0.7827* C  12 s( 23.79%)p 3.20( 76.06%)d 0.01(  0.15%)
                                                  f 0.00(  0.01%)
                                            0.0001 -0.4877 -0.0033  0.0014  0.0001
                                           -0.1496  0.0052  0.0047  0.5893  0.0041
                                            0.0039  0.6252 -0.0043  0.0039  0.0157
                                           -0.0019  0.0105 -0.0005 -0.0286 -0.0021
                                            0.0067  0.0023 -0.0153  0.0004 -0.0030
                                           -0.0041  0.0050 -0.0030 -0.0004  0.0015
                                           -0.0029
                ( 38.75%)   0.6225* H  39 s( 99.97%)p 0.00(  0.03%)
                                           -0.9998 -0.0015 -0.0000  0.0020 -0.0120
                                           -0.0130
    35. (1.98039) BD ( 1) C  12 - H  40  
                ( 61.71%)   0.7855* C  12 s( 22.94%)p 3.35( 76.90%)d 0.01(  0.15%)
                                                  f 0.00(  0.01%)
                                            0.0001 -0.4790 -0.0044  0.0014 -0.0001
                                            0.8415 -0.0031  0.0067 -0.2403  0.0087
                                            0.0034  0.0541 -0.0012 -0.0002  0.0273
                                           -0.0012 -0.0054  0.0002  0.0013 -0.0000
                                           -0.0224 -0.0021  0.0157  0.0008 -0.0020
                                           -0.0051  0.0047 -0.0005 -0.0008  0.0033
                                           -0.0018
                ( 38.29%)   0.6188* H  40 s( 99.97%)p 0.00(  0.03%)
                                           -0.9999 -0.0008 -0.0001 -0.0163  0.0053
                                           -0.0011
    36. (1.88010) BD ( 1) C  13 -Ni  14  
                ( 77.72%)   0.8816* C  13 s( 44.87%)p 1.23( 55.12%)d 0.00(  0.01%)
                                                  f 0.00(  0.00%)
                                            0.0008  0.6689 -0.0349 -0.0040  0.0001
                                           -0.0006  0.0001 -0.0000  0.7408 -0.0438
                                           -0.0067 -0.0208  0.0034 -0.0027 -0.0000
                                           -0.0000 -0.0004 -0.0006  0.0055 -0.0010
                                           -0.0051  0.0010 -0.0026  0.0043 -0.0004
                                            0.0000 -0.0017 -0.0011  0.0000  0.0000
                                           -0.0037
                ( 22.28%)   0.4721*Ni  14 s( 24.40%)p 2.96( 72.22%)d 0.14(  3.37%)
                                                  f 0.00(  0.00%)
                                           -0.0007  0.4937 -0.0163 -0.0039  0.0041
                                            0.0003 -0.0000  0.0004 -0.0000  0.0000
                                            0.0000 -0.0001 -0.8410  0.0203 -0.0026
                                            0.0002 -0.0009 -0.1206 -0.0009  0.0006
                                           -0.0000 -0.0002 -0.0000 -0.0000 -0.0000
                                            0.0000 -0.0000  0.0306 -0.0036 -0.0012
                                           -0.1545 -0.0039 -0.0036 -0.0942 -0.0019
                                            0.0013 -0.0002 -0.0000  0.0011  0.0000
                                            0.0000 -0.0000  0.0020
    37. (1.93877) BD ( 1)Ni  14 - C  15  
                ( 24.37%)   0.4937*Ni  14 s( 25.15%)p 2.87( 72.14%)d 0.11(  2.71%)
                                                  f 0.00(  0.00%)
                                           -0.0031  0.5015  0.0006  0.0004  0.0003
                                           -0.0005  0.0007  0.6926  0.0008  0.0018
                                            0.0000 -0.0011  0.3349  0.0089  0.0017
                                            0.0000 -0.0000 -0.3597 -0.0022 -0.0010
                                           -0.0001  0.0800  0.0239  0.0049 -0.1113
                                           -0.0063 -0.0010 -0.0404 -0.0138 -0.0016
                                            0.0713  0.0028 -0.0020 -0.0258 -0.0100
                                            0.0005  0.0017  0.0001  0.0000 -0.0015
                                           -0.0031  0.0003  0.0025
                ( 75.63%)   0.8697* C  15 s( 69.60%)p 0.44( 30.34%)d 0.00(  0.04%)
                                                  f 0.00(  0.02%)
                                            0.0011  0.8325  0.0549 -0.0015 -0.0002
                                           -0.3800  0.0201  0.0079 -0.3385  0.0192
                                            0.0048  0.2083 -0.0124 -0.0042 -0.0006
                                            0.0128 -0.0005 -0.0100  0.0003 -0.0071
                                            0.0016  0.0057  0.0004 -0.0046 -0.0061
                                            0.0011  0.0006  0.0036  0.0083  0.0013
                                           -0.0082
    38. (1.93874) BD ( 1)Ni  14 - C  17  
                ( 24.37%)   0.4936*Ni  14 s( 25.14%)p 2.87( 72.15%)d 0.11(  2.71%)
                                                  f 0.00(  0.00%)
                                           -0.0031  0.5014  0.0006  0.0004  0.0003
                                           -0.0005 -0.0007 -0.6939 -0.0008 -0.0018
                                           -0.0000 -0.0011  0.3340  0.0090  0.0017
                                            0.0000 -0.0000 -0.3583 -0.0021 -0.0010
                                           -0.0001 -0.0799 -0.0239 -0.0049  0.1110
                                            0.0063  0.0010 -0.0401 -0.0138 -0.0016
                                            0.0716  0.0029 -0.0020 -0.0263 -0.0101
                                            0.0005  0.0017 -0.0001  0.0000 -0.0015
                                            0.0031 -0.0003  0.0025
                ( 75.63%)   0.8697* C  17 s( 69.60%)p 0.44( 30.34%)d 0.00(  0.04%)
                                                  f 0.00(  0.02%)
                                            0.0011  0.8325  0.0549 -0.0015 -0.0002
                                            0.3809 -0.0201 -0.0079 -0.3383  0.0192
                                            0.0048  0.2070 -0.0123 -0.0042  0.0006
                                           -0.0128  0.0005  0.0100  0.0003 -0.0070
                                            0.0016  0.0057  0.0004 -0.0046 -0.0061
                                           -0.0011  0.0006  0.0036 -0.0083 -0.0013
                                           -0.0082
    39. (1.93456) BD ( 1)Ni  14 - C  19  
                ( 25.21%)   0.5021*Ni  14 s( 25.24%)p 2.83( 71.51%)d 0.13(  3.25%)
                                                  f 0.00(  0.00%)
                                           -0.0037  0.5023  0.0068  0.0015 -0.0033
                                            0.0014  0.0000  0.0007 -0.0000 -0.0000
                                           -0.0000 -0.0010  0.1562 -0.0002  0.0029
                                           -0.0002  0.0006  0.8310  0.0106  0.0009
                                            0.0002  0.0000  0.0000  0.0000  0.0002
                                           -0.0000 -0.0000  0.0267  0.0098  0.0044
                                            0.0025  0.0049 -0.0011  0.1768  0.0199
                                            0.0029  0.0046  0.0000  0.0013  0.0002
                                            0.0000  0.0000 -0.0001
                ( 74.79%)   0.8648* C  19 s( 69.06%)p 0.45( 30.88%)d 0.00(  0.04%)
                                                  f 0.00(  0.02%)
                                            0.0012  0.8292  0.0541 -0.0026 -0.0003
                                           -0.0001  0.0000  0.0000 -0.1123  0.0038
                                            0.0024 -0.5432  0.0319  0.0100  0.0000
                                            0.0000  0.0000  0.0000  0.0002  0.0066
                                            0.0003  0.0002 -0.0000  0.0193 -0.0131
                                           -0.0000 -0.0067  0.0009 -0.0000  0.0000
                                           -0.0001
    40. (1.99801) BD ( 1) C  15 - O  16  
                ( 29.41%)   0.5423* C  15 s( 32.24%)p 2.10( 67.61%)d 0.00(  0.11%)
                                                  f 0.00(  0.03%)
                                            0.0002 -0.5336  0.1941 -0.0044 -0.0011
                                           -0.5387 -0.0338 -0.0044 -0.3771 -0.0325
                                           -0.0051  0.4910  0.0194  0.0065 -0.0168
                                            0.0112  0.0181 -0.0077  0.0146 -0.0070
                                           -0.0044  0.0020  0.0018 -0.0059 -0.0074
                                            0.0026  0.0022  0.0015  0.0107  0.0058
                                           -0.0092
                ( 70.59%)   0.8402* O  16 s( 45.12%)p 1.20( 54.16%)d 0.02(  0.69%)
                                                  f 0.00(  0.03%)
                                           -0.0000 -0.6716  0.0120 -0.0013 -0.0006
                                            0.4790 -0.0092 -0.0036  0.5548 -0.0096
                                           -0.0034 -0.0643  0.0036  0.0022 -0.0659
                                           -0.0009  0.0272  0.0006  0.0276  0.0006
                                           -0.0011 -0.0000  0.0321  0.0004  0.0063
                                           -0.0039 -0.0037 -0.0001 -0.0085 -0.0074
                                            0.0082
    41. (1.99756) BD ( 2) C  15 - O  16  
                ( 23.96%)   0.4895* C  15 s(  0.09%)p99.99( 99.70%)d 2.46(  0.21%)
                                                  f 0.01(  0.00%)
                                            0.0000 -0.0265  0.0124  0.0006 -0.0001
                                           -0.7378 -0.0012 -0.0063  0.4677  0.0013
                                            0.0030 -0.4834 -0.0071 -0.0061 -0.0061
                                           -0.0001 -0.0032 -0.0009 -0.0226 -0.0003
                                           -0.0366  0.0009  0.0145 -0.0014 -0.0014
                                           -0.0002 -0.0003 -0.0015  0.0012  0.0007
                                            0.0022
                ( 76.04%)   0.8720* O  16 s(  0.08%)p99.99( 99.44%)d 5.45(  0.45%)
                                                  f 0.27(  0.02%)
                                            0.0000 -0.0288 -0.0000 -0.0003 -0.0000
                                           -0.6945  0.0045 -0.0000  0.5059 -0.0025
                                           -0.0002 -0.5060  0.0032  0.0001  0.0052
                                           -0.0000  0.0065 -0.0000  0.0346 -0.0002
                                            0.0531 -0.0002 -0.0205  0.0000  0.0017
                                            0.0054  0.0037  0.0065 -0.0044 -0.0071
                                           -0.0080
    42. (1.99714) BD ( 3) C  15 - O  16  
                ( 24.04%)   0.4903* C  15 s(  1.54%)p63.82( 98.25%)d 0.14(  0.21%)
                                                  f 0.00(  0.00%)
                                           -0.0001  0.1180 -0.0385  0.0009  0.0002
                                           -0.0040  0.0153  0.0007  0.7129  0.0132
                                            0.0043  0.6883 -0.0003  0.0061  0.0199
                                           -0.0033  0.0231  0.0006  0.0090  0.0017
                                           -0.0211  0.0001 -0.0247  0.0014  0.0023
                                            0.0005  0.0017 -0.0003 -0.0035  0.0007
                                            0.0030
                ( 75.96%)   0.8716* O  16 s(  2.42%)p40.14( 97.09%)d 0.19(  0.46%)
                                                  f 0.01(  0.02%)
                                            0.0000  0.1555 -0.0032 -0.0006  0.0002
                                           -0.2426  0.0032  0.0011  0.4936 -0.0005
                                            0.0009  0.8175 -0.0059 -0.0006 -0.0078
                                            0.0004 -0.0464 -0.0001 -0.0249 -0.0000
                                            0.0325 -0.0002  0.0275 -0.0003 -0.0036
                                           -0.0066 -0.0069  0.0049  0.0070 -0.0062
                                           -0.0027
    43. (1.99801) BD ( 1) C  17 - O  18  
                ( 29.41%)   0.5423* C  17 s( 32.25%)p 2.10( 67.61%)d 0.00(  0.11%)
                                                  f 0.00(  0.03%)
                                           -0.0002  0.5337 -0.1941  0.0044  0.0011
                                           -0.5401 -0.0339 -0.0044  0.3776  0.0325
                                            0.0051 -0.4890 -0.0193 -0.0065 -0.0169
                                            0.0112  0.0181 -0.0077 -0.0146  0.0070
                                            0.0045 -0.0020 -0.0019  0.0060  0.0073
                                            0.0027 -0.0022 -0.0015  0.0107  0.0058
                                            0.0093
                ( 70.59%)   0.8402* O  18 s( 45.13%)p 1.20( 54.15%)d 0.02(  0.69%)
                                                  f 0.00(  0.03%)
                                            0.0000  0.6717 -0.0120  0.0013  0.0006
                                            0.4801 -0.0092 -0.0036 -0.5540  0.0096
                                            0.0034  0.0627 -0.0036 -0.0021 -0.0660
                                           -0.0009  0.0271  0.0006 -0.0273 -0.0006
                                            0.0013  0.0000 -0.0323 -0.0004 -0.0062
                                           -0.0040  0.0037  0.0001 -0.0084 -0.0074
                                           -0.0082
    44. (1.99756) BD ( 2) C  17 - O  18  
                ( 23.96%)   0.4894* C  17 s(  0.08%)p99.99( 99.70%)d 2.54(  0.21%)
                                                  f 0.01(  0.00%)
                                            0.0000 -0.0261  0.0123  0.0006 -0.0001
                                            0.7363  0.0011  0.0063  0.4725  0.0014
                                            0.0030 -0.4811 -0.0071 -0.0061  0.0059
                                            0.0001  0.0032  0.0009 -0.0225 -0.0003
                                           -0.0367  0.0009  0.0143 -0.0014 -0.0014
                                            0.0002 -0.0003 -0.0015 -0.0012 -0.0007
                                            0.0022
                ( 76.04%)   0.8720* O  18 s(  0.08%)p99.99( 99.45%)d 5.66(  0.45%)
                                                  f 0.28(  0.02%)
                                            0.0000 -0.0282 -0.0001 -0.0003 -0.0000
                                            0.6937 -0.0045  0.0000  0.5100 -0.0026
                                           -0.0002 -0.5031  0.0032  0.0001 -0.0050
                                            0.0000 -0.0066  0.0000  0.0345 -0.0002
                                            0.0533 -0.0002 -0.0202  0.0000  0.0017
                                           -0.0054  0.0036  0.0064  0.0044  0.0072
                                           -0.0079
    45. (1.99714) BD ( 3) C  17 - O  18  
                ( 24.04%)   0.4903* C  17 s(  1.53%)p64.01( 98.25%)d 0.14(  0.21%)
                                                  f 0.00(  0.00%)
                                           -0.0001  0.1178 -0.0384  0.0009  0.0002
                                            0.0015 -0.0153 -0.0007  0.7096  0.0131
                                            0.0043  0.6918 -0.0002  0.0061 -0.0200
                                            0.0033 -0.0232 -0.0006  0.0092  0.0017
                                           -0.0209  0.0001 -0.0246  0.0014  0.0023
                                           -0.0004  0.0017 -0.0003  0.0035 -0.0007
                                            0.0030
                ( 75.96%)   0.8716* O  18 s(  2.41%)p40.25( 97.10%)d 0.19(  0.46%)
                                                  f 0.01(  0.02%)
                                            0.0000  0.1553 -0.0032 -0.0006  0.0002
                                            0.2404 -0.0032 -0.0011  0.4907 -0.0005
                                            0.0009  0.8200 -0.0059 -0.0006  0.0078
                                           -0.0004  0.0465  0.0001 -0.0251 -0.0000
                                            0.0323 -0.0002  0.0274 -0.0003 -0.0036
                                            0.0065 -0.0068  0.0049 -0.0070  0.0062
                                           -0.0027
    46. (1.99848) BD ( 1) C  19 - O  20  
                ( 29.94%)   0.5472* C  19 s( 34.17%)p 1.92( 65.70%)d 0.00(  0.11%)
                                                  f 0.00(  0.03%)
                                           -0.0002  0.5517 -0.1929  0.0062  0.0012
                                           -0.0002  0.0000  0.0000  0.1449  0.0122
                                            0.0022  0.7954  0.0558  0.0043 -0.0000
                                           -0.0000 -0.0000 -0.0000  0.0086 -0.0061
                                           -0.0011 -0.0007  0.0260 -0.0164  0.0149
                                            0.0000  0.0078 -0.0009  0.0000 -0.0000
                                            0.0002
                ( 70.06%)   0.8370* O  20 s( 46.88%)p 1.12( 52.40%)d 0.01(  0.70%)
                                                  f 0.00(  0.02%)
                                            0.0000  0.6846 -0.0107  0.0004  0.0006
                                           -0.0004  0.0000  0.0000 -0.1614  0.0030
                                            0.0017 -0.7055  0.0128  0.0060  0.0000
                                           -0.0000  0.0000 -0.0000  0.0294  0.0005
                                           -0.0031 -0.0000  0.0784  0.0012 -0.0135
                                           -0.0000 -0.0074  0.0012 -0.0000  0.0000
                                            0.0001
    47. (1.99781) BD ( 2) C  19 - O  20  
                ( 23.67%)   0.4865* C  19 s(  0.01%)p99.99( 99.78%)d18.03(  0.21%)
                                                  f 0.06(  0.00%)
                                           -0.0000  0.0107 -0.0009  0.0014 -0.0000
                                           -0.0011  0.0000 -0.0000  0.9813  0.0036
                                            0.0103 -0.1865  0.0015 -0.0017 -0.0000
                                           -0.0000 -0.0001 -0.0000  0.0423  0.0010
                                           -0.0092 -0.0009 -0.0153 -0.0009  0.0019
                                            0.0000 -0.0017  0.0010  0.0000 -0.0000
                                            0.0004
                ( 76.33%)   0.8737* O  20 s(  0.01%)p99.99( 99.51%)d31.65(  0.45%)
                                                  f 1.55(  0.02%)
                                            0.0000  0.0119 -0.0008  0.0003  0.0000
                                           -0.0011  0.0000  0.0000  0.9749 -0.0052
                                           -0.0000 -0.2114  0.0015 -0.0001  0.0000
                                           -0.0000  0.0001 -0.0000 -0.0612  0.0004
                                            0.0132 -0.0001  0.0242 -0.0002 -0.0073
                                           -0.0000  0.0122 -0.0044 -0.0000 -0.0000
                                           -0.0005
    48. (1.99742) BD ( 3) C  19 - O  20  
                ( 23.75%)   0.4873* C  19 s(  0.00%)p 1.00( 99.79%)d 0.00(  0.21%)
                                                  f 0.00(  0.00%)
                                           -0.0000  0.0002 -0.0001  0.0000  0.0000
                                            0.9989  0.0014  0.0095  0.0011  0.0000
                                            0.0000 -0.0002  0.0000  0.0000  0.0095
                                            0.0024  0.0450  0.0013  0.0000 -0.0000
                                           -0.0000 -0.0000 -0.0000 -0.0000  0.0000
                                           -0.0024  0.0000  0.0000 -0.0014  0.0006
                                            0.0000
                ( 76.25%)   0.8732* O  20 s(  0.00%)p 1.00( 99.53%)d 0.00(  0.45%)
                                                  f 0.00(  0.02%)
                                           -0.0000  0.0002 -0.0000  0.0000  0.0000
                                            0.9976 -0.0054 -0.0002  0.0010 -0.0000
                                            0.0000 -0.0006  0.0000  0.0000 -0.0135
                                            0.0001 -0.0656  0.0004 -0.0001  0.0000
                                            0.0000 -0.0000  0.0001 -0.0000 -0.0000
                                            0.0141  0.0000 -0.0000  0.0046 -0.0006
                                            0.0000
    49. (1.99937) CR ( 1) C   1           s(100.00%)p 0.00(  0.00%)
                                            1.0000 -0.0000 -0.0000  0.0000 -0.0000
                                            0.0002 -0.0000 -0.0000  0.0001  0.0000
                                           -0.0000  0.0003  0.0000 -0.0000 -0.0000
                                            0.0000 -0.0000  0.0000 -0.0000 -0.0000
                                            0.0000 -0.0000 -0.0000 -0.0000 -0.0000
                                            0.0000  0.0000 -0.0000  0.0000 -0.0000
                                            0.0000
    50. (1.99936) CR ( 1) C   2           s(100.00%)
                                            1.0000  0.0001  0.0000 -0.0000  0.0000
                                            0.0000 -0.0000  0.0000 -0.0000  0.0000
                                           -0.0000 -0.0000  0.0000  0.0000 -0.0000
                                           -0.0000  0.0000  0.0000  0.0000 -0.0000
                                           -0.0000 -0.0000  0.0000 -0.0000 -0.0000
                                            0.0000  0.0000 -0.0000  0.0000 -0.0000
                                           -0.0000
    51. (1.99938) CR ( 1) C   3           s(100.00%)p 0.00(  0.00%)
                                            1.0000 -0.0000 -0.0000  0.0000 -0.0000
                                            0.0002 -0.0000 -0.0000  0.0001  0.0000
                                           -0.0000 -0.0003 -0.0000  0.0000  0.0000
                                            0.0000  0.0000 -0.0000  0.0000  0.0000
                                            0.0000 -0.0000 -0.0000 -0.0000 -0.0000
                                            0.0000  0.0000  0.0000 -0.0000  0.0000
                                            0.0000
    52. (1.99941) CR ( 1) C   4           s(100.00%)p 0.00(  0.00%)
                                            1.0000 -0.0000  0.0000 -0.0000 -0.0000
                                            0.0002  0.0000 -0.0000 -0.0002 -0.0000
                                            0.0000  0.0000  0.0000 -0.0000  0.0000
                                           -0.0000 -0.0000  0.0000  0.0000  0.0000
                                            0.0000  0.0000  0.0000  0.0000 -0.0000
                                           -0.0000  0.0000 -0.0000 -0.0000 -0.0000
                                           -0.0000
    53. (1.99938) CR ( 1) N   5           s(100.00%)
                                            1.0000  0.0002 -0.0000 -0.0000 -0.0000
                                            0.0000 -0.0000  0.0000 -0.0000 -0.0000
                                           -0.0000  0.0000 -0.0000  0.0000  0.0000
                                           -0.0000 -0.0000  0.0000 -0.0000  0.0000
                                            0.0000 -0.0000 -0.0000  0.0000  0.0000
                                           -0.0000  0.0000 -0.0000  0.0000  0.0000
                                            0.0000
    54. (1.99904) CR ( 1) C   6           s(100.00%)p 0.00(  0.00%)
                                            1.0000  0.0003 -0.0000 -0.0000  0.0000
                                            0.0002 -0.0000 -0.0000 -0.0001  0.0000
                                           -0.0000  0.0000 -0.0000  0.0000 -0.0000
                                            0.0000  0.0000 -0.0000 -0.0000 -0.0000
                                           -0.0000 -0.0000 -0.0000 -0.0000 -0.0000
                                           -0.0000  0.0000 -0.0000 -0.0000 -0.0000
                                           -0.0000
    55. (1.99904) CR ( 1) C   7           s(100.00%)p 0.00(  0.00%)
                                            1.0000  0.0003 -0.0000 -0.0000  0.0000
                                           -0.0002  0.0000  0.0000 -0.0001  0.0000
                                           -0.0000  0.0000 -0.0000  0.0000  0.0000
                                           -0.0000 -0.0000  0.0000 -0.0000 -0.0000
                                           -0.0000 -0.0000 -0.0000 -0.0000 -0.0000
                                            0.0000  0.0000 -0.0000  0.0000  0.0000
                                           -0.0000
    56. (1.99938) CR ( 1) N   8           s(100.00%)
                                            1.0000  0.0002 -0.0000 -0.0000  0.0000
                                           -0.0000  0.0000 -0.0000 -0.0000 -0.0000
                                           -0.0000 -0.0000  0.0000 -0.0000 -0.0000
                                            0.0000 -0.0000 -0.0000 -0.0000  0.0000
                                            0.0000 -0.0000 -0.0000  0.0000  0.0000
                                            0.0000  0.0000 -0.0000 -0.0000 -0.0000
                                            0.0000
    57. (1.99936) CR ( 1) C   9           s(100.00%)
                                            1.0000  0.0001  0.0000 -0.0000  0.0000
                                           -0.0000  0.0000 -0.0000 -0.0000  0.0000
                                           -0.0000 -0.0000  0.0000  0.0000  0.0000
                                            0.0000 -0.0000 -0.0000  0.0000 -0.0000
                                           -0.0000 -0.0000  0.0000 -0.0000 -0.0000
                                           -0.0000  0.0000 -0.0000 -0.0000  0.0000
                                           -0.0000
    58. (1.99937) CR ( 1) C  10           s(100.00%)p 0.00(  0.00%)
                                            1.0000 -0.0000 -0.0000  0.0000 -0.0000
                                           -0.0002  0.0000  0.0000  0.0001  0.0000
                                           -0.0000  0.0003  0.0000 -0.0000  0.0000
                                           -0.0000  0.0000 -0.0000 -0.0000 -0.0000
                                            0.0000 -0.0000 -0.0000 -0.0000 -0.0000
                                           -0.0000  0.0000 -0.0000 -0.0000  0.0000
                                            0.0000
    59. (1.99938) CR ( 1) C  11           s(100.00%)p 0.00(  0.00%)
                                            1.0000 -0.0000 -0.0000  0.0000 -0.0000
                                           -0.0002  0.0000  0.0000  0.0001  0.0000
                                           -0.0000 -0.0003 -0.0000  0.0000 -0.0000
                                           -0.0000 -0.0000  0.0000  0.0000  0.0000
                                            0.0000 -0.0000 -0.0000 -0.0000 -0.0000
                                           -0.0000  0.0000  0.0000  0.0000 -0.0000
                                            0.0000
    60. (1.99941) CR ( 1) C  12           s(100.00%)p 0.00(  0.00%)
                                            1.0000 -0.0000  0.0000 -0.0000 -0.0000
                                           -0.0002 -0.0000  0.0000 -0.0002 -0.0000
                                            0.0000  0.0000  0.0000 -0.0000 -0.0000
                                            0.0000  0.0000 -0.0000  0.0000  0.0000
                                            0.0000  0.0000  0.0000  0.0000 -0.0000
                                            0.0000  0.0000 -0.0000  0.0000  0.0000
                                           -0.0000
    61. (1.99908) CR ( 1) C  13           s(100.00%)p 0.00(  0.00%)
                                            1.0000 -0.0001  0.0001  0.0000 -0.0000
                                            0.0000 -0.0000  0.0000 -0.0010  0.0000
                                            0.0000  0.0000 -0.0000  0.0000 -0.0000
                                            0.0000  0.0000  0.0000 -0.0000  0.0000
                                           -0.0000  0.0000 -0.0000 -0.0000  0.0000
                                           -0.0000  0.0000  0.0000 -0.0000 -0.0000
                                            0.0000
    62. (1.99089) CR ( 1)Ni  14           s(100.00%)p 0.00(  0.00%)d 0.00(  0.00%)
                                            1.0000  0.0053  0.0000  0.0000 -0.0000
                                            0.0000  0.0000 -0.0000 -0.0000 -0.0000
                                            0.0000 -0.0000  0.0022  0.0001  0.0000
                                           -0.0000  0.0000  0.0009  0.0000 -0.0000
                                            0.0000 -0.0000 -0.0000 -0.0000 -0.0000
                                            0.0000 -0.0000 -0.0008 -0.0001  0.0000
                                           -0.0005  0.0000 -0.0000 -0.0000  0.0000
                                            0.0000  0.0000  0.0000  0.0000 -0.0000
                                           -0.0000 -0.0000  0.0000
    63. (1.99753) CR ( 2)Ni  14           s(  0.00%)p 1.00(100.00%)d 0.00(  0.00%)
                                            0.0000 -0.0000 -0.0000 -0.0000  0.0000
                                           -0.0000  1.0000 -0.0011 -0.0000  0.0000
                                           -0.0000  0.0000 -0.0000  0.0000 -0.0000
                                            0.0000 -0.0000 -0.0000 -0.0000  0.0000
                                            0.0000  0.0014 -0.0000 -0.0000  0.0002
                                            0.0000 -0.0000 -0.0000 -0.0000 -0.0000
                                           -0.0000  0.0000  0.0000  0.0000 -0.0000
                                            0.0000 -0.0000 -0.0000 -0.0000  0.0000
                                            0.0000 -0.0000 -0.0000
    64. (1.99839) CR ( 3)Ni  14           s(  0.00%)p 1.00(100.00%)d 0.00(  0.00%)
                                           -0.0000  0.0017  0.0000  0.0000  0.0000
                                           -0.0000  0.0000 -0.0000 -0.0000 -0.0000
                                           -0.0000  1.0000  0.0010  0.0000  0.0000
                                            0.0000  0.0000  0.0002  0.0000 -0.0000
                                            0.0000 -0.0000 -0.0000 -0.0000 -0.0000
                                            0.0000 -0.0000 -0.0001 -0.0000  0.0000
                                           -0.0010  0.0000 -0.0000 -0.0006  0.0000
                                           -0.0000  0.0000  0.0000  0.0000 -0.0000
                                           -0.0000 -0.0000  0.0000
    65. (1.99750) CR ( 4)Ni  14           s(  0.00%)p 1.00(100.00%)d 0.00(  0.00%)
                                            0.0000  0.0001 -0.0000 -0.0000  0.0000
                                            0.0000 -0.0000 -0.0000  0.0000  0.0000
                                            0.0000  0.0000 -0.0009  0.0000 -0.0000
                                            0.0000  1.0000 -0.0008 -0.0000  0.0000
                                           -0.0000 -0.0000 -0.0000 -0.0000 -0.0000
                                            0.0000  0.0000  0.0008 -0.0000 -0.0000
                                            0.0003 -0.0000  0.0000  0.0006 -0.0000
                                            0.0000 -0.0000 -0.0000  0.0000 -0.0000
                                            0.0000 -0.0000  0.0000
    66. (1.99908) CR ( 1) C  15           s(100.00%)p 0.00(  0.00%)
                                            1.0000 -0.0008 -0.0001  0.0000  0.0000
                                            0.0005 -0.0000 -0.0000  0.0005 -0.0000
                                           -0.0000 -0.0002  0.0000  0.0000  0.0000
                                           -0.0000 -0.0000  0.0000 -0.0000  0.0000
                                           -0.0000 -0.0000 -0.0000  0.0000  0.0000
                                           -0.0000 -0.0000 -0.0000 -0.0000 -0.0000
                                            0.0000
    67. (1.99977) CR ( 1) O  16           s(100.00%)p 0.00(  0.00%)
                                            1.0000  0.0003  0.0000 -0.0000 -0.0000
                                            0.0002  0.0000  0.0000  0.0002  0.0000
                                            0.0000 -0.0001 -0.0000 -0.0000 -0.0000
                                           -0.0000  0.0000  0.0000  0.0000  0.0000
                                           -0.0000 -0.0000  0.0000  0.0000  0.0000
                                           -0.0000 -0.0000 -0.0000 -0.0000 -0.0000
                                            0.0000
    68. (1.99908) CR ( 1) C  17           s(100.00%)p 0.00(  0.00%)
                                            1.0000 -0.0008 -0.0001  0.0000  0.0000
                                           -0.0005  0.0000  0.0000  0.0005 -0.0000
                                           -0.0000 -0.0002  0.0000  0.0000 -0.0000
                                            0.0000  0.0000 -0.0000 -0.0000  0.0000
                                           -0.0000 -0.0000 -0.0000  0.0000  0.0000
                                            0.0000 -0.0000 -0.0000  0.0000  0.0000
                                            0.0000
    69. (1.99977) CR ( 1) O  18           s(100.00%)p 0.00(  0.00%)
                                            1.0000  0.0003  0.0000 -0.0000 -0.0000
                                           -0.0002 -0.0000 -0.0000  0.0002  0.0000
                                            0.0000 -0.0001 -0.0000 -0.0000  0.0000
                                            0.0000 -0.0000 -0.0000  0.0000  0.0000
                                           -0.0000 -0.0000  0.0000  0.0000  0.0000
                                            0.0000 -0.0000 -0.0000  0.0000  0.0000
                                            0.0000
    70. (1.99910) CR ( 1) C  19           s(100.00%)p 0.00(  0.00%)
                                            1.0000 -0.0008 -0.0001  0.0000  0.0000
                                            0.0000  0.0000 -0.0000  0.0002 -0.0000
                                           -0.0000  0.0008 -0.0000 -0.0000 -0.0000
                                           -0.0000  0.0000 -0.0000  0.0000 -0.0000
                                           -0.0000 -0.0000  0.0000 -0.0000  0.0000
                                            0.0000  0.0000 -0.0000  0.0000 -0.0000
                                            0.0000
    71. (1.99976) CR ( 1) O  20           s(100.00%)p 0.00(  0.00%)
                                            1.0000  0.0003  0.0000 -0.0000 -0.0000
                                            0.0000  0.0000  0.0000  0.0001  0.0000
                                            0.0000  0.0003  0.0000  0.0000 -0.0000
                                           -0.0000 -0.0000 -0.0000 -0.0000 -0.0000
                                            0.0000  0.0000 -0.0000 -0.0000  0.0000
                                            0.0000  0.0000 -0.0000  0.0000 -0.0000
                                           -0.0000
    72. (1.53293) LP ( 1) N   5           s(  0.00%)p 1.00( 99.94%)d 0.00(  0.03%)
                                                  f 0.00(  0.02%)
                                            0.0000  0.0034 -0.0010  0.0000 -0.0001
                                            0.0224 -0.0015  0.0005  0.0667 -0.0008
                                            0.0006  0.9971 -0.0044  0.0141 -0.0012
                                            0.0002 -0.0176  0.0031 -0.0040  0.0010
                                           -0.0006 -0.0001  0.0001  0.0002 -0.0139
                                           -0.0005 -0.0021  0.0012 -0.0023  0.0002
                                            0.0000
    73. (1.89872) LP ( 1)Ni  14           s(  0.00%)p 1.00(  0.68%)d99.99( 99.32%)
                                                  f 0.00(  0.00%)
                                            0.0000  0.0001 -0.0000  0.0000 -0.0000
                                            0.0000 -0.0015 -0.0817 -0.0093  0.0046
                                           -0.0001  0.0000  0.0001 -0.0000 -0.0000
                                            0.0000 -0.0000 -0.0002 -0.0000  0.0000
                                           -0.0000  0.9775 -0.0007 -0.0031  0.1939
                                           -0.0057 -0.0053  0.0029 -0.0000 -0.0000
                                           -0.0013 -0.0000  0.0000 -0.0001  0.0000
                                            0.0000 -0.0000 -0.0005  0.0000  0.0000
                                           -0.0011 -0.0012 -0.0000
    74. (1.88321) LP ( 2)Ni  14           s(  0.01%)p 1.00(  0.96%)d99.99( 99.03%)
                                                  f 0.00(  0.00%)
                                            0.0007  0.0076 -0.0013  0.0023 -0.0004
                                            0.0013  0.0000  0.0002  0.0000 -0.0000
                                            0.0000  0.0001  0.0402  0.0002 -0.0015
                                            0.0000 -0.0010 -0.0888 -0.0087  0.0059
                                           -0.0003 -0.0028 -0.0000  0.0000 -0.0009
                                            0.0000  0.0000  0.9693 -0.0035 -0.0067
                                           -0.0641  0.0017 -0.0005  0.2158  0.0017
                                            0.0010 -0.0004 -0.0000  0.0015 -0.0004
                                            0.0000  0.0000 -0.0009
    75. (1.81292) LP ( 3)Ni  14           s(  0.00%)p 1.00(  3.09%)d31.32( 96.90%)
                                                  f 0.00(  0.00%)
                                            0.0000  0.0004  0.0002 -0.0000 -0.0001
                                            0.0000  0.0003  0.1758 -0.0053 -0.0031
                                           -0.0001  0.0000 -0.0020  0.0001 -0.0000
                                           -0.0000 -0.0000  0.0024 -0.0001 -0.0001
                                           -0.0000 -0.1773 -0.0013 -0.0016  0.9680
                                            0.0006  0.0013  0.0049  0.0001  0.0000
                                            0.0202  0.0000  0.0001 -0.0133  0.0001
                                           -0.0000 -0.0000  0.0006 -0.0000 -0.0000
                                            0.0022  0.0003  0.0000
    76. (1.81222) LP ( 4)Ni  14           s(  0.03%)p79.56(  2.10%)d99.99( 97.87%)
                                                  f 0.02(  0.00%)
                                            0.0005  0.0143  0.0068 -0.0008 -0.0036
                                            0.0006 -0.0000 -0.0038  0.0001  0.0001
                                            0.0000  0.0005 -0.0831  0.0022 -0.0003
                                           -0.0001 -0.0000  0.1188 -0.0030 -0.0027
                                           -0.0000  0.0049  0.0000  0.0000 -0.0241
                                           -0.0000 -0.0000  0.1924  0.0024  0.0006
                                            0.7875  0.0020  0.0025 -0.5665  0.0041
                                           -0.0003 -0.0007 -0.0000 -0.0014 -0.0009
                                           -0.0001 -0.0000  0.0011
    77. (1.75961) LP ( 5)Ni  14           s(  0.02%)p99.99(  4.96%)d99.99( 95.02%)
                                                  f 0.02(  0.00%)
                                           -0.0008  0.0128  0.0048  0.0020  0.0004
                                           -0.0003  0.0000  0.0004 -0.0000 -0.0000
                                           -0.0000 -0.0013  0.1886 -0.0129 -0.0011
                                            0.0001  0.0008  0.1176 -0.0011 -0.0036
                                            0.0000 -0.0014 -0.0000 -0.0000  0.0008
                                            0.0000  0.0000  0.1354 -0.0015  0.0010
                                           -0.5840 -0.0025 -0.0041 -0.7686  0.0033
                                           -0.0047 -0.0014 -0.0000 -0.0004  0.0008
                                            0.0000  0.0000  0.0006
    78. (1.97800) LP ( 1) O  16           s( 52.27%)p 0.91( 47.58%)d 0.00(  0.15%)
                                                  f 0.00(  0.00%)
                                           -0.0004  0.7229  0.0097 -0.0006 -0.0004
                                            0.4722  0.0074  0.0036  0.4318  0.0066
                                            0.0032 -0.2572 -0.0042 -0.0020 -0.0284
                                           -0.0004  0.0172  0.0002  0.0155  0.0002
                                           -0.0026 -0.0001  0.0112  0.0002  0.0025
                                           -0.0008 -0.0007 -0.0003 -0.0036 -0.0022
                                            0.0029
    79. (1.97799) LP ( 1) O  18           s( 52.27%)p 0.91( 47.58%)d 0.00(  0.15%)
                                                  f 0.00(  0.00%)
                                           -0.0004  0.7229  0.0097 -0.0006 -0.0004
                                           -0.4734 -0.0074 -0.0036  0.4316  0.0066
                                            0.0032 -0.2555 -0.0041 -0.0020  0.0285
                                            0.0004 -0.0171 -0.0002  0.0154  0.0002
                                           -0.0027 -0.0001  0.0113  0.0002  0.0025
                                            0.0008 -0.0007 -0.0003  0.0036  0.0022
                                            0.0029
    80. (1.97856) LP ( 1) O  20           s( 53.00%)p 0.88( 46.86%)d 0.00(  0.14%)
                                                  f 0.00(  0.00%)
                                           -0.0004  0.7279  0.0083 -0.0001 -0.0004
                                            0.0001  0.0000  0.0000  0.1366  0.0019
                                            0.0011  0.6707  0.0100  0.0055 -0.0000
                                           -0.0000 -0.0000 -0.0000 -0.0127 -0.0002
                                            0.0013  0.0000 -0.0353 -0.0005  0.0049
                                            0.0000  0.0025 -0.0004  0.0000 -0.0000
                                           -0.0000
    81. (0.00179) RY*( 1) C   1           s(  0.86%)p99.99( 86.25%)d13.90( 11.96%)
                                                  f 1.08(  0.93%)
                                            0.0000  0.0008  0.0905 -0.0200 -0.0023
                                            0.0020 -0.1168 -0.0055 -0.0097 -0.7113
                                            0.0222  0.0090  0.5827 -0.0513  0.0564
                                           -0.0514 -0.0399  0.0043  0.0511  0.0412
                                           -0.1588 -0.0206 -0.2741 -0.0844  0.0750
                                            0.0324  0.0346  0.0312 -0.0011  0.0210
                                            0.0048
    82. (0.00129) RY*( 2) C   1           s(  7.02%)p10.69( 75.09%)d 2.24( 15.74%)
                                                  f 0.31(  2.15%)
                                            0.0000  0.0043  0.2649 -0.0038 -0.0013
                                            0.0130  0.6885 -0.0394  0.0001 -0.3591
                                           -0.0185  0.0023 -0.3812 -0.0226 -0.2225
                                           -0.0445 -0.2272  0.0180  0.0642  0.0094
                                           -0.2108 -0.0231  0.0613 -0.0318 -0.0372
                                            0.0152  0.0102  0.0572  0.0945 -0.0236
                                            0.0838
    83. (0.00049) RY*( 3) C   1           s( 37.21%)p 1.49( 55.39%)d 0.15(  5.76%)
                                                  f 0.04(  1.64%)
                                           -0.0000  0.0060  0.6099 -0.0056  0.0049
                                           -0.0038 -0.5364 -0.1783 -0.0009 -0.2475
                                           -0.0991 -0.0026 -0.4041 -0.0045 -0.0390
                                            0.0761  0.0242 -0.0002 -0.1162 -0.0231
                                            0.1665 -0.0612  0.0644 -0.0082 -0.0211
                                            0.0249  0.0714 -0.0682 -0.0005 -0.0341
                                           -0.0662
    84. (0.00042) RY*( 4) C   1           s( 29.05%)p 1.74( 50.50%)d 0.60( 17.54%)
                                                  f 0.10(  2.91%)
                                           -0.0000 -0.0051  0.5325  0.0831  0.0042
                                            0.0013  0.1499 -0.0649 -0.0121  0.3921
                                           -0.0154 -0.0087  0.5172  0.2379 -0.2953
                                            0.0032 -0.0982 -0.0810 -0.0249 -0.0071
                                            0.0950 -0.1833  0.1007 -0.1363  0.0292
                                            0.0198  0.0544  0.0109  0.0991 -0.1086
                                            0.0561
    85. (0.00030) RY*( 5) C   1           s(  3.80%)p 4.23( 16.09%)d18.99( 72.21%)
                                                  f 2.08(  7.90%)
                                           -0.0000  0.0001  0.0914  0.1714  0.0173
                                           -0.0242  0.3199  0.2206 -0.0113 -0.0687
                                            0.0385 -0.0142 -0.0286 -0.0449  0.3511
                                           -0.1798  0.1812 -0.1382 -0.3848  0.1454
                                            0.5071 -0.1655 -0.2453 -0.0252 -0.0187
                                            0.0452  0.1398 -0.1799  0.0427  0.0047
                                           -0.1510
    86. (0.00025) RY*( 6) C   1           s(  0.82%)p 2.04(  1.67%)d99.99( 85.94%)
                                                  f14.11( 11.57%)
                                            0.0000  0.0002  0.0541  0.0715 -0.0127
                                            0.0212 -0.0267  0.0798  0.0023 -0.0078
                                           -0.0832 -0.0107  0.0043  0.0456 -0.0794
                                            0.0172  0.5150 -0.3132 -0.4118  0.2968
                                           -0.4373  0.1704  0.1028  0.0297 -0.1319
                                           -0.1219  0.0142  0.1153  0.1207 -0.0209
                                            0.2344
    87. (0.00015) RY*( 7) C   1           s( 20.09%)p 0.74( 14.96%)d 3.17( 63.71%)
                                                  f 0.06(  1.24%)
                                            0.0000  0.0002  0.3267  0.3067  0.0049
                                            0.0012 -0.0523  0.0013  0.0053  0.2854
                                            0.0783  0.0043 -0.0436 -0.2394  0.4450
                                           -0.3793 -0.1429  0.0784  0.1590 -0.0208
                                           -0.4060  0.1266 -0.2402  0.0666  0.0177
                                            0.0265  0.0239  0.0247 -0.0347  0.0291
                                            0.0905
    88. (0.00012) RY*( 8) C   1           s(  0.96%)p11.10( 10.68%)d74.39( 71.51%)
                                                  f17.53( 16.85%)
                                            0.0000  0.0016  0.0915 -0.0314 -0.0159
                                            0.0019  0.0177  0.1960 -0.0117  0.0878
                                           -0.0065  0.0295 -0.1431 -0.1970 -0.2340
                                            0.1748  0.3930 -0.1837  0.4331 -0.0236
                                            0.0918 -0.1610 -0.4680 -0.0045  0.3367
                                           -0.0439  0.0159  0.1883 -0.0079 -0.0503
                                            0.1222
    89. (0.00009) RY*( 9) C   1           s( 36.25%)p 0.56( 20.13%)d 1.10( 39.97%)
                                                  f 0.10(  3.65%)
    90. (0.00007) RY*(10) C   1           s( 17.97%)p 1.57( 28.16%)d 2.36( 42.47%)
                                                  f 0.63( 11.40%)
    91. (0.00004) RY*(11) C   1           s( 14.39%)p 1.67( 24.02%)d 4.15( 59.73%)
                                                  f 0.13(  1.85%)
    92. (0.00002) RY*(12) C   1           s(  8.50%)p 6.83( 58.04%)d 2.36( 20.03%)
                                                  f 1.58( 13.42%)
    93. (0.00002) RY*(13) C   1           s(  1.18%)p49.43( 58.32%)d26.85( 31.68%)
                                                  f 7.48(  8.82%)
    94. (0.00002) RY*(14) C   1           s(  0.58%)p87.23( 50.82%)d42.98( 25.04%)
                                                  f40.43( 23.56%)
    95. (0.00001) RY*(15) C   1           s(  1.16%)p 1.97(  2.29%)d81.67( 94.62%)
                                                  f 1.67(  1.93%)
    96. (0.00000) RY*(16) C   1           s( 99.50%)p 0.00(  0.13%)d 0.00(  0.29%)
                                                  f 0.00(  0.08%)
    97. (0.00000) RY*(17) C   1           s(  5.65%)p 0.80(  4.53%)d15.65( 88.40%)
                                                  f 0.25(  1.42%)
    98. (0.00000) RY*(18) C   1           s(  2.11%)p 1.73(  3.64%)d44.36( 93.53%)
                                                  f 0.34(  0.72%)
    99. (0.00000) RY*(19) C   1           s(  4.73%)p 0.82(  3.89%)d19.27( 91.22%)
                                                  f 0.03(  0.16%)
   100. (0.00001) RY*(20) C   1           s(  0.11%)p87.81(  9.56%)d99.99( 20.03%)
                                                  f99.99( 70.31%)
   101. (0.00000) RY*(21) C   1           s(  0.47%)p 3.78(  1.78%)d10.93(  5.15%)
                                                  f99.99( 92.60%)
   102. (0.00000) RY*(22) C   1           s(  0.66%)p11.30(  7.50%)d16.06( 10.66%)
                                                  f99.99( 81.18%)
   103. (0.00000) RY*(23) C   1           s(  1.00%)p 1.97(  1.98%)d 9.00(  9.02%)
                                                  f87.79( 88.00%)
   104. (0.00000) RY*(24) C   1           s(  1.54%)p 1.43(  2.20%)d 5.74(  8.81%)
                                                  f56.95( 87.45%)
   105. (0.00000) RY*(25) C   1           s(  3.70%)p 2.85( 10.56%)d 0.67(  2.49%)
                                                  f22.49( 83.25%)
   106. (0.00001) RY*(26) C   1           s(  0.72%)p 3.44(  2.48%)d16.43( 11.85%)
                                                  f99.99( 84.95%)
   107. (0.00425) RY*( 1) C   2           s(  0.07%)p99.99( 93.57%)d86.49(  6.19%)
                                                  f 2.34(  0.17%)
                                           -0.0000  0.0031  0.0214  0.0152 -0.0040
                                            0.0070  0.3675 -0.0541 -0.0117 -0.8885
                                            0.0326  0.0005  0.0841 -0.0094 -0.1776
                                            0.1224  0.0088 -0.0216 -0.0232  0.0265
                                           -0.0145  0.0181 -0.0851  0.0763  0.0054
                                           -0.0165 -0.0104  0.0032  0.0041  0.0313
                                           -0.0160
   108. (0.00254) RY*( 2) C   2           s(  0.00%)p 1.00( 83.88%)d 0.19( 15.96%)
                                                  f 0.00(  0.15%)
                                           -0.0000  0.0006  0.0054  0.0022 -0.0025
                                           -0.0018 -0.0228 -0.0160 -0.0016 -0.0963
                                           -0.0119 -0.0060 -0.9079 -0.0655 -0.0061
                                            0.0184  0.0839  0.1666 -0.1900  0.2676
                                            0.0381 -0.0454  0.0683 -0.0927  0.0259
                                           -0.0037 -0.0006 -0.0275 -0.0063  0.0018
                                           -0.0025
   109. (0.00171) RY*( 3) C   2           s(  0.23%)p99.99( 85.35%)d59.10( 13.47%)
                                                  f 4.20(  0.96%)
                                            0.0000  0.0007 -0.0069  0.0399  0.0253
                                           -0.0060 -0.8496  0.0283 -0.0003 -0.3568
                                           -0.0217 -0.0003  0.0398  0.0375  0.1457
                                            0.0401 -0.1300  0.0211 -0.0118 -0.0035
                                            0.1998 -0.0752 -0.2151  0.0498  0.0034
                                            0.0587  0.0047  0.0140  0.0053 -0.0447
                                           -0.0622
   110. (0.00130) RY*( 4) C   2           s(  0.02%)p99.99(  4.94%)d99.99( 94.69%)
                                                  f15.02(  0.35%)
                                           -0.0000 -0.0005 -0.0055  0.0141  0.0017
                                            0.0003 -0.0539 -0.0124 -0.0003 -0.0231
                                            0.0188 -0.0009  0.0904  0.1931  0.1052
                                            0.0077  0.8004  0.0215 -0.4488 -0.2379
                                            0.1478  0.0287  0.0723  0.0932 -0.0164
                                            0.0095  0.0092  0.0358 -0.0413  0.0070
                                           -0.0016
   111. (0.00120) RY*( 5) C   2           s(  0.07%)p60.20(  4.42%)d99.99( 95.19%)
                                                  f 4.27(  0.31%)
                                            0.0000  0.0032 -0.0088  0.0251 -0.0040
                                            0.0010  0.0642 -0.0889  0.0009  0.0160
                                            0.1776 -0.0005 -0.0117 -0.0164  0.4492
                                            0.0818 -0.0461 -0.0072 -0.2783 -0.0303
                                           -0.6033 -0.0161 -0.5316 -0.1266  0.0185
                                           -0.0284 -0.0331  0.0131 -0.0134 -0.0105
                                           -0.0207
   112. (0.00066) RY*( 6) C   2           s( 31.60%)p 0.41( 13.07%)d 1.61( 50.73%)
                                                  f 0.15(  4.60%)
                                            0.0000 -0.0076  0.5596 -0.0528  0.0091
                                            0.0138 -0.1792 -0.0547  0.0048 -0.0653
                                           -0.2708 -0.0019  0.0114  0.1328 -0.1770
                                           -0.1371 -0.0476  0.0965 -0.1016 -0.1006
                                           -0.5062 -0.2284  0.3056  0.1531 -0.0321
                                           -0.0845  0.1141 -0.0438 -0.0397  0.1200
                                            0.0829
   113. (0.00055) RY*( 7) C   2           s(  2.51%)p18.38( 46.17%)d19.55( 49.13%)
                                                  f 0.87(  2.19%)
                                            0.0000 -0.0011  0.1525  0.0429 -0.0033
                                            0.0035 -0.1535 -0.3484  0.0084 -0.0167
                                            0.3837 -0.0053  0.1429 -0.3855 -0.2225
                                           -0.2007  0.3461  0.0108  0.2083  0.2503
                                           -0.0709 -0.1774 -0.0170 -0.3725  0.0201
                                           -0.1040 -0.0207 -0.0826  0.0326 -0.0475
                                            0.0110
   114. (0.00050) RY*( 8) C   2           s(  0.23%)p99.99( 44.19%)d99.99( 53.41%)
                                                  f 9.40(  2.17%)
                                            0.0000 -0.0003  0.0463  0.0114  0.0061
                                           -0.0034  0.0032 -0.0383  0.0064 -0.0062
                                            0.5662  0.0024 -0.1129  0.3270 -0.2541
                                           -0.2238 -0.3094  0.0597 -0.2135 -0.4613
                                            0.1140 -0.0077  0.0329 -0.2181  0.0087
                                           -0.0364  0.0108  0.0855 -0.1046 -0.0443
                                           -0.0027
   115. (0.00034) RY*( 9) C   2           s(  1.86%)p15.80( 29.38%)d35.17( 65.39%)
                                                  f 1.81(  3.37%)
                                            0.0000 -0.0040  0.1152 -0.0576  0.0446
                                           -0.0090  0.1466  0.2004  0.0062 -0.0693
                                           -0.4701 -0.0008  0.0216 -0.0762  0.0664
                                           -0.5283 -0.0083 -0.0291 -0.0935 -0.1217
                                            0.2059 -0.1589 -0.2596 -0.4593 -0.0314
                                           -0.0036  0.0022  0.0173  0.0129 -0.0037
                                           -0.1794
   116. (0.00025) RY*(10) C   2           s(  3.78%)p 6.06( 22.93%)d18.60( 70.36%)
                                                  f 0.77(  2.92%)
                                            0.0000 -0.0017  0.1935 -0.0012  0.0192
                                           -0.0011  0.0011  0.2724  0.0006 -0.0372
                                            0.1390  0.0118 -0.2880  0.2266  0.0585
                                           -0.0695  0.2757 -0.4082  0.5849 -0.2191
                                           -0.0930 -0.0245 -0.2009  0.1139 -0.0212
                                           -0.0513  0.0313  0.0240  0.1496 -0.0457
                                            0.0107
   117. (0.00021) RY*(11) C   2           s( 23.59%)p 2.28( 53.85%)d 0.91( 21.56%)
                                                  f 0.04(  1.00%)
                                           -0.0000 -0.0011  0.4853 -0.0149  0.0124
                                           -0.0087  0.1081  0.5996 -0.0054  0.0460
                                            0.3339 -0.0042  0.1269 -0.1933  0.1281
                                            0.1108 -0.0311  0.2050 -0.1402  0.2239
                                            0.2027 -0.1307 -0.0507  0.1154  0.0303
                                            0.0636  0.0183 -0.0341 -0.0296 -0.0513
                                            0.0087
   118. (0.00014) RY*(12) C   2           s( 28.87%)p 0.89( 25.62%)d 1.48( 42.79%)
                                                  f 0.09(  2.72%)
                                           -0.0000  0.0046  0.5180  0.1422 -0.0120
                                            0.0017  0.0725 -0.4356 -0.0051  0.1814
                                           -0.1526  0.0025 -0.0691 -0.0127 -0.1990
                                            0.2431 -0.0579 -0.1339 -0.0873 -0.0479
                                            0.2932  0.1839 -0.4049  0.1196 -0.0405
                                            0.1104 -0.0684  0.0466 -0.0002 -0.0695
                                           -0.0408
   119. (0.00012) RY*(13) C   2           s(  0.34%)p69.44( 23.27%)d99.99( 57.13%)
                                                  f57.47( 19.26%)
                                            0.0000  0.0003  0.0554  0.0095 -0.0138
                                            0.0005  0.0628 -0.0902  0.0004  0.0133
                                           -0.0702 -0.0035  0.0657  0.4596  0.0558
                                            0.0886  0.1051  0.6212  0.3294  0.0757
                                            0.0299  0.0434 -0.1439 -0.1603  0.3827
                                            0.0550  0.1094 -0.1603 -0.0290 -0.0030
                                           -0.0676
   120. (0.00008) RY*(14) C   2           s( 11.21%)p 0.72(  8.03%)d 6.59( 73.92%)
                                                  f 0.61(  6.84%)
   121. (0.00005) RY*(15) C   2           s(  0.77%)p40.72( 31.19%)d68.89( 52.77%)
                                                  f19.94( 15.27%)
   122. (0.00003) RY*(16) C   2           s( 13.21%)p 0.84( 11.09%)d 5.21( 68.86%)
                                                  f 0.52(  6.84%)
   123. (0.00003) RY*(17) C   2           s(  6.52%)p 1.24(  8.09%)d11.59( 75.54%)
                                                  f 1.51(  9.85%)
   124. (0.00002) RY*(18) C   2           s( 58.18%)p 0.03(  1.83%)d 0.06(  3.66%)
                                                  f 0.62( 36.33%)
   125. (0.00000) RY*(19) C   2           s( 95.37%)p 0.00(  0.15%)d 0.05(  4.32%)
                                                  f 0.00(  0.16%)
   126. (0.00000) RY*(20) C   2           s(  0.12%)p 4.65(  0.55%)d99.99( 19.02%)
                                                  f99.99( 80.31%)
   127. (0.00000) RY*(21) C   2           s(  3.75%)p 0.07(  0.27%)d 1.54(  5.79%)
                                                  f24.06( 90.19%)
   128. (0.00001) RY*(22) C   2           s(  0.89%)p 1.47(  1.30%)d 9.75(  8.63%)
                                                  f99.99( 89.18%)
   129. (0.00001) RY*(23) C   2           s(  0.03%)p52.93(  1.64%)d99.99(  8.33%)
                                                  f99.99( 90.00%)
   130. (0.00001) RY*(24) C   2           s(  0.29%)p 6.69(  1.92%)d38.90( 11.15%)
                                                  f99.99( 86.64%)
   131. (0.00001) RY*(25) C   2           s(  3.38%)p 0.64(  2.17%)d 5.03( 16.99%)
                                                  f22.91( 77.46%)
   132. (0.00000) RY*(26) C   2           s( 13.13%)p 0.09(  1.23%)d 1.13( 14.90%)
                                                  f 5.39( 70.75%)
   133. (0.00170) RY*( 1) C   3           s(  1.24%)p68.55( 85.29%)d10.05( 12.50%)
                                                  f 0.78(  0.96%)
                                            0.0000  0.0022  0.1109 -0.0111 -0.0037
                                            0.0012 -0.1179 -0.0201 -0.0102 -0.8834
                                            0.0108 -0.0056 -0.2353  0.0502  0.0437
                                           -0.0594  0.0266 -0.0066 -0.2288 -0.0929
                                           -0.1190  0.0054 -0.2025 -0.0516 -0.0793
                                            0.0130 -0.0444 -0.0342  0.0032  0.0033
                                            0.0048
   134. (0.00117) RY*( 2) C   3           s( 12.84%)p 5.14( 65.94%)d 1.42( 18.28%)
                                                  f 0.23(  2.95%)
                                           -0.0000  0.0019  0.3574  0.0253 -0.0017
                                            0.0146  0.7272 -0.0922 -0.0012 -0.1210
                                           -0.0091  0.0019  0.3272 -0.0040 -0.1809
                                           -0.0531  0.3322  0.0216 -0.0009 -0.0471
                                           -0.1661 -0.0267  0.0724 -0.0248  0.0313
                                            0.0933  0.0304 -0.0818 -0.0947 -0.0004
                                            0.0569
   135. (0.00055) RY*( 3) C   3           s( 23.10%)p 2.79( 64.39%)d 0.42(  9.62%)
                                                  f 0.13(  2.89%)
                                           -0.0000  0.0054  0.4806 -0.0032  0.0065
                                           -0.0072 -0.4180 -0.0850  0.0007 -0.1152
                                           -0.0397  0.0033  0.6633  0.0838  0.1042
                                            0.0185 -0.1143 -0.0069  0.1886  0.0242
                                            0.1602 -0.0272 -0.0838  0.0476 -0.0509
                                           -0.0067  0.1107  0.0871  0.0457 -0.0070
                                           -0.0656
   136. (0.00034) RY*( 4) C   3           s(  3.32%)p 7.39( 24.57%)d19.36( 64.36%)
                                                  f 2.33(  7.75%)
                                           -0.0000 -0.0016  0.0875  0.1587  0.0204
                                           -0.0228  0.4024  0.2443 -0.0121 -0.0053
                                            0.0619  0.0155 -0.1387 -0.0117  0.2414
                                           -0.1012 -0.3303  0.1818  0.1784 -0.1374
                                            0.4485 -0.1640 -0.3926  0.0104 -0.1785
                                            0.0069  0.1147  0.1536  0.0525  0.0266
                                           -0.0733
   137. (0.00027) RY*( 5) C   3           s( 19.90%)p 1.23( 24.55%)d 2.60( 51.72%)
                                                  f 0.19(  3.84%)
                                           -0.0000 -0.0024  0.4210 -0.1473  0.0078
                                           -0.0044 -0.1377 -0.1245 -0.0100  0.0900
                                           -0.0845  0.0018 -0.4059 -0.1758 -0.2264
                                            0.1014  0.3490 -0.1470  0.0410  0.0036
                                            0.4177 -0.2640  0.1208 -0.2275 -0.1096
                                            0.0284 -0.0167  0.0928  0.0115 -0.0723
                                           -0.1063
   138. (0.00022) RY*( 6) C   3           s(  4.95%)p 5.16( 25.55%)d13.49( 66.86%)
                                                  f 0.53(  2.64%)
                                            0.0000 -0.0017  0.2103  0.0730  0.0018
                                           -0.0099 -0.0369  0.0850 -0.0054  0.2551
                                            0.4035 -0.0132  0.0067  0.1368  0.3453
                                           -0.2532  0.2565 -0.1603 -0.5607  0.2171
                                            0.0000  0.0502 -0.1717  0.0137 -0.0917
                                           -0.0013 -0.0754  0.0258  0.1068  0.0072
                                           -0.0117
   139. (0.00019) RY*( 7) C   3           s( 30.41%)p 0.69( 21.05%)d 1.38( 41.81%)
                                                  f 0.22(  6.73%)
                                           -0.0000 -0.0031  0.5330  0.1411  0.0004
                                            0.0129 -0.1446  0.1287  0.0001  0.2429
                                            0.0184  0.0149 -0.3354 -0.0282 -0.0893
                                           -0.0319 -0.2044  0.1895  0.1457 -0.1180
                                           -0.4828  0.1909 -0.1634 -0.0092 -0.0111
                                            0.0433  0.0689 -0.1664 -0.1535 -0.0386
                                            0.0884
   140. (0.00011) RY*( 8) C   3           s(  0.76%)p 9.98(  7.55%)d99.99( 78.29%)
                                                  f17.70( 13.39%)
                                            0.0000  0.0053  0.0838  0.0106 -0.0201
                                            0.0068  0.0379  0.1133 -0.0122  0.0524
                                            0.0492 -0.0309  0.1355  0.1913 -0.4505
                                            0.2871 -0.4165  0.1509 -0.4957 -0.0389
                                            0.1630 -0.1155  0.0710 -0.0952 -0.1264
                                           -0.0894 -0.2831 -0.1541 -0.0638 -0.0404
                                            0.0189
   141. (0.00007) RY*( 9) C   3           s( 58.48%)p 0.29( 16.72%)d 0.39( 22.89%)
                                                  f 0.03(  1.90%)
   142. (0.00007) RY*(10) C   3           s(  2.59%)p 9.31( 24.13%)d22.21( 57.59%)
                                                  f 6.05( 15.69%)
   143. (0.00004) RY*(11) C   3           s( 21.75%)p 1.21( 26.31%)d 2.04( 44.41%)
                                                  f 0.35(  7.53%)
   144. (0.00002) RY*(12) C   3           s(  1.25%)p51.77( 64.62%)d18.47( 23.05%)
                                                  f 8.88( 11.08%)
   145. (0.00001) RY*(13) C   3           s(  2.06%)p 6.98( 14.40%)d35.46( 73.13%)
                                                  f 5.05( 10.41%)
   146. (0.00002) RY*(14) C   3           s(  1.79%)p41.53( 74.49%)d 4.84(  8.68%)
                                                  f 8.38( 15.04%)
   147. (0.00002) RY*(15) C   3           s(  3.51%)p 3.87( 13.59%)d21.03( 73.89%)
                                                  f 2.56(  9.00%)
   148. (0.00000) RY*(16) C   3           s( 99.53%)p 0.00(  0.08%)d 0.00(  0.36%)
                                                  f 0.00(  0.03%)
   149. (0.00000) RY*(17) C   3           s(  0.14%)p 4.98(  0.71%)d99.99( 98.94%)
                                                  f 1.54(  0.22%)
   150. (0.00000) RY*(18) C   3           s(  0.27%)p 3.53(  0.97%)d99.99( 97.13%)
                                                  f 5.93(  1.63%)
   151. (0.00001) RY*(19) C   3           s(  2.49%)p 4.84( 12.05%)d33.95( 84.53%)
                                                  f 0.38(  0.94%)
   152. (0.00000) RY*(20) C   3           s(  1.52%)p 3.60(  5.48%)d11.82( 17.98%)
                                                  f49.33( 75.02%)
   153. (0.00000) RY*(21) C   3           s(  1.49%)p 1.75(  2.61%)d 6.06(  9.05%)
                                                  f58.15( 86.84%)
   154. (0.00001) RY*(22) C   3           s(  1.31%)p 2.04(  2.66%)d10.44( 13.62%)
                                                  f63.14( 82.41%)
   155. (0.00000) RY*(23) C   3           s(  0.87%)p 3.32(  2.89%)d15.03( 13.11%)
                                                  f95.31( 83.13%)
   156. (0.00000) RY*(24) C   3           s(  0.45%)p19.62(  8.93%)d24.82( 11.29%)
                                                  f99.99( 79.33%)
   157. (0.00000) RY*(25) C   3           s(  3.78%)p 1.90(  7.17%)d 0.86(  3.25%)
                                                  f22.68( 85.80%)
   158. (0.00000) RY*(26) C   3           s(  0.23%)p17.48(  3.96%)d13.22(  2.99%)
                                                  f99.99( 92.83%)
   159. (0.00162) RY*( 1) C   4           s(  0.00%)p 1.00( 85.75%)d 0.15( 13.15%)
                                                  f 0.01(  1.10%)
                                           -0.0000 -0.0000  0.0042 -0.0015  0.0007
                                           -0.0002 -0.0240  0.0009 -0.0015 -0.1286
                                           -0.0007 -0.0117 -0.9166 -0.0006  0.0216
                                           -0.0043  0.1736  0.0109 -0.2569 -0.1640
                                            0.0355  0.0313  0.0640  0.0394  0.0667
                                           -0.0133  0.0347  0.0441  0.0560 -0.0044
                                            0.0081
   160. (0.00102) RY*( 2) C   4           s(  6.32%)p10.55( 66.62%)d 3.70( 23.40%)
                                                  f 0.58(  3.66%)
                                            0.0000  0.0014  0.1981  0.1547 -0.0045
                                            0.0145  0.5689 -0.0212  0.0086  0.5774
                                            0.0008 -0.0013 -0.0913  0.0105  0.0997
                                           -0.0135  0.0107 -0.0046 -0.0407 -0.0015
                                           -0.4603 -0.0328  0.0955 -0.0062 -0.0052
                                           -0.0906  0.0254  0.0040  0.0009  0.0969
                                           -0.1352
   161. (0.00033) RY*( 3) C   4           s( 33.54%)p 0.08(  2.72%)d 1.75( 58.85%)
                                                  f 0.15(  4.89%)
                                           -0.0000 -0.0006  0.2776  0.5082  0.0020
                                           -0.0252 -0.1586 -0.0218 -0.0040 -0.0236
                                           -0.0074  0.0027  0.0078  0.0160  0.5173
                                           -0.1450 -0.0468  0.0010 -0.1192  0.0759
                                            0.0222  0.0329 -0.4712  0.2327 -0.0084
                                            0.0931 -0.0171 -0.0017 -0.0213 -0.1983
                                            0.0094
   162. (0.00026) RY*( 4) C   4           s(  5.42%)p15.63( 84.73%)d 1.71(  9.27%)
                                                  f 0.11(  0.58%)
                                            0.0000  0.0109  0.0118  0.2315 -0.0184
                                            0.0130 -0.6460 -0.2006 -0.0106  0.5855
                                            0.2044  0.0024 -0.0676 -0.0192 -0.2463
                                            0.0497  0.0667 -0.0204  0.0621 -0.0363
                                            0.0372 -0.0922  0.0936 -0.0295 -0.0177
                                           -0.0485  0.0323 -0.0107 -0.0051  0.0257
                                           -0.0356
   163. (0.00020) RY*( 5) C   4           s(  2.20%)p 2.46(  5.41%)d37.04( 81.52%)
                                                  f 4.94( 10.88%)
                                           -0.0000 -0.0005  0.1415  0.0445  0.0028
                                           -0.0004  0.0025  0.0079  0.0123 -0.1358
                                            0.0158  0.0226  0.0247  0.1845  0.0978
                                           -0.0054  0.6542 -0.3109  0.4669 -0.2435
                                           -0.0500  0.0028  0.0270  0.0175 -0.1261
                                           -0.0368 -0.0616 -0.2583 -0.0987  0.0226
                                           -0.1035
   164. (0.00017) RY*( 6) C   4           s( 43.45%)p 0.18(  7.98%)d 0.86( 37.33%)
                                                  f 0.26( 11.24%)
                                           -0.0000 -0.0004  0.6335  0.1806  0.0225
                                           -0.0101 -0.0223  0.0950  0.0239 -0.2261
                                            0.0649 -0.0134  0.1112 -0.0415  0.0043
                                            0.1492 -0.0286 -0.0416 -0.1721  0.0732
                                            0.2015 -0.1530  0.4787 -0.1426  0.0108
                                           -0.2263  0.2021  0.0830  0.0438 -0.0187
                                           -0.1049
   165. (0.00014) RY*( 7) C   4           s(  4.35%)p 1.92(  8.35%)d18.02( 78.31%)
                                                  f 2.07(  9.00%)
                                           -0.0000  0.0003  0.2042  0.0419  0.0040
                                           -0.0034 -0.0400 -0.0321  0.0103 -0.1305
                                           -0.0072  0.0090 -0.2498 -0.0347 -0.0195
                                            0.0790 -0.4952  0.3650  0.6078 -0.1340
                                           -0.1023 -0.0060 -0.0057 -0.0110 -0.0861
                                           -0.0113 -0.0042 -0.1522 -0.2243  0.0338
                                           -0.0882
   166. (0.00006) RY*( 8) C   4           s( 48.77%)p 0.27( 13.32%)d 0.59( 28.81%)
                                                  f 0.19(  9.10%)
   167. (0.00005) RY*( 9) C   4           s(  6.22%)p 4.16( 25.86%)d10.15( 63.14%)
                                                  f 0.77(  4.78%)
   168. (0.00004) RY*(10) C   4           s( 10.06%)p 3.35( 33.71%)d 4.19( 42.20%)
                                                  f 1.39( 14.02%)
   169. (0.00001) RY*(11) C   4           s(  0.39%)p20.36(  7.90%)d99.99( 89.61%)
                                                  f 5.40(  2.10%)
   170. (0.00001) RY*(12) C   4           s(  7.01%)p11.44( 80.15%)d 1.36(  9.51%)
                                                  f 0.48(  3.34%)
   171. (0.00000) RY*(13) C   4           s(  0.01%)p18.50(  0.25%)d99.99( 99.63%)
                                                  f 8.57(  0.11%)
   172. (0.00001) RY*(14) C   4           s( 21.20%)p 0.41(  8.66%)d 3.30( 69.87%)
                                                  f 0.01(  0.27%)
   173. (0.00000) RY*(15) C   4           s(  0.10%)p99.99( 93.74%)d58.41(  5.56%)
                                                  f 6.34(  0.60%)
   174. (0.00000) RY*(16) C   4           s(  0.62%)p 5.99(  3.73%)d99.99( 95.02%)
                                                  f 0.99(  0.62%)
   175. (0.00001) RY*(17) C   4           s(  1.86%)p23.89( 44.35%)d28.78( 53.42%)
                                                  f 0.20(  0.37%)
   176. (0.00000) RY*(18) C   4           s( 99.78%)p 0.00(  0.05%)d 0.00(  0.16%)
                                                  f 0.00(  0.01%)
   177. (0.00001) RY*(19) C   4           s(  0.08%)p99.99(  9.01%)d99.99( 90.63%)
                                                  f 3.49(  0.28%)
   178. (0.00001) RY*(20) C   4           s(  0.35%)p 0.54(  0.19%)d 9.90(  3.47%)
                                                  f99.99( 95.99%)
   179. (0.00000) RY*(21) C   4           s(  2.24%)p 0.09(  0.20%)d 3.29(  7.38%)
                                                  f40.18( 90.18%)
   180. (0.00000) RY*(22) C   4           s(  2.39%)p 0.09(  0.22%)d 1.98(  4.75%)
                                                  f38.68( 92.63%)
   181. (0.00000) RY*(23) C   4           s(  0.03%)p 2.81(  0.09%)d99.99( 11.21%)
                                                  f99.99( 88.67%)
   182. (0.00000) RY*(24) C   4           s(  0.27%)p 0.37(  0.10%)d25.39(  6.79%)
                                                  f99.99( 92.84%)
   183. (0.00001) RY*(25) C   4           s(  0.24%)p66.97( 15.89%)d53.29( 12.64%)
                                                  f99.99( 71.23%)
   184. (0.00001) RY*(26) C   4           s(  3.17%)p 0.52(  1.65%)d 1.17(  3.72%)
                                                  f28.90( 91.46%)
   185. (0.00631) RY*( 1) N   5           s(  8.35%)p 9.49( 79.19%)d 1.47( 12.24%)
                                                  f 0.03(  0.23%)
                                            0.0000  0.0033  0.2860 -0.0411  0.0014
                                            0.0282 -0.8808  0.0047  0.0150 -0.0853
                                           -0.0221 -0.0030 -0.0847 -0.0038 -0.1122
                                           -0.0785  0.0232  0.0108 -0.0084 -0.0023
                                           -0.3085 -0.0663  0.0540 -0.0210 -0.0062
                                           -0.0040  0.0142  0.0056  0.0085  0.0433
                                            0.0064
   186. (0.00495) RY*( 2) N   5           s(  0.08%)p99.99( 98.29%)d13.90(  1.15%)
                                                  f 5.74(  0.48%)
                                            0.0000  0.0018  0.0264 -0.0114  0.0002
                                            0.0028 -0.0770  0.0008  0.0014  0.0523
                                           -0.0039  0.0031  0.9858  0.0482 -0.0122
                                           -0.0173 -0.0379 -0.0837 -0.0240 -0.0079
                                           -0.0290 -0.0116  0.0318  0.0048  0.0203
                                            0.0213  0.0083 -0.0333 -0.0516  0.0074
                                           -0.0013
   187. (0.00272) RY*( 3) N   5           s(  0.58%)p99.99( 84.54%)d24.97( 14.42%)
                                                  f 0.80(  0.46%)
                                           -0.0000  0.0008  0.0653 -0.0389  0.0006
                                            0.0005  0.1567  0.0063 -0.0021 -0.9035
                                           -0.0440 -0.0000  0.0517  0.0022  0.2403
                                            0.1385 -0.0048 -0.0101  0.0122 -0.0134
                                           -0.2413 -0.0355  0.0840 -0.0159 -0.0069
                                            0.0347  0.0079 -0.0052  0.0068  0.0024
                                            0.0568
   188. (0.00190) RY*( 4) N   5           s( 77.61%)p 0.20( 15.36%)d 0.07(  5.27%)
                                                  f 0.02(  1.75%)
                                            0.0000  0.0074  0.8806 -0.0230  0.0058
                                           -0.0211  0.3496 -0.0129  0.0011  0.1679
                                           -0.0490  0.0019 -0.0134  0.0028 -0.0839
                                            0.0787  0.0126 -0.0025 -0.0178  0.0030
                                           -0.1607 -0.0699  0.0860 -0.0306  0.0111
                                           -0.0760 -0.0039 -0.0001 -0.0072  0.1073
                                            0.0047
   189. (0.00076) RY*( 5) N   5           s(  0.12%)p15.60(  1.91%)d99.99( 94.48%)
                                                  f28.48(  3.49%)
                                           -0.0000 -0.0005  0.0275  0.0215  0.0021
                                            0.0001 -0.0234 -0.0114 -0.0044 -0.0408
                                            0.0072  0.0070  0.0018 -0.1290  0.0344
                                           -0.0228  0.4039 -0.0341 -0.8336 -0.2272
                                            0.1573 -0.0007  0.0818  0.0277  0.0170
                                           -0.0012 -0.0103 -0.1200  0.1387 -0.0289
                                            0.0054
   190. (0.00071) RY*( 6) N   5           s( 11.02%)p 0.85(  9.41%)d 6.95( 76.60%)
                                                  f 0.27(  2.97%)
                                           -0.0000 -0.0055  0.2933  0.1550  0.0096
                                           -0.0084 -0.1496 -0.0287 -0.0267 -0.2176
                                            0.1435  0.0096  0.0339 -0.0300  0.0704
                                           -0.1876  0.2941 -0.0360  0.3154  0.0152
                                            0.7255 -0.0464 -0.0933  0.0339  0.0106
                                            0.0296 -0.0424  0.0099 -0.0030 -0.1185
                                            0.1132
   191. (0.00058) RY*( 7) N   5           s(  1.76%)p 1.24(  2.19%)d54.08( 95.28%)
                                                  f 0.43(  0.76%)
                                           -0.0000 -0.0032  0.1266  0.0395  0.0034
                                           -0.0085 -0.0773  0.0043 -0.0143 -0.1069
                                            0.0498 -0.0157 -0.0303  0.0236 -0.0155
                                           -0.0649 -0.8345  0.1215 -0.3319  0.0127
                                            0.3474 -0.0228  0.0748  0.0135  0.0010
                                            0.0297 -0.0103 -0.0101 -0.0386 -0.0482
                                            0.0521
   192. (0.00033) RY*( 8) N   5           s(  4.07%)p 1.77(  7.18%)d21.52( 87.49%)
                                                  f 0.31(  1.26%)
                                            0.0000 -0.0087  0.0701  0.1881  0.0173
                                           -0.0194 -0.0338  0.0538  0.0386  0.2022
                                           -0.1571 -0.0023 -0.0119  0.0143  0.8439
                                           -0.3383 -0.0535  0.0144 -0.0313  0.0134
                                           -0.1480 -0.0346 -0.1419  0.0269 -0.0104
                                           -0.0203  0.0687 -0.0136 -0.0049 -0.0411
                                            0.0741
   193. (0.00014) RY*( 9) N   5           s(  3.71%)p 0.68(  2.51%)d24.17( 89.71%)
                                                  f 1.09(  4.06%)
                                           -0.0000 -0.0380  0.0291  0.1864  0.0089
                                            0.0151  0.0454  0.0394  0.0008 -0.0976
                                            0.1050 -0.0021  0.0203  0.0168 -0.2144
                                           -0.0394 -0.0565 -0.0271 -0.1067 -0.0569
                                           -0.1505 -0.1416 -0.8473  0.2656  0.0083
                                           -0.1025 -0.0554 -0.0391  0.0136  0.0731
                                            0.1412
   194. (0.00011) RY*(10) N   5           s( 12.01%)p 1.31( 15.72%)d 5.67( 68.11%)
                                                  f 0.35(  4.16%)
                                            0.0000  0.0039  0.0557  0.3419  0.0096
                                           -0.0026 -0.0030  0.0648  0.0032 -0.0277
                                            0.3837  0.0003  0.0056 -0.0705 -0.0089
                                           -0.0743 -0.0302 -0.0557  0.0135 -0.0211
                                           -0.1350  0.8011  0.0891  0.0540  0.0135
                                           -0.0781 -0.1171 -0.0377  0.0269  0.1066
                                            0.0897
   195. (0.00010) RY*(11) N   5           s( 12.23%)p 0.96( 11.75%)d 5.96( 72.86%)
                                                  f 0.26(  3.15%)
   196. (0.00007) RY*(12) N   5           s(  0.03%)p99.99( 35.52%)d99.99( 58.55%)
                                                  f99.99(  5.90%)
   197. (0.00006) RY*(13) N   5           s(  1.03%)p 1.26(  1.30%)d74.41( 76.35%)
                                                  f20.79( 21.33%)
   198. (0.00003) RY*(14) N   5           s( 54.14%)p 0.04(  2.38%)d 0.54( 29.43%)
                                                  f 0.26( 14.05%)
   199. (0.00003) RY*(15) N   5           s(  1.00%)p66.47( 66.21%)d18.30( 18.23%)
                                                  f14.62( 14.56%)
   200. (0.00001) RY*(16) N   5           s(  3.25%)p22.15( 71.98%)d 5.41( 17.58%)
                                                  f 2.21(  7.19%)
   201. (0.00002) RY*(17) N   5           s(  5.56%)p 1.71(  9.50%)d 1.43(  7.98%)
                                                  f13.84( 76.96%)
   202. (0.00001) RY*(18) N   5           s(  0.05%)p99.99( 57.27%)d99.99( 42.48%)
                                                  f 4.33(  0.20%)
   203. (0.00000) RY*(19) N   5           s(  0.20%)p16.88(  3.33%)d99.99( 90.02%)
                                                  f32.81(  6.46%)
   204. (0.00000) RY*(20) N   5           s(  0.05%)p13.73(  0.74%)d32.03(  1.72%)
                                                  f99.99( 97.49%)
   205. (0.00001) RY*(21) N   5           s(  0.82%)p19.33( 15.83%)d 1.52(  1.24%)
                                                  f99.99( 82.11%)
   206. (0.00001) RY*(22) N   5           s(  0.13%)p21.56(  2.70%)d15.23(  1.91%)
                                                  f99.99( 95.26%)
   207. (0.00000) RY*(23) N   5           s(  0.01%)p 1.00(  0.58%)d14.03(  8.19%)
                                                  f99.99( 91.22%)
   208. (0.00000) RY*(24) N   5           s(  0.45%)p 8.12(  3.63%)d40.12( 17.94%)
                                                  f99.99( 77.98%)
   209. (0.00001) RY*(25) N   5           s(  3.24%)p 0.42(  1.35%)d 3.07(  9.94%)
                                                  f26.35( 85.46%)
   210. (0.00000) RY*(26) N   5           s( 98.70%)p 0.00(  0.09%)d 0.00(  0.23%)
                                                  f 0.01(  0.98%)
   211. (0.00362) RY*( 1) C   6           s(  0.01%)p99.99( 81.81%)d99.99( 18.14%)
                                                  f 2.34(  0.03%)
                                            0.0000  0.0002 -0.0069  0.0089 -0.0018
                                            0.0000  0.0391 -0.0013 -0.0024 -0.0741
                                            0.0209 -0.0239 -0.8742  0.2142  0.0004
                                           -0.0001  0.0123 -0.1026 -0.4039  0.0630
                                            0.0365 -0.0111  0.0456 -0.0102 -0.0037
                                            0.0019  0.0041  0.0153 -0.0031 -0.0035
                                            0.0037
   212. (0.00309) RY*( 2) C   6           s( 18.45%)p 3.87( 71.36%)d 0.54(  9.97%)
                                                  f 0.01(  0.22%)
                                           -0.0000 -0.0039  0.4269 -0.0453  0.0116
                                           -0.0074 -0.6141 -0.1156  0.0108  0.5608
                                           -0.0608 -0.0019 -0.0665  0.0178 -0.0862
                                           -0.2487  0.0003  0.0150 -0.0446  0.0147
                                           -0.1336 -0.0120 -0.0873  0.0493  0.0021
                                            0.0031 -0.0265 -0.0023 -0.0011  0.0178
                                            0.0334
   213. (0.00158) RY*( 3) C   6           s(  2.97%)p29.19( 86.81%)d 3.04(  9.03%)
                                                  f 0.40(  1.19%)
                                            0.0000 -0.0044  0.1459  0.0915  0.0077
                                           -0.0311  0.6738  0.1231 -0.0342  0.6258
                                            0.0663  0.0025 -0.0252 -0.0085 -0.1996
                                            0.0735  0.0005 -0.0028 -0.0143  0.0091
                                            0.0312 -0.0339 -0.1808  0.0998  0.0019
                                           -0.0028 -0.0388 -0.0068  0.0003  0.0442
                                            0.0915
   214. (0.00085) RY*( 4) C   6           s( 62.18%)p 0.34( 20.83%)d 0.27( 16.84%)
                                                  f 0.00(  0.15%)
                                            0.0000 -0.0098  0.7882 -0.0196  0.0032
                                            0.0221  0.0504  0.2450 -0.0077 -0.3798
                                           -0.0181  0.0002  0.0246  0.0008 -0.0580
                                            0.3453  0.0015 -0.0039 -0.0134  0.0227
                                           -0.0185  0.1480 -0.1483  0.0288  0.0030
                                           -0.0112 -0.0080 -0.0055  0.0008  0.0349
                                           -0.0089
   215. (0.00073) RY*( 5) C   6           s(  0.01%)p99.99(  8.35%)d99.99( 88.60%)
                                                  f99.99(  3.04%)
                                           -0.0000  0.0006 -0.0024  0.0108  0.0037
                                           -0.0009 -0.0021 -0.0027  0.0012  0.0062
                                            0.0655  0.0155 -0.0795  0.2695  0.0471
                                            0.0072  0.8515  0.0622  0.3425  0.1863
                                           -0.0347  0.0059 -0.0384 -0.0090  0.0950
                                           -0.0103  0.0034 -0.1045  0.1012 -0.0058
                                           -0.0045
   216. (0.00042) RY*( 6) C   6           s(  8.89%)p 8.96( 79.63%)d 1.22( 10.82%)
                                                  f 0.07(  0.67%)
                                            0.0000  0.0049  0.2582 -0.1424 -0.0443
                                           -0.0047  0.2013 -0.7745  0.0007 -0.0938
                                            0.3833 -0.0011 -0.0005 -0.0151  0.1858
                                           -0.1351 -0.0372  0.0076  0.0495 -0.0274
                                            0.1972  0.0057 -0.0381  0.1020 -0.0066
                                            0.0378  0.0517  0.0076 -0.0077 -0.0397
                                           -0.0286
   217. (0.00029) RY*( 7) C   6           s( 16.85%)p 0.37(  6.15%)d 4.49( 75.66%)
                                                  f 0.08(  1.34%)
                                            0.0000 -0.0107  0.1250  0.3907 -0.0070
                                            0.0142 -0.1226  0.1626 -0.0079 -0.0233
                                            0.1327  0.0006  0.0177  0.0364  0.0291
                                           -0.0448 -0.0068  0.0158  0.0498 -0.0513
                                            0.5783 -0.6379  0.0329 -0.0768 -0.0027
                                            0.1125  0.0151 -0.0098  0.0046  0.0189
                                           -0.0044
   218. (0.00023) RY*( 8) C   6           s(  0.62%)p99.99( 69.12%)d46.61( 28.71%)
                                                  f 2.52(  1.56%)
                                            0.0000  0.0218  0.0715 -0.0188 -0.0149
                                           -0.0125  0.0000  0.4092 -0.0106  0.0747
                                            0.7181  0.0008  0.0166 -0.0430  0.2730
                                           -0.2215 -0.0415  0.0134 -0.0206  0.0236
                                           -0.1699  0.1444  0.3227 -0.0828  0.0023
                                           -0.0215 -0.0613  0.0201 -0.0080  0.0079
                                           -0.1039
   219. (0.00016) RY*( 9) C   6           s( 15.10%)p 1.54( 23.18%)d 3.81( 57.46%)
                                                  f 0.28(  4.26%)
                                           -0.0000 -0.0110 -0.1880  0.3395  0.0174
                                            0.0092 -0.2449 -0.1014  0.0157 -0.0265
                                            0.3932 -0.0008  0.0059 -0.0766 -0.5296
                                            0.2560  0.0209 -0.0045 -0.0319  0.0657
                                            0.2073  0.3925 -0.0669  0.1458  0.0157
                                            0.0512 -0.1213  0.0173  0.0043  0.0084
                                            0.1569
   220. (0.00010) RY*(10) C   6           s(  0.11%)p99.99( 14.69%)d99.99( 83.66%)
                                                  f14.39(  1.54%)
   221. (0.00007) RY*(11) C   6           s(  0.15%)p99.99( 36.12%)d99.99( 55.07%)
                                                  f56.86(  8.66%)
   222. (0.00007) RY*(12) C   6           s(  2.99%)p 3.59( 10.75%)d25.27( 75.68%)
                                                  f 3.53( 10.57%)
   223. (0.00005) RY*(13) C   6           s( 10.56%)p 0.62(  6.53%)d 6.64( 70.10%)
                                                  f 1.21( 12.81%)
   224. (0.00002) RY*(14) C   6           s(  0.15%)p99.99( 55.23%)d99.99( 42.56%)
                                                  f13.59(  2.05%)
   225. (0.00001) RY*(15) C   6           s( 53.47%)p 0.13(  6.88%)d 0.74( 39.65%)
                                                  f 0.00(  0.00%)
   226. (0.00002) RY*(16) C   6           s(  7.37%)p 1.78( 13.12%)d10.37( 76.46%)
                                                  f 0.41(  3.05%)
   227. (0.00000) RY*(17) C   6           s( 96.65%)p 0.00(  0.42%)d 0.03(  2.42%)
                                                  f 0.01(  0.51%)
   228. (0.00000) RY*(18) C   6           s(  0.05%)p25.88(  1.21%)d99.99( 98.62%)
                                                  f 2.46(  0.12%)
   229. (0.00001) RY*(19) C   6           s(  0.54%)p 5.35(  2.87%)d99.99( 96.46%)
                                                  f 0.25(  0.13%)
   230. (0.00000) RY*(20) C   6           s(  0.01%)p 1.00(  0.29%)d13.75(  4.01%)
                                                  f99.99( 95.69%)
   231. (0.00000) RY*(21) C   6           s(  0.15%)p 5.42(  0.83%)d16.32(  2.51%)
                                                  f99.99( 96.51%)
   232. (0.00001) RY*(22) C   6           s(  1.15%)p 0.84(  0.97%)d 7.58(  8.72%)
                                                  f77.51( 89.16%)
   233. (0.00000) RY*(23) C   6           s(  0.01%)p 1.00(  0.20%)d26.63(  5.41%)
                                                  f99.99( 94.38%)
   234. (0.00000) RY*(24) C   6           s(  0.01%)p43.92(  0.61%)d99.99(  4.11%)
                                                  f99.99( 95.27%)
   235. (0.00000) RY*(25) C   6           s(  1.08%)p 1.04(  1.13%)d12.30( 13.30%)
                                                  f78.13( 84.49%)
   236. (0.00001) RY*(26) C   6           s(  0.60%)p 1.83(  1.09%)d 9.59(  5.73%)
                                                  f99.99( 92.58%)
   237. (0.00362) RY*( 1) C   7           s(  0.01%)p99.99( 81.81%)d99.99( 18.14%)
                                                  f 2.46(  0.03%)
                                           -0.0000  0.0002 -0.0065  0.0089 -0.0018
                                           -0.0000 -0.0378  0.0012 -0.0024 -0.0735
                                            0.0208 -0.0239 -0.8743  0.2142  0.0000
                                            0.0003 -0.0116  0.1025 -0.4040  0.0632
                                            0.0363 -0.0111  0.0455 -0.0101 -0.0037
                                           -0.0019  0.0040  0.0153  0.0032  0.0035
                                            0.0037
   238. (0.00309) RY*( 2) C   7           s( 18.45%)p 3.87( 71.36%)d 0.54(  9.97%)
                                                  f 0.01(  0.21%)
                                            0.0000 -0.0039  0.4270 -0.0453  0.0116
                                            0.0074  0.6133  0.1157  0.0108  0.5619
                                           -0.0607 -0.0019 -0.0653  0.0175  0.0858
                                            0.2486 -0.0003 -0.0152 -0.0440  0.0147
                                           -0.1339 -0.0128 -0.0874  0.0493  0.0022
                                           -0.0030 -0.0265 -0.0023  0.0011 -0.0179
                                            0.0333
   239. (0.00158) RY*( 3) C   7           s(  2.97%)p29.20( 86.81%)d 3.04(  9.03%)
                                                  f 0.40(  1.19%)
                                           -0.0000 -0.0044  0.1459  0.0915  0.0077
                                            0.0311 -0.6749 -0.1232 -0.0341  0.6247
                                            0.0660  0.0025 -0.0256 -0.0085  0.1997
                                           -0.0736 -0.0004  0.0027 -0.0142  0.0091
                                            0.0306 -0.0337 -0.1808  0.0998  0.0019
                                            0.0028 -0.0388 -0.0068 -0.0002 -0.0447
                                            0.0913
   240. (0.00085) RY*( 4) C   7           s( 62.18%)p 0.34( 20.83%)d 0.27( 16.84%)
                                                  f 0.00(  0.15%)
                                           -0.0000 -0.0098  0.7882 -0.0197  0.0032
                                           -0.0221 -0.0498 -0.2450 -0.0078 -0.3799
                                           -0.0185  0.0002  0.0246  0.0008  0.0580
                                           -0.3448 -0.0019  0.0041 -0.0132  0.0226
                                           -0.0188  0.1491 -0.1483  0.0288  0.0030
                                            0.0112 -0.0080 -0.0056 -0.0009 -0.0348
                                           -0.0091
   241. (0.00073) RY*( 5) C   7           s(  0.01%)p99.99(  8.35%)d99.99( 88.60%)
                                                  f99.99(  3.03%)
                                            0.0000  0.0006 -0.0028  0.0108  0.0037
                                            0.0009  0.0022  0.0026  0.0012  0.0063
                                            0.0654  0.0155 -0.0795  0.2695 -0.0474
                                           -0.0069 -0.8520 -0.0625  0.3412  0.1861
                                           -0.0339  0.0057 -0.0390 -0.0090  0.0950
                                            0.0101  0.0034 -0.1042 -0.1015  0.0059
                                           -0.0044
   242. (0.00042) RY*( 6) C   7           s(  8.89%)p 8.96( 79.63%)d 1.22( 10.82%)
                                                  f 0.08(  0.67%)
                                            0.0000  0.0049  0.2582 -0.1423 -0.0443
                                            0.0047 -0.2012  0.7739  0.0007 -0.0942
                                            0.3844 -0.0011 -0.0005 -0.0148 -0.1853
                                            0.1350  0.0371 -0.0076  0.0492 -0.0271
                                            0.1979  0.0052 -0.0381  0.1020 -0.0067
                                           -0.0379  0.0517  0.0076  0.0076  0.0400
                                           -0.0284
   243. (0.00029) RY*( 7) C   7           s( 16.85%)p 0.37(  6.15%)d 4.49( 75.65%)
                                                  f 0.08(  1.34%)
                                           -0.0000 -0.0107  0.1251  0.3908 -0.0070
                                           -0.0142  0.1226 -0.1630 -0.0080 -0.0232
                                            0.1324  0.0006  0.0176  0.0360 -0.0273
                                            0.0428  0.0072 -0.0159  0.0497 -0.0513
                                            0.5783 -0.6380  0.0329 -0.0769 -0.0028
                                           -0.1125  0.0149 -0.0096 -0.0047 -0.0188
                                           -0.0045
   244. (0.00023) RY*( 8) C   7           s(  0.62%)p99.99( 69.12%)d46.57( 28.71%)
                                                  f 2.52(  1.55%)
                                            0.0000  0.0218  0.0715 -0.0189 -0.0148
                                            0.0125 -0.0002 -0.4103 -0.0105  0.0747
                                            0.7176  0.0008  0.0164 -0.0431 -0.2735
                                            0.2221  0.0413 -0.0133 -0.0202  0.0233
                                           -0.1690  0.1438  0.3225 -0.0827  0.0023
                                            0.0216 -0.0613  0.0201  0.0080 -0.0075
                                           -0.1039
   245. (0.00016) RY*( 9) C   7           s( 15.10%)p 1.54( 23.18%)d 3.81( 57.46%)
                                                  f 0.28(  4.26%)
                                            0.0000 -0.0110 -0.1880  0.3394  0.0174
                                           -0.0092  0.2450  0.1007  0.0157 -0.0261
                                            0.3934 -0.0008  0.0060 -0.0764  0.5304
                                           -0.2547 -0.0208  0.0045 -0.0316  0.0655
                                            0.2056  0.3933 -0.0670  0.1459  0.0156
                                           -0.0510 -0.1214  0.0174 -0.0041 -0.0092
                                            0.1568
   246. (0.00010) RY*(10) C   7           s(  0.11%)p99.99( 14.67%)d99.99( 83.68%)
                                                  f14.55(  1.54%)
   247. (0.00007) RY*(11) C   7           s(  0.15%)p99.99( 36.18%)d99.99( 55.00%)
                                                  f56.30(  8.66%)
   248. (0.00007) RY*(12) C   7           s(  3.00%)p 3.59( 10.75%)d25.25( 75.68%)
                                                  f 3.53( 10.57%)
   249. (0.00005) RY*(13) C   7           s( 10.56%)p 0.62(  6.53%)d 6.64( 70.10%)
                                                  f 1.21( 12.81%)
   250. (0.00002) RY*(14) C   7           s(  0.15%)p99.99( 55.17%)d99.99( 42.64%)
                                                  f13.72(  2.04%)
   251. (0.00001) RY*(15) C   7           s( 53.44%)p 0.13(  6.88%)d 0.74( 39.68%)
                                                  f 0.00(  0.00%)
   252. (0.00002) RY*(16) C   7           s(  7.39%)p 1.78( 13.12%)d10.35( 76.44%)
                                                  f 0.41(  3.06%)
   253. (0.00000) RY*(17) C   7           s( 96.65%)p 0.00(  0.42%)d 0.02(  2.42%)
                                                  f 0.01(  0.51%)
   254. (0.00000) RY*(18) C   7           s(  0.05%)p25.61(  1.21%)d99.99( 98.62%)
                                                  f 2.44(  0.12%)
   255. (0.00001) RY*(19) C   7           s(  0.54%)p 5.39(  2.88%)d99.99( 96.45%)
                                                  f 0.25(  0.13%)
   256. (0.00000) RY*(20) C   7           s(  0.01%)p 1.00(  0.29%)d13.75(  4.01%)
                                                  f99.99( 95.69%)
   257. (0.00000) RY*(21) C   7           s(  0.15%)p 5.44(  0.83%)d16.42(  2.51%)
                                                  f99.99( 96.51%)
   258. (0.00001) RY*(22) C   7           s(  1.15%)p 0.84(  0.97%)d 7.57(  8.72%)
                                                  f77.44( 89.16%)
   259. (0.00000) RY*(23) C   7           s(  0.01%)p 1.00(  0.20%)d26.74(  5.39%)
                                                  f99.99( 94.40%)
   260. (0.00000) RY*(24) C   7           s(  0.01%)p44.14(  0.61%)d99.99(  4.14%)
                                                  f99.99( 95.24%)
   261. (0.00000) RY*(25) C   7           s(  1.08%)p 1.04(  1.13%)d12.32( 13.35%)
                                                  f77.96( 84.44%)
   262. (0.00001) RY*(26) C   7           s(  0.60%)p 1.82(  1.09%)d 9.48(  5.69%)
                                                  f99.99( 92.62%)
   263. (0.00631) RY*( 1) N   8           s(  8.35%)p 9.48( 79.18%)d 1.47( 12.24%)
                                                  f 0.03(  0.23%)
                                           -0.0000  0.0033  0.2860 -0.0411  0.0014
                                           -0.0282  0.8810 -0.0047  0.0150 -0.0839
                                           -0.0221 -0.0027 -0.0838 -0.0038  0.1112
                                            0.0783 -0.0236 -0.0107 -0.0088 -0.0024
                                           -0.3089 -0.0665  0.0541 -0.0210 -0.0062
                                            0.0040  0.0142  0.0055 -0.0085 -0.0434
                                            0.0062
   264. (0.00496) RY*( 2) N   8           s(  0.08%)p99.99( 98.29%)d13.75(  1.15%)
                                                  f 5.65(  0.47%)
                                           -0.0000  0.0018  0.0266 -0.0113  0.0002
                                           -0.0028  0.0759 -0.0007  0.0015  0.0528
                                           -0.0039  0.0045  0.9859  0.0480  0.0121
                                            0.0172  0.0364  0.0837 -0.0260 -0.0084
                                           -0.0288 -0.0116  0.0318  0.0049  0.0203
                                           -0.0212  0.0082 -0.0337  0.0511 -0.0073
                                           -0.0014
   265. (0.00272) RY*( 3) N   8           s(  0.57%)p99.99( 84.55%)d25.16( 14.42%)
                                                  f 0.80(  0.46%)
                                            0.0000  0.0008  0.0649 -0.0390  0.0006
                                           -0.0005 -0.1551 -0.0062 -0.0021 -0.9037
                                           -0.0440 -0.0002  0.0519  0.0022 -0.2411
                                           -0.1386  0.0051  0.0102  0.0125 -0.0132
                                           -0.2405 -0.0351  0.0841 -0.0159 -0.0069
                                           -0.0348  0.0079 -0.0050 -0.0066 -0.0027
                                            0.0567
   266. (0.00190) RY*( 4) N   8           s( 77.60%)p 0.20( 15.36%)d 0.07(  5.29%)
                                                  f 0.02(  1.75%)
                                            0.0000  0.0074  0.8806 -0.0229  0.0058
                                            0.0211 -0.3500  0.0130  0.0011  0.1669
                                           -0.0490  0.0023 -0.0139  0.0025  0.0833
                                           -0.0790 -0.0142  0.0024 -0.0199  0.0023
                                           -0.1609 -0.0696  0.0861 -0.0305  0.0111
                                            0.0760 -0.0039 -0.0005  0.0066 -0.1072
                                            0.0042
   267. (0.00080) RY*( 5) N   8           s(  0.03%)p65.46(  1.69%)d99.99( 94.72%)
                                                  f99.99(  3.57%)
                                            0.0000 -0.0001  0.0079  0.0139  0.0015
                                           -0.0010  0.0142  0.0107 -0.0024 -0.0285
                                            0.0002  0.0127  0.0002 -0.1250 -0.0322
                                            0.0129 -0.4398  0.0347 -0.8236 -0.2304
                                            0.1138  0.0022  0.0796  0.0262  0.0151
                                            0.0044 -0.0090 -0.1194 -0.1434  0.0231
                                           -0.0008
   268. (0.00071) RY*( 6) N   8           s( 11.12%)p 0.86(  9.55%)d 6.86( 76.32%)
                                                  f 0.27(  3.00%)
                                            0.0000 -0.0055  0.2948  0.1556  0.0097
                                            0.0085  0.1509  0.0288 -0.0269 -0.2192
                                            0.1438  0.0095  0.0339 -0.0342 -0.0691
                                            0.1883 -0.3038  0.0367  0.2852  0.0080
                                            0.7323 -0.0472 -0.0902  0.0349  0.0111
                                           -0.0297 -0.0428  0.0059 -0.0013  0.1190
                                            0.1141
   269. (0.00058) RY*( 7) N   8           s(  1.76%)p 1.23(  2.16%)d54.22( 95.35%)
                                                  f 0.41(  0.73%)
                                            0.0000 -0.0032  0.1265  0.0396  0.0035
                                            0.0085  0.0777 -0.0039 -0.0145 -0.1072
                                            0.0491 -0.0167 -0.0300  0.0150  0.0152
                                            0.0650  0.8130 -0.1178 -0.3795  0.0005
                                            0.3506 -0.0226  0.0804  0.0146  0.0023
                                           -0.0295 -0.0104 -0.0168  0.0315  0.0485
                                            0.0517
   270. (0.00033) RY*( 8) N   8           s(  4.07%)p 1.77(  7.18%)d21.50( 87.48%)
                                                  f 0.31(  1.26%)
                                           -0.0000 -0.0087  0.0702  0.1881  0.0173
                                            0.0194  0.0335 -0.0536  0.0386  0.2022
                                           -0.1572 -0.0023 -0.0119  0.0141 -0.8445
                                            0.3381  0.0533 -0.0144 -0.0317  0.0134
                                           -0.1453 -0.0356 -0.1419  0.0269 -0.0104
                                            0.0202  0.0688 -0.0136  0.0049  0.0408
                                            0.0744
   271. (0.00014) RY*( 9) N   8           s(  3.71%)p 0.68(  2.51%)d24.18( 89.71%)
                                                  f 1.10(  4.06%)
                                           -0.0000 -0.0380  0.0291  0.1864  0.0089
                                           -0.0151 -0.0452 -0.0396  0.0007 -0.0977
                                            0.1051 -0.0020  0.0201  0.0167  0.2138
                                            0.0390  0.0574  0.0264 -0.1060 -0.0567
                                           -0.1512 -0.1417 -0.8473  0.2656  0.0084
                                            0.1024 -0.0553 -0.0391 -0.0137 -0.0737
                                            0.1409
   272. (0.00011) RY*(10) N   8           s( 12.00%)p 1.31( 15.72%)d 5.68( 68.12%)
                                                  f 0.35(  4.16%)
                                            0.0000  0.0039  0.0557  0.3418  0.0096
                                            0.0026  0.0031 -0.0655  0.0032 -0.0278
                                            0.3834  0.0002  0.0056 -0.0710  0.0084
                                            0.0767  0.0298  0.0564  0.0134 -0.0210
                                           -0.1348  0.8009  0.0891  0.0541  0.0137
                                            0.0782 -0.1170 -0.0377 -0.0268 -0.1071
                                            0.0894
   273. (0.00010) RY*(11) N   8           s( 12.21%)p 0.96( 11.78%)d 5.97( 72.85%)
                                                  f 0.26(  3.15%)
   274. (0.00007) RY*(12) N   8           s(  0.03%)p99.99( 35.68%)d99.99( 58.05%)
                                                  f99.99(  6.24%)
   275. (0.00006) RY*(13) N   8           s(  1.03%)p 1.09(  1.13%)d74.36( 76.91%)
                                                  f20.23( 20.92%)
   276. (0.00003) RY*(14) N   8           s(  3.07%)p21.79( 66.82%)d 5.56( 17.06%)
                                                  f 4.26( 13.06%)
   277. (0.00003) RY*(15) N   8           s( 52.03%)p 0.03(  1.73%)d 0.59( 30.64%)
                                                  f 0.30( 15.59%)
   278. (0.00001) RY*(16) N   8           s(  2.25%)p32.86( 74.11%)d 7.48( 16.86%)
                                                  f 3.01(  6.78%)
   279. (0.00001) RY*(17) N   8           s(  5.86%)p 0.76(  4.45%)d 0.93(  5.44%)
                                                  f14.39( 84.25%)
   280. (0.00001) RY*(18) N   8           s(  0.02%)p99.99( 60.71%)d99.99( 38.10%)
                                                  f72.84(  1.18%)
   281. (0.00000) RY*(19) N   8           s(  0.86%)p 5.85(  5.04%)d99.99( 92.79%)
                                                  f 1.51(  1.30%)
   282. (0.00000) RY*(20) N   8           s(  0.01%)p99.99(  2.35%)d99.99(  2.05%)
                                                  f99.99( 95.59%)
   283. (0.00001) RY*(21) N   8           s(  0.79%)p19.41( 15.24%)d 1.61(  1.26%)
                                                  f99.99( 82.71%)
   284. (0.00001) RY*(22) N   8           s(  0.07%)p39.52(  2.96%)d27.04(  2.02%)
                                                  f99.99( 94.95%)
   285. (0.00000) RY*(23) N   8           s(  0.02%)p 8.78(  0.15%)d99.99(  9.08%)
                                                  f99.99( 90.76%)
   286. (0.00000) RY*(24) N   8           s(  0.41%)p 1.87(  0.76%)d51.73( 21.01%)
                                                  f99.99( 77.82%)
   287. (0.00001) RY*(25) N   8           s(  3.30%)p 0.37(  1.22%)d 3.12( 10.30%)
                                                  f25.82( 85.17%)
   288. (0.00000) RY*(26) N   8           s( 98.92%)p 0.00(  0.15%)d 0.00(  0.18%)
                                                  f 0.01(  0.75%)
   289. (0.00425) RY*( 1) C   9           s(  0.07%)p99.99( 93.57%)d86.45(  6.19%)
                                                  f 2.34(  0.17%)
                                            0.0000  0.0031  0.0214  0.0152 -0.0040
                                           -0.0070 -0.3663  0.0541 -0.0117 -0.8890
                                            0.0327  0.0005  0.0838 -0.0094  0.1775
                                           -0.1224 -0.0087  0.0214 -0.0230  0.0262
                                           -0.0151  0.0185 -0.0851  0.0764  0.0054
                                            0.0165 -0.0104  0.0032 -0.0041 -0.0312
                                           -0.0162
   290. (0.00254) RY*( 2) C   9           s(  0.00%)p 1.00( 83.88%)d 0.19( 15.96%)
                                                  f 0.00(  0.15%)
                                            0.0000  0.0006  0.0054  0.0022 -0.0025
                                            0.0018  0.0234  0.0160 -0.0015 -0.0962
                                           -0.0118 -0.0060 -0.9079 -0.0655  0.0064
                                           -0.0187 -0.0835 -0.1669 -0.1904  0.2676
                                            0.0379 -0.0450  0.0677 -0.0923  0.0260
                                            0.0036 -0.0007 -0.0276  0.0062 -0.0018
                                           -0.0025
   291. (0.00171) RY*( 3) C   9           s(  0.23%)p99.99( 85.37%)d58.96( 13.45%)
                                                  f 4.20(  0.96%)
                                            0.0000  0.0007 -0.0069  0.0399  0.0253
                                            0.0060  0.8502 -0.0283 -0.0003 -0.3557
                                           -0.0218 -0.0003  0.0403  0.0373 -0.1450
                                           -0.0403  0.1293 -0.0211 -0.0116 -0.0037
                                            0.2008 -0.0749 -0.2147  0.0499  0.0033
                                           -0.0587  0.0046  0.0140 -0.0053  0.0450
                                           -0.0620
   292. (0.00130) RY*( 4) C   9           s(  0.02%)p99.99(  4.92%)d99.99( 94.70%)
                                                  f15.18(  0.35%)
                                           -0.0000 -0.0005 -0.0055  0.0140  0.0016
                                           -0.0003  0.0533  0.0121 -0.0003 -0.0226
                                            0.0188 -0.0009  0.0904  0.1930 -0.1036
                                           -0.0072 -0.8001 -0.0213 -0.4502 -0.2380
                                            0.1479  0.0286  0.0712  0.0925 -0.0163
                                           -0.0094  0.0092  0.0357  0.0414 -0.0070
                                           -0.0016
   293. (0.00120) RY*( 5) C   9           s(  0.07%)p60.19(  4.41%)d99.99( 95.20%)
                                                  f 4.27(  0.31%)
                                            0.0000  0.0032 -0.0086  0.0252 -0.0040
                                           -0.0010 -0.0637  0.0888  0.0009  0.0156
                                            0.1777 -0.0005 -0.0116 -0.0160 -0.4510
                                           -0.0818  0.0463  0.0074 -0.2770 -0.0304
                                           -0.6023 -0.0160 -0.5321 -0.1264  0.0184
                                            0.0285 -0.0331  0.0130  0.0134  0.0106
                                           -0.0207
   294. (0.00066) RY*( 6) C   9           s( 31.58%)p 0.42( 13.11%)d 1.61( 50.72%)
                                                  f 0.15(  4.60%)
                                           -0.0000 -0.0076  0.5593 -0.0529  0.0091
                                           -0.0138  0.1793  0.0549  0.0047 -0.0651
                                           -0.2713 -0.0019  0.0112  0.1330  0.1755
                                            0.1366  0.0477 -0.0963 -0.1016 -0.1011
                                           -0.5065 -0.2288  0.3055  0.1530 -0.0318
                                            0.0844  0.1145 -0.0436  0.0395 -0.1203
                                            0.0823
   295. (0.00055) RY*( 7) C   9           s(  2.52%)p18.32( 46.09%)d19.55( 49.20%)
                                                  f 0.87(  2.20%)
                                           -0.0000 -0.0011  0.1527  0.0428 -0.0033
                                           -0.0035  0.1533  0.3477  0.0083 -0.0166
                                            0.3829 -0.0053  0.1432 -0.3860  0.2219
                                            0.1999 -0.3467 -0.0108  0.2084  0.2523
                                           -0.0721 -0.1781 -0.0166 -0.3717  0.0201
                                            0.1039 -0.0203 -0.0829 -0.0333  0.0472
                                            0.0114
   296. (0.00050) RY*( 8) C   9           s(  0.23%)p99.99( 44.21%)d99.99( 53.38%)
                                                  f 9.35(  2.17%)
                                           -0.0000 -0.0003  0.0464  0.0116  0.0060
                                            0.0034 -0.0026  0.0388  0.0064 -0.0063
                                            0.5667  0.0024 -0.1125  0.3267  0.2550
                                            0.2243  0.3093 -0.0586 -0.2126 -0.4603
                                            0.1129 -0.0093  0.0328 -0.2199  0.0089
                                            0.0369  0.0107  0.0851  0.1046  0.0445
                                           -0.0027
   297. (0.00034) RY*( 9) C   9           s(  1.87%)p15.74( 29.39%)d35.03( 65.38%)
                                                  f 1.80(  3.36%)
                                           -0.0000 -0.0040  0.1154 -0.0578  0.0446
                                            0.0090 -0.1467 -0.2006  0.0062 -0.0695
                                           -0.4700 -0.0008  0.0215 -0.0764 -0.0660
                                            0.5275  0.0088  0.0296 -0.0932 -0.1202
                                            0.2062 -0.1605 -0.2599 -0.4596 -0.0313
                                            0.0035  0.0024  0.0173 -0.0130  0.0046
                                           -0.1793
   298. (0.00025) RY*(10) C   9           s(  3.79%)p 6.07( 22.96%)d18.58( 70.33%)
                                                  f 0.77(  2.92%)
                                           -0.0000 -0.0017  0.1936 -0.0014  0.0192
                                            0.0011 -0.0010 -0.2729  0.0006 -0.0371
                                            0.1390  0.0118 -0.2880  0.2267 -0.0592
                                            0.0694 -0.2764  0.4081  0.5850 -0.2187
                                           -0.0919 -0.0251 -0.1997  0.1139 -0.0210
                                            0.0510  0.0312  0.0245 -0.1497  0.0455
                                            0.0111
   299. (0.00021) RY*(11) C   9           s( 23.55%)p 2.29( 53.89%)d 0.91( 21.55%)
                                                  f 0.04(  1.00%)
                                            0.0000 -0.0011  0.4849 -0.0148  0.0123
                                            0.0087 -0.1081 -0.6000 -0.0054  0.0458
                                            0.3339 -0.0042  0.1269 -0.1933 -0.1272
                                           -0.1113  0.0317 -0.2058 -0.1407  0.2232
                                            0.2024 -0.1301 -0.0504  0.1162  0.0303
                                           -0.0635  0.0183 -0.0342  0.0298  0.0512
                                            0.0091
   300. (0.00014) RY*(12) C   9           s( 28.92%)p 0.89( 25.60%)d 1.48( 42.77%)
                                                  f 0.09(  2.71%)
                                            0.0000  0.0046  0.5184  0.1423 -0.0120
                                           -0.0017 -0.0729  0.4356 -0.0051  0.1813
                                           -0.1519  0.0025 -0.0688 -0.0122  0.1997
                                           -0.2424  0.0580  0.1332 -0.0861 -0.0478
                                            0.2926  0.1845 -0.4054  0.1194 -0.0403
                                           -0.1103 -0.0685  0.0463  0.0004  0.0698
                                           -0.0405
   301. (0.00012) RY*(13) C   9           s(  0.33%)p70.98( 23.23%)d99.99( 57.18%)
                                                  f58.86( 19.26%)
                                           -0.0000  0.0003  0.0548  0.0092 -0.0138
                                           -0.0005 -0.0625  0.0895  0.0004  0.0131
                                           -0.0700 -0.0035  0.0659  0.4593 -0.0556
                                           -0.0879 -0.1057 -0.6218  0.3294  0.0752
                                            0.0298  0.0440 -0.1432 -0.1603  0.3830
                                           -0.0553  0.1088 -0.1602  0.0285  0.0033
                                           -0.0673
   302. (0.00008) RY*(14) C   9           s( 11.23%)p 0.71(  8.01%)d 6.58( 73.93%)
                                                  f 0.61(  6.83%)
   303. (0.00005) RY*(15) C   9           s(  0.75%)p41.51( 31.23%)d70.12( 52.75%)
                                                  f20.28( 15.26%)
   304. (0.00003) RY*(16) C   9           s( 13.24%)p 0.83( 11.03%)d 5.20( 68.88%)
                                                  f 0.52(  6.85%)
   305. (0.00003) RY*(17) C   9           s(  6.51%)p 1.25(  8.14%)d11.60( 75.53%)
                                                  f 1.51(  9.82%)
   306. (0.00002) RY*(18) C   9           s( 58.12%)p 0.03(  1.83%)d 0.06(  3.66%)
                                                  f 0.63( 36.39%)
   307. (0.00000) RY*(19) C   9           s( 95.36%)p 0.00(  0.15%)d 0.05(  4.33%)
                                                  f 0.00(  0.16%)
   308. (0.00000) RY*(20) C   9           s(  0.12%)p 4.74(  0.56%)d99.99( 19.00%)
                                                  f99.99( 80.32%)
   309. (0.00000) RY*(21) C   9           s(  3.74%)p 0.07(  0.27%)d 1.54(  5.77%)
                                                  f24.09( 90.21%)
   310. (0.00001) RY*(22) C   9           s(  0.88%)p 1.47(  1.30%)d 9.79(  8.64%)
                                                  f99.99( 89.18%)
   311. (0.00001) RY*(23) C   9           s(  0.03%)p53.58(  1.66%)d99.99(  8.34%)
                                                  f99.99( 89.97%)
   312. (0.00001) RY*(24) C   9           s(  0.28%)p 6.78(  1.91%)d39.46( 11.13%)
                                                  f99.99( 86.67%)
   313. (0.00001) RY*(25) C   9           s(  3.33%)p 0.65(  2.16%)d 5.08( 16.94%)
                                                  f23.26( 77.57%)
   314. (0.00000) RY*(26) C   9           s( 13.23%)p 0.09(  1.24%)d 1.13( 14.96%)
                                                  f 5.34( 70.58%)
   315. (0.00179) RY*( 1) C  10           s(  0.86%)p99.99( 86.25%)d13.90( 11.96%)
                                                  f 1.08(  0.93%)
                                            0.0000  0.0008  0.0906 -0.0200 -0.0023
                                           -0.0020  0.1175  0.0054 -0.0097 -0.7122
                                            0.0221  0.0090  0.5815 -0.0513 -0.0567
                                            0.0512  0.0400 -0.0043  0.0518  0.0415
                                           -0.1586 -0.0206 -0.2740 -0.0842  0.0750
                                           -0.0324  0.0343  0.0313  0.0012 -0.0210
                                            0.0049
   316. (0.00129) RY*( 2) C  10           s(  7.04%)p10.65( 75.05%)d 2.24( 15.75%)
                                                  f 0.31(  2.16%)
                                            0.0000  0.0043  0.2654 -0.0036 -0.0013
                                           -0.0130 -0.6879  0.0397  0.0001 -0.3590
                                           -0.0183  0.0023 -0.3818 -0.0225  0.2217
                                            0.0445  0.2274 -0.0179  0.0646  0.0095
                                           -0.2115 -0.0232  0.0618 -0.0319 -0.0373
                                           -0.0154  0.0101  0.0577 -0.0944  0.0231
                                            0.0840
   317. (0.00049) RY*( 3) C  10           s( 37.11%)p 1.50( 55.49%)d 0.16(  5.76%)
                                                  f 0.04(  1.64%)
                                           -0.0000  0.0060  0.6091 -0.0056  0.0049
                                            0.0038  0.5369  0.1780 -0.0009 -0.2469
                                           -0.0989 -0.0026 -0.4052 -0.0048  0.0388
                                           -0.0762 -0.0246  0.0003 -0.1168 -0.0228
                                            0.1665 -0.0607  0.0640 -0.0082 -0.0209
                                           -0.0249  0.0716 -0.0682  0.0004  0.0343
                                           -0.0663
   318. (0.00042) RY*( 4) C  10           s( 29.15%)p 1.73( 50.40%)d 0.60( 17.54%)
                                                  f 0.10(  2.91%)
                                           -0.0000 -0.0051  0.5334  0.0830  0.0042
                                           -0.0013 -0.1496  0.0650 -0.0121  0.3908
                                           -0.0159 -0.0087  0.5172  0.2380  0.2950
                                           -0.0036  0.0978  0.0814 -0.0257 -0.0062
                                            0.0945 -0.1835  0.1008 -0.1367  0.0294
                                           -0.0200  0.0546  0.0113 -0.0992  0.1084
                                            0.0562
   319. (0.00030) RY*( 5) C  10           s(  3.79%)p 4.26( 16.13%)d19.05( 72.18%)
                                                  f 2.08(  7.90%)
                                           -0.0000  0.0001  0.0905  0.1715  0.0173
                                            0.0243 -0.3202 -0.2206 -0.0112 -0.0692
                                            0.0384 -0.0142 -0.0291 -0.0453 -0.3493
                                            0.1788 -0.1804  0.1379 -0.3842  0.1455
                                            0.5081 -0.1661 -0.2473 -0.0244 -0.0176
                                           -0.0458  0.1400 -0.1799 -0.0429 -0.0042
                                           -0.1509
   320. (0.00025) RY*( 6) C  10           s(  0.82%)p 2.06(  1.68%)d99.99( 85.95%)
                                                  f14.16( 11.56%)
                                            0.0000  0.0002  0.0534  0.0717 -0.0127
                                           -0.0212  0.0264 -0.0801  0.0023 -0.0081
                                           -0.0836 -0.0108  0.0039  0.0456  0.0786
                                           -0.0172 -0.5149  0.3129 -0.4129  0.2972
                                           -0.4370  0.1705  0.1008  0.0307 -0.1317
                                            0.1217  0.0147  0.1158 -0.1206  0.0197
                                            0.2342
   321. (0.00015) RY*( 7) C  10           s( 20.08%)p 0.76( 15.17%)d 3.16( 63.47%)
                                                  f 0.06(  1.27%)
                                            0.0000  0.0002  0.3281  0.3052  0.0047
                                           -0.0012  0.0522 -0.0040  0.0052  0.2866
                                            0.0799  0.0045 -0.0442 -0.2418 -0.4441
                                            0.3775  0.1391 -0.0767  0.1627 -0.0209
                                           -0.4041  0.1249 -0.2440  0.0659  0.0199
                                           -0.0259  0.0241  0.0264  0.0350 -0.0289
                                            0.0913
   322. (0.00012) RY*( 8) C  10           s(  0.94%)p11.21( 10.55%)d76.21( 71.70%)
                                                  f17.86( 16.81%)
                                            0.0000  0.0016  0.0891 -0.0348 -0.0160
                                           -0.0020 -0.0183 -0.1955 -0.0117  0.0857
                                           -0.0061  0.0295 -0.1425 -0.1956  0.2382
                                           -0.1790 -0.3943  0.1843  0.4330 -0.0234
                                            0.0946 -0.1614 -0.4644 -0.0054  0.3364
                                            0.0443  0.0141  0.1884  0.0083  0.0498
                                            0.1210
   323. (0.00009) RY*( 9) C  10           s( 36.28%)p 0.55( 20.12%)d 1.10( 39.96%)
                                                  f 0.10(  3.64%)
   324. (0.00007) RY*(10) C  10           s( 17.95%)p 1.57( 28.14%)d 2.37( 42.51%)
                                                  f 0.64( 11.41%)
   325. (0.00004) RY*(11) C  10           s( 14.40%)p 1.66( 23.96%)d 4.15( 59.77%)
                                                  f 0.13(  1.87%)
   326. (0.00002) RY*(12) C  10           s(  8.55%)p 6.80( 58.17%)d 2.34( 19.97%)
                                                  f 1.56( 13.30%)
   327. (0.00002) RY*(13) C  10           s(  1.19%)p49.17( 58.33%)d26.62( 31.58%)
                                                  f 7.51(  8.91%)
   328. (0.00002) RY*(14) C  10           s(  0.58%)p87.76( 50.87%)d43.26( 25.08%)
                                                  f40.49( 23.47%)
   329. (0.00001) RY*(15) C  10           s(  1.17%)p 1.97(  2.30%)d80.83( 94.59%)
                                                  f 1.66(  1.94%)
   330. (0.00000) RY*(16) C  10           s( 99.50%)p 0.00(  0.13%)d 0.00(  0.29%)
                                                  f 0.00(  0.08%)
   331. (0.00000) RY*(17) C  10           s(  5.63%)p 0.79(  4.45%)d15.71( 88.50%)
                                                  f 0.25(  1.41%)
   332. (0.00000) RY*(18) C  10           s(  2.11%)p 1.72(  3.64%)d44.23( 93.52%)
                                                  f 0.34(  0.72%)
   333. (0.00000) RY*(19) C  10           s(  4.71%)p 0.82(  3.86%)d19.38( 91.26%)
                                                  f 0.03(  0.16%)
   334. (0.00001) RY*(20) C  10           s(  0.11%)p87.81(  9.50%)d99.99( 20.02%)
                                                  f99.99( 70.37%)
   335. (0.00000) RY*(21) C  10           s(  0.47%)p 3.77(  1.79%)d10.92(  5.18%)
                                                  f99.99( 92.56%)
   336. (0.00000) RY*(22) C  10           s(  0.66%)p11.41(  7.52%)d16.21( 10.67%)
                                                  f99.99( 81.15%)
   337. (0.00000) RY*(23) C  10           s(  1.00%)p 1.99(  2.00%)d 8.99(  9.04%)
                                                  f87.53( 87.96%)
   338. (0.00000) RY*(24) C  10           s(  1.54%)p 1.41(  2.18%)d 5.73(  8.82%)
                                                  f56.82( 87.46%)
   339. (0.00000) RY*(25) C  10           s(  3.70%)p 2.85( 10.55%)d 0.67(  2.46%)
                                                  f22.52( 83.29%)
   340. (0.00001) RY*(26) C  10           s(  0.71%)p 3.42(  2.41%)d16.74( 11.81%)
                                                  f99.99( 85.08%)
   341. (0.00170) RY*( 1) C  11           s(  1.24%)p68.57( 85.30%)d10.04( 12.49%)
                                                  f 0.77(  0.96%)
                                            0.0000  0.0022  0.1109 -0.0111 -0.0037
                                           -0.0012  0.1196  0.0200 -0.0102 -0.8831
                                            0.0108 -0.0056 -0.2359  0.0503 -0.0439
                                            0.0593 -0.0261  0.0068 -0.2283 -0.0927
                                           -0.1191  0.0052 -0.2028 -0.0516 -0.0794
                                           -0.0129 -0.0442 -0.0342 -0.0032 -0.0033
                                            0.0048
   342. (0.00117) RY*( 2) C  11           s( 12.83%)p 5.14( 65.95%)d 1.42( 18.27%)
                                                  f 0.23(  2.95%)
                                           -0.0000  0.0019  0.3573  0.0253 -0.0017
                                           -0.0146 -0.7272  0.0923 -0.0012 -0.1225
                                           -0.0088  0.0018  0.3269 -0.0039  0.1806
                                            0.0531 -0.3322 -0.0214 -0.0016 -0.0470
                                           -0.1666 -0.0269  0.0721 -0.0249  0.0313
                                           -0.0933  0.0303 -0.0820  0.0946  0.0003
                                            0.0570
   343. (0.00055) RY*( 3) C  11           s( 23.09%)p 2.79( 64.42%)d 0.42(  9.60%)
                                                  f 0.13(  2.89%)
                                           -0.0000  0.0054  0.4805 -0.0033  0.0065
                                            0.0072  0.4181  0.0852  0.0007 -0.1151
                                           -0.0399  0.0033  0.6635  0.0838 -0.1035
                                           -0.0189  0.1138  0.0069  0.1890  0.0241
                                            0.1605 -0.0271 -0.0830  0.0475 -0.0504
                                            0.0065  0.1107  0.0872 -0.0454  0.0072
                                           -0.0656
   344. (0.00034) RY*( 4) C  11           s(  3.33%)p 7.36( 24.54%)d19.30( 64.38%)
                                                  f 2.32(  7.75%)
                                           -0.0000 -0.0016  0.0883  0.1585  0.0204
                                            0.0228 -0.4019 -0.2444 -0.0121 -0.0058
                                            0.0617  0.0155 -0.1388 -0.0117 -0.2404
                                            0.1009  0.3301 -0.1815  0.1792 -0.1377
                                            0.4493 -0.1644 -0.3922  0.0098 -0.1782
                                           -0.0070  0.1149  0.1537 -0.0521 -0.0263
                                           -0.0736
   345. (0.00027) RY*( 5) C  11           s( 19.99%)p 1.24( 24.69%)d 2.58( 51.51%)
                                                  f 0.19(  3.81%)
                                           -0.0000 -0.0024  0.4221 -0.1470  0.0078
                                            0.0043  0.1381  0.1249 -0.0099  0.0909
                                           -0.0852  0.0019 -0.4069 -0.1762  0.2288
                                           -0.1024 -0.3479  0.1459  0.0413  0.0034
                                            0.4153 -0.2633  0.1209 -0.2276 -0.1095
                                           -0.0284 -0.0164  0.0921 -0.0105  0.0729
                                           -0.1057
   346. (0.00022) RY*( 6) C  11           s(  4.91%)p 5.20( 25.54%)d13.63( 66.89%)
                                                  f 0.54(  2.66%)
                                            0.0000 -0.0017  0.2093  0.0726  0.0017
                                            0.0099  0.0367 -0.0853 -0.0054  0.2543
                                            0.4035 -0.0133  0.0079  0.1378 -0.3439
                                            0.2520 -0.2569  0.1613 -0.5618  0.2178
                                            0.0037  0.0482 -0.1717  0.0136 -0.0919
                                            0.0015 -0.0757  0.0267 -0.1073 -0.0074
                                           -0.0122
   347. (0.00019) RY*( 7) C  11           s( 30.41%)p 0.69( 20.97%)d 1.38( 41.89%)
                                                  f 0.22(  6.73%)
                                           -0.0000 -0.0031  0.5329  0.1419  0.0003
                                           -0.0129  0.1440 -0.1290  0.0001  0.2441
                                            0.0199  0.0147 -0.3336 -0.0270  0.0859
                                            0.0337  0.2051 -0.1896  0.1433 -0.1176
                                           -0.4843  0.1915 -0.1632 -0.0089 -0.0110
                                           -0.0429  0.0683 -0.1671  0.1527  0.0383
                                            0.0890
   348. (0.00011) RY*( 8) C  11           s(  0.74%)p10.22(  7.54%)d99.99( 78.34%)
                                                  f18.12( 13.38%)
                                            0.0000  0.0053  0.0827  0.0102 -0.0202
                                           -0.0067 -0.0383 -0.1128 -0.0121  0.0515
                                            0.0487 -0.0310  0.1359  0.1913  0.4507
                                           -0.2878  0.4178 -0.1514 -0.4946 -0.0396
                                            0.1618 -0.1154  0.0716 -0.0955 -0.1264
                                            0.0903 -0.2825 -0.1544  0.0631  0.0404
                                            0.0191
   349. (0.00007) RY*( 9) C  11           s( 58.32%)p 0.29( 16.75%)d 0.39( 23.03%)
                                                  f 0.03(  1.90%)
   350. (0.00007) RY*(10) C  11           s(  2.62%)p 9.22( 24.16%)d21.94( 57.51%)
                                                  f 5.99( 15.71%)
   351. (0.00004) RY*(11) C  11           s( 21.87%)p 1.20( 26.26%)d 2.03( 44.36%)
                                                  f 0.34(  7.52%)
   352. (0.00002) RY*(12) C  11           s(  1.20%)p54.11( 65.10%)d19.00( 22.86%)
                                                  f 9.01( 10.84%)
   353. (0.00001) RY*(13) C  11           s(  2.70%)p 5.35( 14.47%)d28.64( 77.38%)
                                                  f 2.02(  5.45%)
   354. (0.00002) RY*(14) C  11           s(  1.81%)p41.18( 74.53%)d 4.77(  8.63%)
                                                  f 8.31( 15.03%)
   355. (0.00002) RY*(15) C  11           s(  3.69%)p 3.76( 13.89%)d19.94( 73.62%)
                                                  f 2.38(  8.80%)
   356. (0.00000) RY*(16) C  11           s( 99.56%)p 0.00(  0.08%)d 0.00(  0.34%)
                                                  f 0.00(  0.03%)
   357. (0.00000) RY*(17) C  11           s(  0.13%)p 4.98(  0.67%)d99.99( 98.98%)
                                                  f 1.68(  0.22%)
   358. (0.00000) RY*(18) C  11           s(  0.28%)p 3.48(  0.97%)d99.99( 97.13%)
                                                  f 5.80(  1.62%)
   359. (0.00001) RY*(19) C  11           s(  2.49%)p 4.78( 11.91%)d33.98( 84.68%)
                                                  f 0.36(  0.91%)
   360. (0.00000) RY*(20) C  11           s(  1.53%)p 3.60(  5.51%)d11.76( 18.00%)
                                                  f48.99( 74.96%)
   361. (0.00000) RY*(21) C  11           s(  0.62%)p 3.02(  1.89%)d 7.66(  4.78%)
                                                  f99.99( 92.71%)
   362. (0.00001) RY*(22) C  11           s(  1.31%)p 2.00(  2.62%)d10.36( 13.56%)
                                                  f63.05( 82.51%)
   363. (0.00000) RY*(23) C  11           s(  0.87%)p 3.38(  2.93%)d15.26( 13.23%)
                                                  f95.73( 82.98%)
   364. (0.00000) RY*(24) C  11           s(  0.49%)p18.28(  8.93%)d23.61( 11.54%)
                                                  f99.99( 79.03%)
   365. (0.00000) RY*(25) C  11           s(  3.80%)p 1.90(  7.24%)d 0.86(  3.26%)
                                                  f22.54( 85.70%)
   366. (0.00000) RY*(26) C  11           s(  0.22%)p17.38(  3.79%)d14.11(  3.08%)
                                                  f99.99( 92.92%)
   367. (0.00162) RY*( 1) C  12           s(  0.00%)p 1.00( 85.75%)d 0.15( 13.15%)
                                                  f 0.01(  1.10%)
                                           -0.0000 -0.0000  0.0041 -0.0015  0.0007
                                            0.0002  0.0247 -0.0009 -0.0015 -0.1279
                                           -0.0007 -0.0117 -0.9168 -0.0006 -0.0211
                                            0.0046 -0.1732 -0.0107 -0.2573 -0.1641
                                            0.0354  0.0311  0.0632  0.0392  0.0668
                                            0.0131  0.0344  0.0444 -0.0558  0.0044
                                            0.0082
   368. (0.00102) RY*( 2) C  12           s(  6.31%)p10.56( 66.63%)d 3.71( 23.40%)
                                                  f 0.58(  3.66%)
                                            0.0000  0.0014  0.1980  0.1546 -0.0045
                                           -0.0145 -0.5699  0.0212  0.0085  0.5765
                                            0.0008 -0.0014 -0.0912  0.0104 -0.1011
                                            0.0134 -0.0108  0.0045 -0.0407 -0.0014
                                           -0.4600 -0.0329  0.0955 -0.0062 -0.0050
                                            0.0906  0.0256  0.0039 -0.0010 -0.0963
                                           -0.1356
   369. (0.00033) RY*( 3) C  12           s( 33.54%)p 0.08(  2.71%)d 1.75( 58.86%)
                                                  f 0.15(  4.89%)
                                           -0.0000 -0.0006  0.2776  0.5083  0.0020
                                            0.0252  0.1582  0.0216 -0.0040 -0.0232
                                           -0.0074  0.0027  0.0079  0.0159 -0.5170
                                            0.1450  0.0473 -0.0013 -0.1189  0.0757
                                            0.0239  0.0324 -0.4715  0.2328 -0.0085
                                           -0.0931 -0.0173 -0.0015  0.0212  0.1982
                                            0.0104
   370. (0.00026) RY*( 4) C  12           s(  5.42%)p15.64( 84.74%)d 1.71(  9.27%)
                                                  f 0.11(  0.58%)
                                            0.0000  0.0109  0.0120  0.2315 -0.0184
                                           -0.0130  0.6450  0.2004 -0.0107  0.5866
                                            0.2048  0.0024 -0.0669 -0.0188  0.2463
                                           -0.0500 -0.0668  0.0203  0.0624 -0.0363
                                            0.0364 -0.0922  0.0934 -0.0294 -0.0176
                                            0.0484  0.0324 -0.0110  0.0052 -0.0255
                                           -0.0357
   371. (0.00020) RY*( 5) C  12           s(  2.21%)p 2.44(  5.40%)d36.81( 81.52%)
                                                  f 4.91( 10.87%)
                                           -0.0000 -0.0005  0.1420  0.0444  0.0028
                                            0.0004 -0.0030 -0.0083  0.0123 -0.1356
                                            0.0157  0.0226  0.0246  0.1845 -0.0980
                                            0.0053 -0.6552  0.3114  0.4655 -0.2431
                                           -0.0484  0.0020  0.0268  0.0178 -0.1262
                                            0.0370 -0.0607 -0.2588  0.0978 -0.0216
                                           -0.1032
   372. (0.00017) RY*( 6) C  12           s( 43.52%)p 0.18(  7.98%)d 0.86( 37.27%)
                                                  f 0.26( 11.24%)
                                           -0.0000 -0.0004  0.6340  0.1807  0.0225
                                            0.0100  0.0230 -0.0947  0.0240 -0.2265
                                            0.0648 -0.0134  0.1102 -0.0417 -0.0036
                                           -0.1499  0.0301  0.0403 -0.1715  0.0730
                                            0.2008 -0.1524  0.4786 -0.1424  0.0114
                                            0.2261  0.2024  0.0830 -0.0436  0.0190
                                           -0.1052
   373. (0.00014) RY*( 7) C  12           s(  4.26%)p 1.96(  8.34%)d18.41( 78.39%)
                                                  f 2.11(  9.01%)
                                           -0.0000  0.0003  0.2020  0.0420  0.0039
                                            0.0033  0.0396  0.0317  0.0102 -0.1297
                                           -0.0073  0.0090 -0.2502 -0.0349  0.0184
                                           -0.0784  0.4939 -0.3648  0.6096 -0.1350
                                           -0.1021 -0.0053 -0.0057 -0.0113 -0.0861
                                            0.0109 -0.0040 -0.1534  0.2240 -0.0330
                                           -0.0879
   374. (0.00006) RY*( 8) C  12           s( 48.76%)p 0.27( 13.32%)d 0.59( 28.79%)
                                                  f 0.19(  9.12%)
   375. (0.00004) RY*( 9) C  12           s(  7.05%)p 5.36( 37.74%)d 5.55( 39.07%)
                                                  f 2.29( 16.14%)
   376. (0.00005) RY*(10) C  12           s(  9.26%)p 2.36( 21.86%)d 7.15( 66.23%)
                                                  f 0.29(  2.64%)
   377. (0.00002) RY*(11) C  12           s(  1.81%)p40.28( 73.01%)d 2.28(  4.14%)
                                                  f11.61( 21.04%)
   378. (0.00002) RY*(12) C  12           s(  0.84%)p 9.39(  7.88%)d99.99( 87.44%)
                                                  f 4.57(  3.84%)
   379. (0.00000) RY*(13) C  12           s(  0.02%)p15.84(  0.25%)d99.99( 99.63%)
                                                  f 6.06(  0.10%)
   380. (0.00000) RY*(14) C  12           s(  0.10%)p99.99( 93.64%)d59.91(  5.78%)
                                                  f 5.03(  0.49%)
   381. (0.00001) RY*(15) C  12           s( 20.09%)p 0.45(  8.98%)d 3.52( 70.82%)
                                                  f 0.01(  0.11%)
   382. (0.00000) RY*(16) C  12           s( 99.72%)p 0.00(  0.06%)d 0.00(  0.20%)
                                                  f 0.00(  0.01%)
   383. (0.00000) RY*(17) C  12           s(  1.55%)p 2.20(  3.41%)d61.14( 94.93%)
                                                  f 0.07(  0.11%)
   384. (0.00000) RY*(18) C  12           s(  1.95%)p21.37( 41.70%)d28.15( 54.92%)
                                                  f 0.73(  1.43%)
   385. (0.00001) RY*(19) C  12           s(  1.04%)p 9.19(  9.58%)d84.89( 88.52%)
                                                  f 0.82(  0.86%)
   386. (0.00001) RY*(20) C  12           s(  0.70%)p 1.58(  1.11%)d 4.47(  3.13%)
                                                  f99.99( 95.06%)
   387. (0.00000) RY*(21) C  12           s(  2.29%)p 0.90(  2.05%)d 3.29(  7.54%)
                                                  f38.43( 88.11%)
   388. (0.00000) RY*(22) C  12           s(  3.35%)p 1.82(  6.10%)d 1.84(  6.17%)
                                                  f25.17( 84.37%)
   389. (0.00000) RY*(23) C  12           s(  0.04%)p 7.64(  0.30%)d99.99( 11.03%)
                                                  f99.99( 88.64%)
   390. (0.00000) RY*(24) C  12           s(  0.40%)p 2.07(  0.82%)d17.91(  7.12%)
                                                  f99.99( 91.66%)
   391. (0.00001) RY*(25) C  12           s(  0.77%)p15.88( 12.21%)d20.43( 15.71%)
                                                  f92.71( 71.30%)
   392. (0.00000) RY*(26) C  12           s(  5.04%)p 1.00(  5.04%)d 1.25(  6.31%)
                                                  f16.57( 83.60%)
   393. (0.00629) RY*( 1) C  13           s(  6.16%)p14.39( 88.70%)d 0.83(  5.12%)
                                                  f 0.00(  0.02%)
                                            0.0000 -0.0410  0.2139 -0.1192  0.0010
                                            0.0000  0.0010 -0.0002 -0.0099 -0.9261
                                            0.0222 -0.0064  0.1593 -0.0578 -0.0001
                                           -0.0004 -0.0007 -0.0013 -0.0051 -0.0098
                                           -0.0736 -0.2010 -0.0648  0.0326 -0.0022
                                            0.0000 -0.0070 -0.0067  0.0000 -0.0000
                                            0.0085
   394. (0.00484) RY*( 2) C  13           s( 73.62%)p 0.24( 17.48%)d 0.12(  8.52%)
                                                  f 0.01(  0.38%)
                                           -0.0000 -0.0138  0.8530 -0.0919  0.0041
                                            0.0001 -0.0057  0.0014  0.0672  0.1455
                                            0.1716  0.0142 -0.3331  0.0920  0.0011
                                            0.0016  0.0169  0.0285  0.0060 -0.0003
                                            0.2631 -0.1010  0.0576 -0.0371 -0.0015
                                           -0.0001  0.0346  0.0030 -0.0005 -0.0002
                                            0.0506
   395. (0.00336) RY*( 3) C  13           s(  7.50%)p11.33( 85.01%)d 0.98(  7.39%)
                                                  f 0.01(  0.11%)
                                           -0.0000  0.0028  0.2738  0.0065  0.0009
                                           -0.0013  0.0428 -0.0080  0.0208  0.2174
                                            0.0896 -0.0406  0.8664 -0.2003 -0.0092
                                           -0.0023 -0.0584 -0.0980 -0.2175  0.0271
                                            0.1018 -0.0080  0.0481  0.0020  0.0012
                                           -0.0017  0.0163  0.0241  0.0013  0.0008
                                            0.0146
   396. (0.00277) RY*( 4) C  13           s(  0.01%)p 1.00( 88.94%)d 0.12( 10.35%)
                                                  f 0.01(  0.71%)
                                           -0.0000  0.0002  0.0080  0.0011 -0.0000
                                            0.0276 -0.9364  0.0979  0.0008  0.0088
                                            0.0037  0.0010  0.0453 -0.0123  0.2799
                                           -0.1501  0.0363  0.0337 -0.0094  0.0060
                                            0.0013  0.0007  0.0022  0.0003  0.0001
                                            0.0804  0.0008  0.0024  0.0135 -0.0205
                                            0.0005
   397. (0.00127) RY*( 5) C  13           s(  0.05%)p39.83(  1.87%)d99.99( 97.91%)
                                                  f 3.67(  0.17%)
                                           -0.0000 -0.0004  0.0215  0.0022 -0.0017
                                           -0.0004  0.0283  0.0296  0.0035  0.0231
                                            0.0252  0.0228  0.1029 -0.0690 -0.0490
                                            0.0906  0.5018  0.8367  0.0131  0.1079
                                           -0.0631  0.0258  0.0073  0.0008 -0.0002
                                           -0.0224  0.0043  0.0290 -0.0169  0.0013
                                            0.0089
   398. (0.00094) RY*( 6) C  13           s(  7.79%)p 0.61(  4.78%)d11.11( 86.53%)
                                                  f 0.12(  0.90%)
                                           -0.0000 -0.0152  0.2381 -0.1436 -0.0179
                                           -0.0001  0.0001 -0.0026  0.0225  0.0523
                                            0.1842  0.0016 -0.0342 -0.0973  0.0042
                                           -0.0075 -0.0446 -0.0738  0.0310  0.0753
                                           -0.8074  0.4412 -0.0630  0.0247 -0.0137
                                            0.0021 -0.0046 -0.0024  0.0015 -0.0001
                                            0.0938
   399. (0.00076) RY*( 7) C  13           s(  0.00%)p 1.00( 33.95%)d 1.89( 64.01%)
                                                  f 0.06(  2.04%)
                                           -0.0000 -0.0000  0.0004 -0.0001 -0.0000
                                            0.0395 -0.3239 -0.4828  0.0001 -0.0004
                                            0.0006 -0.0002 -0.0009  0.0008 -0.7712
                                            0.2014 -0.0692 -0.0007 -0.0010 -0.0017
                                           -0.0004  0.0009 -0.0002  0.0000 -0.0001
                                           -0.1197 -0.0001 -0.0005 -0.0257 -0.0734
                                            0.0000
   400. (0.00039) RY*( 8) C  13           s(  0.48%)p62.30( 30.09%)d99.99( 68.36%)
                                                  f 2.21(  1.07%)
                                           -0.0000 -0.0025 -0.0114  0.0677  0.0108
                                           -0.0004 -0.0030  0.0350  0.0043 -0.0548
                                            0.0733 -0.0221  0.0025  0.5392 -0.0196
                                            0.0086  0.0488  0.0723 -0.6820 -0.4235
                                           -0.0581  0.1453 -0.0810  0.0066  0.0219
                                           -0.0034 -0.0201 -0.0982 -0.0020  0.0008
                                           -0.0112
   401. (0.00037) RY*( 9) C  13           s(  0.00%)p 1.00( 73.64%)d 0.35( 26.13%)
                                                  f 0.00(  0.23%)
                                           -0.0000 -0.0001 -0.0009  0.0053  0.0005
                                            0.0112  0.0666 -0.8552  0.0002 -0.0024
                                            0.0031 -0.0005  0.0005  0.0209  0.5054
                                            0.0097 -0.0123  0.0685 -0.0273 -0.0093
                                           -0.0024  0.0048 -0.0022 -0.0003  0.0011
                                            0.0430 -0.0005 -0.0019  0.0174 -0.0120
                                           -0.0003
   402. (0.00027) RY*(10) C  13           s( 11.76%)p 6.59( 77.50%)d 0.87( 10.20%)
                                                  f 0.05(  0.55%)
                                           -0.0000 -0.0176  0.2687  0.2121 -0.0100
                                            0.0001 -0.0003 -0.0007  0.0208  0.0369
                                           -0.8775 -0.0026  0.0461 -0.0315  0.0001
                                            0.0032  0.0147  0.0216  0.0925 -0.2422
                                           -0.1389  0.0458 -0.1054  0.0399 -0.0146
                                           -0.0007 -0.0268 -0.0665 -0.0004  0.0000
                                            0.0102
   403. (0.00025) RY*(11) C  13           s( 29.75%)p 0.22(  6.40%)d 2.03( 60.48%)
                                                  f 0.11(  3.36%)
                                           -0.0000 -0.0049  0.0658  0.5414  0.0082
                                           -0.0002  0.0006  0.0034  0.0087 -0.1024
                                           -0.1122  0.0077 -0.0474  0.1964 -0.0025
                                           -0.0076 -0.0346 -0.0521 -0.2677  0.6810
                                           -0.0743  0.0237  0.2211 -0.1018  0.0301
                                            0.0015 -0.0042  0.1761  0.0010 -0.0003
                                            0.0413
   404. (0.00014) RY*(12) C  13           s(  2.70%)p 1.47(  3.99%)d33.93( 91.77%)
                                                  f 0.57(  1.54%)
                                            0.0000  0.0071  0.0009  0.1610 -0.0327
                                            0.0001 -0.0004 -0.0002 -0.0054 -0.0091
                                            0.0878 -0.0010  0.0846  0.1577  0.0005
                                            0.0035  0.0128  0.0151  0.2477 -0.3264
                                           -0.2187 -0.1968  0.8116 -0.0639 -0.0212
                                           -0.0010 -0.0626 -0.0842 -0.0003  0.0002
                                            0.0632
   405. (0.00011) RY*(13) C  13           s( 46.09%)p 0.26( 11.97%)d 0.87( 40.24%)
                                                  f 0.04(  1.71%)
                                           -0.0000 -0.0094  0.0548  0.6759  0.0321
                                            0.0000 -0.0002  0.0001  0.0081 -0.1142
                                            0.3182  0.0022  0.0657 -0.0314  0.0009
                                            0.0031  0.0074  0.0093  0.3469 -0.2575
                                            0.1500  0.3125 -0.2886 -0.1100  0.0267
                                           -0.0008 -0.0222 -0.0898 -0.0001  0.0000
                                            0.0882
   406. (0.00008) RY*(14) C  13           s(  6.20%)p 1.28(  7.95%)d13.36( 82.82%)
                                                  f 0.49(  3.03%)
   407. (0.00008) RY*(15) C  13           s(  0.00%)p 1.00(  1.35%)d64.43( 86.73%)
                                                  f 8.86( 11.92%)
   408. (0.00005) RY*(16) C  13           s(  6.57%)p 9.52( 62.59%)d 4.33( 28.45%)
                                                  f 0.36(  2.38%)
   409. (0.00006) RY*(17) C  13           s(  0.00%)p 1.00(  1.44%)d66.76( 95.89%)
                                                  f 1.86(  2.68%)
   410. (0.00002) RY*(18) C  13           s(  0.72%)p 0.93(  0.67%)d99.99( 95.83%)
                                                  f 3.84(  2.77%)
   411. (0.00000) RY*(19) C  13           s( 99.13%)p 0.00(  0.05%)d 0.01(  0.81%)
                                                  f 0.00(  0.00%)
   412. (0.00000) RY*(20) C  13           s(  0.02%)p25.05(  0.56%)d14.85(  0.33%)
                                                  f99.99( 99.09%)
   413. (0.00001) RY*(21) C  13           s(  0.00%)p 1.00(  0.01%)d99.99( 11.88%)
                                                  f99.99( 88.10%)
   414. (0.00001) RY*(22) C  13           s(  0.20%)p 3.84(  0.76%)d15.52(  3.07%)
                                                  f99.99( 95.97%)
   415. (0.00001) RY*(23) C  13           s(  0.04%)p 7.54(  0.33%)d99.99(  8.54%)
                                                  f99.99( 91.09%)
   416. (0.00000) RY*(24) C  13           s(  0.00%)p 1.00(  0.01%)d99.99(  1.43%)
                                                  f99.99( 98.56%)
   417. (0.00001) RY*(25) C  13           s(  0.00%)p 1.00(  0.52%)d 7.35(  3.80%)
                                                  f99.99( 95.68%)
   418. (0.00001) RY*(26) C  13           s(  0.82%)p 0.21(  0.17%)d 3.77(  3.08%)
                                                  f99.99( 95.93%)
   419. (0.00331) RY*( 1)Ni  14           s(  0.39%)p 0.82(  0.32%)d99.99( 99.29%)
                                                  f 0.01(  0.00%)
                                            0.0000  0.0074 -0.0203  0.0507 -0.0285
                                            0.0043 -0.0000  0.0001  0.0003 -0.0003
                                           -0.0000  0.0000  0.0015 -0.0094  0.0099
                                            0.0008  0.0000 -0.0080 -0.0482  0.0245
                                           -0.0011  0.0000 -0.0006 -0.0002 -0.0000
                                           -0.0031  0.0003  0.0015  0.8345 -0.0252
                                           -0.0030  0.4269 -0.0106 -0.0028 -0.3352
                                            0.0338 -0.0016 -0.0000 -0.0019  0.0018
                                            0.0000  0.0000 -0.0055
   420. (0.00287) RY*( 2)Ni  14           s(  0.00%)p 1.00(  2.45%)d39.88( 97.54%)
                                                  f 0.01(  0.01%)
                                           -0.0000  0.0000 -0.0001  0.0003 -0.0001
                                            0.0000  0.0000 -0.0193 -0.1340  0.0782
                                            0.0021 -0.0000 -0.0000 -0.0001 -0.0000
                                            0.0000 -0.0000 -0.0000  0.0000 -0.0001
                                            0.0000  0.0002  0.7347  0.0580  0.0038
                                            0.6553 -0.0534  0.0000  0.0018 -0.0001
                                            0.0000  0.0009 -0.0002 -0.0000 -0.0020
                                            0.0001 -0.0000  0.0010  0.0000  0.0000
                                           -0.0111  0.0047 -0.0000
   421. (0.00105) RY*( 3)Ni  14           s(  4.10%)p 1.94(  7.96%)d21.43( 87.91%)
                                                  f 0.01(  0.03%)
                                            0.0000  0.0015  0.1077  0.1356  0.0997
                                           -0.0331  0.0000  0.0002  0.0022 -0.0017
                                           -0.0000  0.0000 -0.0041 -0.1251  0.0077
                                           -0.0024 -0.0000  0.0213  0.1160 -0.2235
                                            0.0009  0.0001 -0.0048 -0.0001 -0.0000
                                            0.0043 -0.0000  0.0054 -0.1452 -0.0265
                                            0.0022 -0.3652  0.0742  0.0027 -0.8452
                                            0.0628 -0.0100 -0.0000 -0.0066 -0.0120
                                            0.0001 -0.0000 -0.0008
   422. (0.00101) RY*( 4)Ni  14           s(  0.00%)p 1.00( 11.14%)d 7.98( 88.85%)
                                                  f 0.00(  0.01%)
                                           -0.0000 -0.0000  0.0010  0.0009  0.0004
                                           -0.0004  0.0000 -0.0254 -0.2818  0.1770
                                            0.0057 -0.0000 -0.0001 -0.0007  0.0005
                                           -0.0000 -0.0000  0.0002  0.0012 -0.0021
                                            0.0000 -0.0100  0.5879 -0.0032  0.0030
                                           -0.7362  0.0274  0.0001 -0.0028  0.0001
                                            0.0000 -0.0028  0.0005  0.0000 -0.0053
                                            0.0005 -0.0001  0.0054 -0.0000 -0.0001
                                           -0.0091  0.0008 -0.0000
   423. (0.00091) RY*( 5)Ni  14           s( 10.46%)p 0.86(  8.95%)d 7.70( 80.55%)
                                                  f 0.00(  0.04%)
                                            0.0000  0.0131  0.3016 -0.0288  0.1075
                                            0.0326 -0.0000 -0.0001 -0.0003  0.0006
                                            0.0000  0.0000  0.0003 -0.2088 -0.1124
                                           -0.0026  0.0000 -0.0175 -0.0235  0.1799
                                           -0.0007 -0.0000  0.0006  0.0002 -0.0000
                                           -0.0002  0.0000 -0.0011  0.4695 -0.0712
                                            0.0021 -0.7092  0.0741  0.0023  0.2622
                                            0.0524  0.0183  0.0000  0.0021 -0.0078
                                           -0.0000 -0.0000  0.0068
   424. (0.00061) RY*( 6)Ni  14           s( 16.30%)p 4.41( 71.89%)d 0.72( 11.77%)
                                                  f 0.00(  0.04%)
                                           -0.0000  0.0044  0.3186  0.0630  0.2398
                                           -0.0008 -0.0000  0.0000 -0.0007 -0.0000
                                            0.0000 -0.0000 -0.0112 -0.3664 -0.0534
                                            0.0029  0.0000 -0.0172  0.7601  0.0592
                                           -0.0040  0.0000 -0.0004  0.0000 -0.0000
                                            0.0003 -0.0002  0.0059 -0.0404  0.1673
                                            0.0023  0.2649 -0.0793  0.0012  0.1033
                                            0.0299  0.0144  0.0000  0.0059  0.0075
                                            0.0000 -0.0000  0.0110
   425. (0.00052) RY*( 7)Ni  14           s(  0.00%)p 1.00( 91.35%)d 0.09(  8.65%)
                                                  f 0.00(  0.00%)
                                           -0.0000  0.0000  0.0018  0.0001  0.0005
                                           -0.0000  0.0000 -0.0111  0.9449  0.1429
                                           -0.0033 -0.0000 -0.0000 -0.0005  0.0002
                                            0.0000 -0.0000 -0.0000 -0.0005 -0.0001
                                           -0.0000  0.0053  0.2592  0.0684  0.0092
                                           -0.1198  0.0118  0.0000 -0.0007  0.0004
                                           -0.0000  0.0006 -0.0004 -0.0000  0.0003
                                            0.0001  0.0000  0.0031  0.0000  0.0000
                                           -0.0007 -0.0061  0.0000
   426. (0.00046) RY*( 8)Ni  14           s( 68.00%)p 0.34( 22.81%)d 0.13(  9.08%)
                                                  f 0.00(  0.11%)
                                            0.0000  0.0022  0.8135 -0.1297  0.0376
                                           -0.0056  0.0000  0.0000 -0.0018 -0.0004
                                           -0.0000 -0.0000 -0.0150 -0.0619  0.1125
                                           -0.0015  0.0000  0.0006 -0.4582 -0.0378
                                           -0.0008 -0.0000 -0.0006 -0.0002 -0.0000
                                            0.0005 -0.0001 -0.0042 -0.1446 -0.0060
                                           -0.0051  0.2487 -0.0695  0.0055 -0.0412
                                            0.0377  0.0225  0.0001  0.0105 -0.0034
                                           -0.0000 -0.0000  0.0211
   427. (0.00035) RY*( 9)Ni  14           s( 54.42%)p 0.77( 41.73%)d 0.06(  3.42%)
                                                  f 0.01(  0.43%)
                                            0.0000  0.0100 -0.1057  0.7279 -0.0167
                                            0.0522 -0.0000 -0.0000 -0.0005  0.0004
                                            0.0000  0.0000 -0.0079 -0.4920 -0.2388
                                            0.0086  0.0000 -0.0040 -0.3261 -0.1083
                                            0.0054 -0.0000 -0.0001  0.0005 -0.0000
                                           -0.0001  0.0001 -0.0053 -0.0596  0.0849
                                            0.0046  0.0877 -0.0096  0.0045  0.1241
                                            0.0147 -0.0494 -0.0001 -0.0253  0.0272
                                            0.0000  0.0001 -0.0227
   428. (0.00024) RY*(10)Ni  14           s( 47.81%)p 0.95( 45.54%)d 0.14(  6.49%)
                                                  f 0.00(  0.17%)
                                           -0.0000 -0.0080  0.2608  0.6189 -0.1246
                                           -0.1066  0.0000 -0.0000 -0.0000  0.0004
                                            0.0000 -0.0000 -0.0003  0.5439  0.3409
                                           -0.0089  0.0000 -0.0035  0.2032  0.0438
                                            0.0042 -0.0000 -0.0003  0.0007 -0.0000
                                            0.0004 -0.0000  0.0009  0.0434 -0.0599
                                           -0.0061 -0.0522  0.2132 -0.0038  0.0995
                                            0.0352 -0.0173 -0.0000 -0.0240  0.0015
                                           -0.0001  0.0001 -0.0278
   429. (0.00016) RY*(11)Ni  14           s( 78.11%)p 0.10(  7.50%)d 0.18( 14.16%)
                                                  f 0.00(  0.23%)
                                            0.0000 -0.0020 -0.1372  0.0776  0.8679
                                            0.0546  0.0000 -0.0000 -0.0002 -0.0005
                                           -0.0000  0.0000  0.0044  0.0535  0.2356
                                            0.0059 -0.0000  0.0065 -0.1260 -0.0255
                                           -0.0018 -0.0000  0.0004 -0.0002  0.0000
                                           -0.0002 -0.0001 -0.0020  0.0009 -0.3240
                                            0.0032  0.0600  0.0222 -0.0013  0.0526
                                           -0.1724  0.0085  0.0001  0.0002 -0.0355
                                           -0.0001 -0.0000  0.0317
   430. (0.00010) RY*(12)Ni  14           s(  0.00%)p 1.00( 83.22%)d 0.19( 16.07%)
                                                  f 0.01(  0.71%)
                                           -0.0000  0.0000  0.0001  0.0007 -0.0006
                                           -0.0000  0.0000 -0.0040  0.0862 -0.9080
                                           -0.0179 -0.0000 -0.0000 -0.0004  0.0004
                                           -0.0000 -0.0000 -0.0000  0.0000  0.0017
                                            0.0000  0.0051  0.2141 -0.2675 -0.0013
                                           -0.0730  0.1948 -0.0000 -0.0004  0.0003
                                           -0.0000 -0.0003  0.0004  0.0000  0.0004
                                            0.0002 -0.0001 -0.0006 -0.0001  0.0000
                                            0.0842  0.0003  0.0001
   431. (0.00010) RY*(13)Ni  14           s( 12.09%)p 0.76(  9.20%)d 6.42( 77.64%)
                                                  f 0.09(  1.08%)
                                           -0.0000 -0.0036 -0.0348 -0.0100  0.3427
                                           -0.0460  0.0000  0.0000 -0.0002 -0.0001
                                           -0.0000 -0.0000  0.0055  0.2414 -0.1032
                                           -0.0011 -0.0000  0.0003 -0.1460  0.0372
                                            0.0173  0.0000 -0.0000 -0.0004 -0.0000
                                            0.0001 -0.0007  0.0046  0.0419  0.8557
                                           -0.0015 -0.0458  0.1396 -0.0013 -0.0235
                                            0.1421  0.0795  0.0000 -0.0021  0.0616
                                            0.0002  0.0000 -0.0260
   432. (0.00008) RY*(14)Ni  14           s(  4.13%)p20.31( 83.81%)d 2.79( 11.50%)
                                                  f 0.14(  0.57%)
   433. (0.00005) RY*(15)Ni  14           s(  5.10%)p14.74( 75.26%)d 3.57( 18.24%)
                                                  f 0.27(  1.40%)
   434. (0.00002) RY*(16)Ni  14           s( 93.38%)p 0.06(  5.18%)d 0.00(  0.41%)
                                                  f 0.01(  1.03%)
   435. (0.00002) RY*(17)Ni  14           s(  0.00%)p 1.00(  3.19%)d29.85( 95.23%)
                                                  f 0.49(  1.58%)
   436. (0.00003) RY*(18)Ni  14           s(  2.32%)p 5.47( 12.70%)d36.12( 83.81%)
                                                  f 0.50(  1.17%)
   437. (0.00002) RY*(19)Ni  14           s(  0.00%)p 1.00(  8.19%)d11.19( 91.60%)
                                                  f 0.03(  0.22%)
   438. (0.00002) RY*(20)Ni  14           s(  1.62%)p 3.96(  6.42%)d55.43( 89.90%)
                                                  f 1.27(  2.06%)
   439. (0.00000) RY*(21)Ni  14           s(  0.17%)p99.99( 99.54%)d 1.66(  0.28%)
                                                  f 0.01(  0.00%)
   440. (0.00000) RY*(22)Ni  14           s(  0.12%)p99.99( 99.30%)d 4.89(  0.58%)
                                                  f 0.02(  0.00%)
   441. (0.00000) RY*(23)Ni  14           s(  0.00%)p 1.00( 99.76%)d 0.00(  0.24%)
                                                  f 0.00(  0.01%)
   442. (0.00000) RY*(24)Ni  14           s(  0.53%)p 1.46(  0.77%)d 2.54(  1.34%)
                                                  f99.99( 97.35%)
   443. (0.00000) RY*(25)Ni  14           s(  0.00%)p 0.00(  0.01%)d 1.00(  0.40%)
                                                  f99.99( 99.60%)
   444. (0.00000) RY*(26)Ni  14           s(  0.05%)p13.06(  0.64%)d20.62(  1.00%)
                                                  f99.99( 98.31%)
   445. (0.00000) RY*(27)Ni  14           s(  0.14%)p 0.12(  0.02%)d14.07(  1.97%)
                                                  f99.99( 97.87%)
   446. (0.00000) RY*(28)Ni  14           s(  0.00%)p 1.00(  0.80%)d 1.57(  1.25%)
                                                  f99.99( 97.95%)
   447. (0.00000) RY*(29)Ni  14           s(  0.00%)p 1.00(  0.01%)d 6.90(  0.08%)
                                                  f99.99( 99.91%)
   448. (0.00000) RY*(30)Ni  14           s(  0.77%)p 0.72(  0.56%)d 0.76(  0.59%)
                                                  f99.99( 98.08%)
   449. (0.02417) RY*( 1) C  15           s( 64.68%)p 0.53( 34.55%)d 0.01(  0.67%)
                                                  f 0.00(  0.09%)
                                            0.0000  0.0835  0.7995  0.0248  0.0081
                                            0.1237 -0.3980  0.0126  0.1090 -0.3363
                                            0.0184 -0.0680  0.2042 -0.0064 -0.0071
                                            0.0501  0.0302 -0.0284  0.0070 -0.0270
                                           -0.0335  0.0122 -0.0005 -0.0205 -0.0097
                                            0.0085  0.0062 -0.0057  0.0156  0.0178
                                           -0.0094
   450. (0.00547) RY*( 2) C  15           s( 29.55%)p 2.30( 67.96%)d 0.06(  1.89%)
                                                  f 0.02(  0.61%)
                                            0.0000 -0.0085  0.5387  0.0710 -0.0119
                                            0.0666  0.5316 -0.0418  0.0403  0.5592
                                           -0.0199 -0.0380 -0.2731  0.0086 -0.0003
                                            0.0614  0.0776 -0.0189  0.0083 -0.0276
                                           -0.0852  0.0222 -0.0046 -0.0112  0.0313
                                            0.0077  0.0073 -0.0358 -0.0388  0.0191
                                            0.0427
   451. (0.00237) RY*( 3) C  15           s(  0.10%)p99.99( 96.13%)d30.21(  3.08%)
                                                  f 6.80(  0.69%)
                                           -0.0000  0.0012  0.0004  0.0319  0.0008
                                           -0.0047  0.4981 -0.0304 -0.0029 -0.0747
                                            0.0124 -0.0084  0.8392 -0.0468  0.0629
                                            0.0650 -0.0189  0.0226  0.0605  0.1230
                                           -0.0372  0.0088  0.0304 -0.0231  0.0019
                                            0.0571  0.0431 -0.0037 -0.0270 -0.0212
                                           -0.0248
   452. (0.00146) RY*( 4) C  15           s(  0.12%)p99.99( 93.85%)d46.34(  5.78%)
                                                  f 1.96(  0.24%)
                                            0.0000 -0.0001  0.0348 -0.0058 -0.0009
                                            0.0103  0.5018 -0.0887 -0.0057 -0.7190
                                            0.1574 -0.0001 -0.3699  0.0083  0.1013
                                           -0.0293  0.0318 -0.0211 -0.0885  0.0088
                                           -0.1835  0.0293 -0.0207  0.0484 -0.0209
                                           -0.0244 -0.0039  0.0285 -0.0049 -0.0116
                                            0.0206
   453. (0.00127) RY*( 5) C  15           s(  0.24%)p47.87( 11.27%)d99.99( 83.92%)
                                                  f19.44(  4.58%)
                                            0.0000 -0.0015  0.0469 -0.0098  0.0072
                                            0.0166  0.0598 -0.0575  0.0220 -0.0054
                                           -0.0402  0.0369 -0.0085 -0.3193 -0.3364
                                            0.0132 -0.5530 -0.1324 -0.3228 -0.0416
                                            0.0592  0.0041  0.5390  0.0518 -0.0233
                                           -0.1237 -0.1211  0.0276  0.0948 -0.0707
                                            0.0222
   454. (0.00123) RY*( 6) C  15           s(  0.82%)p16.31( 13.41%)d97.91( 80.51%)
                                                  f 6.39(  5.25%)
                                            0.0000 -0.0002  0.0822 -0.0364  0.0118
                                           -0.0149  0.1769  0.1887  0.0419 -0.1368
                                           -0.1635 -0.0151 -0.0928  0.1046 -0.1063
                                            0.0273 -0.1759 -0.0744  0.3189 -0.0006
                                            0.7835  0.1398 -0.1297 -0.0677  0.0017
                                            0.0273 -0.0060  0.1118 -0.0085 -0.1496
                                           -0.1296
   455. (0.00028) RY*( 7) C  15           s(  1.30%)p13.55( 17.65%)d59.30( 77.24%)
                                                  f 2.92(  3.80%)
                                           -0.0000 -0.0018 -0.0042  0.1104 -0.0287
                                           -0.0035 -0.0051 -0.1306  0.0054  0.0257
                                            0.1964  0.0049  0.0443  0.3437  0.2066
                                            0.2742  0.1259  0.4179 -0.3206 -0.2741
                                            0.3009  0.1872  0.2777  0.2888 -0.1401
                                           -0.0289 -0.0405 -0.0160  0.0151  0.0815
                                           -0.0938
   456. (0.00013) RY*( 8) C  15           s( 11.22%)p 2.62( 29.37%)d 4.78( 53.60%)
                                                  f 0.52(  5.81%)
                                           -0.0000  0.0114 -0.0342  0.3282 -0.0562
                                            0.0040  0.0661  0.1643 -0.0023 -0.1053
                                           -0.3793  0.0038  0.0599  0.3222 -0.5002
                                           -0.2563  0.2354  0.1334 -0.0924 -0.2599
                                           -0.1343  0.0909  0.0911 -0.1902 -0.0194
                                           -0.0314 -0.0966 -0.0495 -0.1554 -0.0899
                                            0.1128
   457. (0.00009) RY*( 9) C  15           s(  2.09%)p18.75( 39.14%)d26.86( 56.06%)
                                                  f 1.30(  2.72%)
   458. (0.00007) RY*(10) C  15           s( 79.90%)p 0.02(  1.32%)d 0.23( 18.05%)
                                                  f 0.01(  0.74%)
   459. (0.00007) RY*(11) C  15           s(  3.40%)p15.35( 52.17%)d11.78( 40.04%)
                                                  f 1.29(  4.38%)
   460. (0.00005) RY*(12) C  15           s(  1.22%)p59.47( 72.62%)d17.65( 21.55%)
                                                  f 3.78(  4.61%)
   461. (0.00004) RY*(13) C  15           s(  1.58%)p28.52( 44.95%)d30.85( 48.62%)
                                                  f 3.08(  4.85%)
   462. (0.00001) RY*(14) C  15           s(  3.46%)p 2.29(  7.93%)d24.99( 86.59%)
                                                  f 0.58(  2.02%)
   463. (0.00001) RY*(15) C  15           s(  2.14%)p 2.28(  4.87%)d43.35( 92.73%)
                                                  f 0.12(  0.26%)
   464. (0.00001) RY*(16) C  15           s(  2.83%)p 0.45(  1.27%)d27.54( 77.85%)
                                                  f 6.39( 18.06%)
   465. (0.00001) RY*(17) C  15           s(  0.42%)p 7.32(  3.05%)d99.99( 96.39%)
                                                  f 0.35(  0.15%)
   466. (0.00000) RY*(18) C  15           s( 89.51%)p 0.01(  0.75%)d 0.11(  9.66%)
                                                  f 0.00(  0.08%)
   467. (0.00001) RY*(19) C  15           s(  0.20%)p14.20(  2.85%)d99.99( 96.88%)
                                                  f 0.35(  0.07%)
   468. (0.00000) RY*(20) C  15           s(  0.08%)p19.30(  1.48%)d45.70(  3.50%)
                                                  f99.99( 94.94%)
   469. (0.00000) RY*(21) C  15           s(  0.15%)p 7.56(  1.14%)d33.24(  5.04%)
                                                  f99.99( 93.67%)
   470. (0.00000) RY*(22) C  15           s(  0.13%)p 6.26(  0.78%)d24.02(  3.00%)
                                                  f99.99( 96.09%)
   471. (0.00000) RY*(23) C  15           s(  0.08%)p13.27(  1.00%)d27.23(  2.06%)
                                                  f99.99( 96.86%)
   472. (0.00000) RY*(24) C  15           s(  0.65%)p 2.06(  1.34%)d22.30( 14.47%)
                                                  f99.99( 83.54%)
   473. (0.00000) RY*(25) C  15           s(  0.66%)p 0.66(  0.44%)d20.00( 13.22%)
                                                  f99.99( 85.68%)
   474. (0.00000) RY*(26) C  15           s(  0.02%)p99.99(  2.80%)d99.99(  7.03%)
                                                  f99.99( 90.14%)
   475. (0.00298) RY*( 1) O  16           s( 86.26%)p 0.10(  8.31%)d 0.06(  5.41%)
                                                  f 0.00(  0.02%)
                                           -0.0000  0.0036  0.9287  0.0058  0.0072
                                           -0.0265  0.0384  0.1227 -0.0146  0.2236
                                            0.1032  0.0143 -0.0047 -0.0692 -0.1283
                                            0.0143  0.1422 -0.0106  0.0740 -0.0059
                                           -0.0889 -0.0003  0.0593 -0.0135  0.0039
                                            0.0002  0.0006 -0.0072 -0.0056  0.0061
                                            0.0078
   476. (0.00244) RY*( 2) O  16           s(  2.54%)p37.67( 95.82%)d 0.64(  1.62%)
                                                  f 0.01(  0.02%)
                                           -0.0000  0.0010  0.1552  0.0366 -0.0004
                                            0.0002  0.4940 -0.0269 -0.0099 -0.7467
                                            0.0604 -0.0018 -0.3895  0.0214 -0.0512
                                           -0.0246 -0.0349 -0.0395  0.0171  0.0036
                                            0.0303  0.0873  0.0058  0.0356 -0.0026
                                            0.0022  0.0063 -0.0048  0.0006  0.0102
                                            0.0075
   477. (0.00189) RY*( 3) O  16           s(  0.01%)p99.99( 98.21%)d99.99(  1.75%)
                                                  f 3.35(  0.03%)
                                            0.0000 -0.0001 -0.0024  0.0098  0.0008
                                           -0.0045 -0.5292  0.0449  0.0002  0.0841
                                           -0.0047 -0.0080 -0.8301  0.0621 -0.0008
                                           -0.0353 -0.0327 -0.0431 -0.0043 -0.0702
                                           -0.0186 -0.0473  0.0469  0.0595  0.0037
                                            0.0083  0.0087  0.0064 -0.0063 -0.0001
                                           -0.0101
   478. (0.00022) RY*( 4) O  16           s(  1.10%)p58.36( 63.96%)d30.73( 33.68%)
                                                  f 1.16(  1.27%)
                                            0.0000 -0.0323 -0.0105  0.0986  0.0090
                                            0.0379  0.5479 -0.0147  0.0330  0.4979
                                            0.0139 -0.0217 -0.2962  0.0174  0.4421
                                            0.0078 -0.2206 -0.0271 -0.2676  0.0010
                                            0.0642  0.0025 -0.1261 -0.0170 -0.0474
                                            0.0142  0.0091 -0.0008  0.0667  0.0460
                                           -0.0598
   479. (0.00009) RY*( 5) O  16           s( 62.06%)p 0.21( 12.97%)d 0.40( 24.52%)
                                                  f 0.01(  0.45%)
   480. (0.00005) RY*( 6) O  16           s( 18.58%)p 0.67( 12.38%)d 3.65( 67.84%)
                                                  f 0.06(  1.19%)
   481. (0.00003) RY*( 7) O  16           s(  2.54%)p 3.38(  8.58%)d34.12( 86.58%)
                                                  f 0.91(  2.30%)
   482. (0.00002) RY*( 8) O  16           s(  1.06%)p24.13( 25.57%)d65.23( 69.11%)
                                                  f 4.02(  4.26%)
   483. (0.00000) RY*( 9) O  16           s(  2.88%)p31.60( 90.98%)d 2.13(  6.13%)
                                                  f 0.00(  0.01%)
   484. (0.00001) RY*(10) O  16           s(  5.27%)p 3.39( 17.87%)d14.57( 76.81%)
                                                  f 0.01(  0.04%)
   485. (0.00001) RY*(11) O  16           s(  1.67%)p 6.30( 10.50%)d48.95( 81.53%)
                                                  f 3.78(  6.30%)
   486. (0.00000) RY*(12) O  16           s( 99.97%)p 0.00(  0.01%)d 0.00(  0.01%)
                                                  f 0.00(  0.00%)
   487. (0.00000) RY*(13) O  16           s(  0.06%)p29.76(  1.86%)d99.99( 98.07%)
                                                  f 0.05(  0.00%)
   488. (0.00000) RY*(14) O  16           s(  0.04%)p13.41(  0.47%)d99.99( 99.48%)
                                                  f 0.30(  0.01%)
   489. (0.00000) RY*(15) O  16           s(  0.03%)p22.15(  0.65%)d99.99( 99.31%)
                                                  f 0.21(  0.01%)
   490. (0.00001) RY*(16) O  16           s( 11.47%)p 5.24( 60.12%)d 2.47( 28.28%)
                                                  f 0.01(  0.12%)
   491. (0.00000) RY*(17) O  16           s(  0.04%)p42.19(  1.52%)d99.99( 98.43%)
                                                  f 0.24(  0.01%)
   492. (0.00001) RY*(18) O  16           s(  3.88%)p22.84( 88.72%)d 1.90(  7.38%)
                                                  f 0.00(  0.01%)
   493. (0.00000) RY*(19) O  16           s(  0.14%)p14.63(  2.01%)d99.99( 97.85%)
                                                  f 0.02(  0.00%)
   494. (0.00000) RY*(20) O  16           s(  0.14%)p 1.40(  0.19%)d18.51(  2.58%)
                                                  f99.99( 97.09%)
   495. (0.00000) RY*(21) O  16           s(  0.01%)p 5.29(  0.07%)d58.45(  0.77%)
                                                  f99.99( 99.15%)
   496. (0.00000) RY*(22) O  16           s(  0.01%)p 1.00(  0.10%)d 5.40(  0.55%)
                                                  f99.99( 99.35%)
   497. (0.00000) RY*(23) O  16           s(  0.03%)p 3.02(  0.08%)d45.63(  1.15%)
                                                  f99.99( 98.75%)
   498. (0.00000) RY*(24) O  16           s(  0.18%)p 2.46(  0.44%)d28.46(  5.14%)
                                                  f99.99( 94.23%)
   499. (0.00000) RY*(25) O  16           s(  0.03%)p 2.79(  0.10%)d26.73(  0.92%)
                                                  f99.99( 98.95%)
   500. (0.00000) RY*(26) O  16           s(  0.11%)p 1.86(  0.20%)d31.01(  3.34%)
                                                  f99.99( 96.35%)
   501. (0.02418) RY*( 1) C  17           s( 64.69%)p 0.53( 34.54%)d 0.01(  0.67%)
                                                  f 0.00(  0.09%)
                                            0.0000  0.0835  0.7996  0.0247  0.0081
                                           -0.1240  0.3988 -0.0126  0.1090 -0.3358
                                            0.0184 -0.0676  0.2031 -0.0063  0.0070
                                           -0.0502 -0.0302  0.0282  0.0070 -0.0268
                                           -0.0336  0.0123 -0.0004 -0.0207 -0.0097
                                           -0.0086  0.0063 -0.0057 -0.0155 -0.0179
                                           -0.0096
   502. (0.00547) RY*( 2) C  17           s( 29.53%)p 2.30( 67.97%)d 0.06(  1.89%)
                                                  f 0.02(  0.61%)
                                            0.0000 -0.0085  0.5386  0.0709 -0.0119
                                           -0.0667 -0.5331  0.0420  0.0402  0.5591
                                           -0.0199 -0.0378 -0.2707  0.0085  0.0002
                                           -0.0614 -0.0775  0.0188  0.0083 -0.0274
                                           -0.0854  0.0224 -0.0044 -0.0113  0.0314
                                           -0.0074  0.0072 -0.0358  0.0387 -0.0193
                                            0.0427
   503. (0.00237) RY*( 3) C  17           s(  0.10%)p99.99( 96.13%)d30.69(  3.08%)
                                                  f 6.93(  0.69%)
                                           -0.0000  0.0012 -0.0001  0.0316  0.0008
                                            0.0047 -0.4952  0.0301 -0.0029 -0.0756
                                            0.0123 -0.0084  0.8408 -0.0469 -0.0628
                                           -0.0645  0.0189 -0.0229  0.0610  0.1232
                                           -0.0368  0.0089  0.0302 -0.0231  0.0024
                                           -0.0573  0.0430 -0.0040  0.0273  0.0212
                                           -0.0246
   504. (0.00146) RY*( 4) C  17           s(  0.13%)p99.99( 93.81%)d45.93(  5.82%)
                                                  f 1.93(  0.25%)
                                            0.0000 -0.0001  0.0351 -0.0059 -0.0009
                                           -0.0103 -0.5024  0.0887 -0.0057 -0.7191
                                            0.1576 -0.0000 -0.3683  0.0075 -0.1015
                                            0.0293 -0.0307  0.0214 -0.0892  0.0085
                                           -0.1844  0.0292 -0.0199  0.0483 -0.0211
                                            0.0244 -0.0039  0.0284  0.0046  0.0115
                                            0.0208
   505. (0.00127) RY*( 5) C  17           s(  0.24%)p46.85( 11.26%)d99.99( 83.92%)
                                                  f19.03(  4.58%)
                                            0.0000 -0.0015  0.0474 -0.0099  0.0072
                                           -0.0164 -0.0601  0.0558  0.0221 -0.0049
                                           -0.0411  0.0368 -0.0081 -0.3194  0.3356
                                           -0.0139  0.5566  0.1331 -0.3220 -0.0412
                                            0.0638  0.0051  0.5355  0.0510 -0.0243
                                            0.1231 -0.1205  0.0284 -0.0956  0.0713
                                            0.0213
   506. (0.00123) RY*( 6) C  17           s(  0.82%)p16.40( 13.49%)d97.82( 80.44%)
                                                  f 6.38(  5.25%)
                                            0.0000 -0.0002  0.0821 -0.0366  0.0118
                                            0.0149 -0.1774 -0.1888  0.0418 -0.1377
                                           -0.1633 -0.0153 -0.0929  0.1065  0.1069
                                           -0.0268  0.1704  0.0734  0.3198 -0.0003
                                            0.7834  0.1400 -0.1329 -0.0683  0.0021
                                           -0.0283 -0.0056  0.1109  0.0094  0.1501
                                           -0.1294
   507. (0.00028) RY*( 7) C  17           s(  1.30%)p13.54( 17.64%)d59.27( 77.25%)
                                                  f 2.92(  3.81%)
                                            0.0000 -0.0018 -0.0042  0.1104 -0.0287
                                            0.0035  0.0047  0.1302  0.0054  0.0256
                                            0.1968  0.0049  0.0448  0.3435 -0.2057
                                           -0.2732 -0.1255 -0.4173 -0.3220 -0.2761
                                            0.3009  0.1871  0.2769  0.2890 -0.1405
                                            0.0287 -0.0398 -0.0160 -0.0148 -0.0806
                                           -0.0945
   508. (0.00013) RY*( 8) C  17           s( 11.12%)p 2.64( 29.31%)d 4.84( 53.76%)
                                                  f 0.52(  5.82%)
                                           -0.0000  0.0114 -0.0340  0.3268 -0.0559
                                           -0.0040 -0.0661 -0.1634 -0.0023 -0.1053
                                           -0.3797  0.0038  0.0602  0.3211  0.5006
                                            0.2572 -0.2335 -0.1332 -0.0946 -0.2615
                                           -0.1361  0.0895  0.0907 -0.1911 -0.0202
                                            0.0321 -0.0969 -0.0502  0.1546  0.0894
                                            0.1137
   509. (0.00009) RY*( 9) C  17           s(  2.07%)p19.05( 39.35%)d27.04( 55.84%)
                                                  f 1.33(  2.74%)
   510. (0.00007) RY*(10) C  17           s( 79.61%)p 0.02(  1.29%)d 0.23( 18.35%)
                                                  f 0.01(  0.75%)
   511. (0.00007) RY*(11) C  17           s(  3.78%)p13.80( 52.14%)d10.50( 39.69%)
                                                  f 1.16(  4.39%)
   512. (0.00005) RY*(12) C  17           s(  1.94%)p39.27( 76.37%)d 7.11( 13.82%)
                                                  f 4.04(  7.86%)
   513. (0.00004) RY*(13) C  17           s(  0.86%)p47.61( 41.05%)d65.49( 56.47%)
                                                  f 1.87(  1.61%)
   514. (0.00001) RY*(14) C  17           s(  1.79%)p 4.06(  7.28%)d50.65( 90.81%)
                                                  f 0.07(  0.12%)
   515. (0.00001) RY*(15) C  17           s(  2.14%)p 2.20(  4.71%)d43.45( 92.86%)
                                                  f 0.14(  0.29%)
   516. (0.00001) RY*(16) C  17           s(  1.22%)p 1.47(  1.80%)d73.73( 90.00%)
                                                  f 5.72(  6.99%)
   517. (0.00001) RY*(17) C  17           s(  0.68%)p 4.81(  3.27%)d99.99( 95.95%)
                                                  f 0.14(  0.10%)
   518. (0.00000) RY*(18) C  17           s( 92.46%)p 0.01(  0.82%)d 0.07(  6.59%)
                                                  f 0.00(  0.14%)
   519. (0.00001) RY*(19) C  17           s(  0.27%)p10.83(  2.94%)d99.99( 96.73%)
                                                  f 0.22(  0.06%)
   520. (0.00000) RY*(20) C  17           s(  0.06%)p26.12(  1.63%)d55.32(  3.46%)
                                                  f99.99( 94.85%)
   521. (0.00000) RY*(21) C  17           s(  0.19%)p 6.65(  1.27%)d18.31(  3.49%)
                                                  f99.99( 95.05%)
   522. (0.00000) RY*(22) C  17           s(  0.11%)p 8.07(  0.87%)d26.88(  2.91%)
                                                  f99.99( 96.10%)
   523. (0.00000) RY*(23) C  17           s(  0.08%)p13.02(  1.01%)d26.32(  2.03%)
                                                  f99.99( 96.88%)
   524. (0.00000) RY*(24) C  17           s(  0.57%)p 2.33(  1.34%)d18.16( 10.41%)
                                                  f99.99( 87.68%)
   525. (0.00000) RY*(25) C  17           s(  0.71%)p 0.83(  0.60%)d 8.86(  6.31%)
                                                  f99.99( 92.38%)
   526. (0.00000) RY*(26) C  17           s(  0.06%)p39.92(  2.22%)d99.99(  6.85%)
                                                  f99.99( 90.88%)
   527. (0.00298) RY*( 1) O  18           s( 86.24%)p 0.10(  8.33%)d 0.06(  5.41%)
                                                  f 0.00(  0.02%)
                                            0.0000  0.0036  0.9286  0.0058  0.0072
                                            0.0266 -0.0386 -0.1229 -0.0145  0.2241
                                            0.1030  0.0142 -0.0043 -0.0688  0.1283
                                           -0.0144 -0.1418  0.0106  0.0736 -0.0058
                                           -0.0895 -0.0003  0.0598 -0.0135  0.0039
                                           -0.0002  0.0006 -0.0072  0.0056 -0.0062
                                            0.0078
   528. (0.00245) RY*( 2) O  18           s(  2.56%)p37.44( 95.80%)d 0.63(  1.61%)
                                                  f 0.01(  0.02%)
                                            0.0000  0.0010  0.1557  0.0366 -0.0004
                                           -0.0002 -0.4944  0.0269 -0.0100 -0.7466
                                            0.0604 -0.0018 -0.3888  0.0213  0.0512
                                            0.0248  0.0349  0.0394  0.0171  0.0034
                                            0.0303  0.0874  0.0057  0.0354 -0.0026
                                           -0.0022  0.0063 -0.0048 -0.0006 -0.0103
                                            0.0074
   529. (0.00189) RY*( 3) O  18           s(  0.01%)p99.99( 98.21%)d99.99(  1.74%)
                                                  f 3.32(  0.03%)
                                           -0.0000 -0.0001 -0.0024  0.0098  0.0008
                                            0.0045  0.5268 -0.0447  0.0003  0.0854
                                           -0.0049 -0.0080 -0.8315  0.0622  0.0006
                                            0.0350  0.0329  0.0436 -0.0043 -0.0703
                                           -0.0185 -0.0474  0.0468  0.0591  0.0038
                                           -0.0083  0.0086  0.0063  0.0064  0.0001
                                           -0.0101
   530. (0.00022) RY*( 4) O  18           s(  1.11%)p57.73( 63.95%)d30.39( 33.67%)
                                                  f 1.15(  1.27%)
                                           -0.0000 -0.0323 -0.0107  0.0992  0.0090
                                           -0.0380 -0.5492  0.0147  0.0330  0.4977
                                            0.0135 -0.0216 -0.2942  0.0173 -0.4426
                                           -0.0079  0.2200  0.0269 -0.2659  0.0011
                                            0.0651  0.0027 -0.1280 -0.0169 -0.0473
                                           -0.0147  0.0095 -0.0007 -0.0665 -0.0459
                                           -0.0602
   531. (0.00009) RY*( 5) O  18           s( 62.24%)p 0.21( 12.97%)d 0.39( 24.35%)
                                                  f 0.01(  0.44%)
   532. (0.00005) RY*( 6) O  18           s( 18.42%)p 0.67( 12.33%)d 3.70( 68.06%)
                                                  f 0.06(  1.19%)
   533. (0.00003) RY*( 7) O  18           s(  2.51%)p 3.45(  8.64%)d34.53( 86.55%)
                                                  f 0.92(  2.31%)
   534. (0.00002) RY*( 8) O  18           s(  1.05%)p24.24( 25.56%)d65.56( 69.14%)
                                                  f 4.03(  4.25%)
   535. (0.00000) RY*( 9) O  18           s(  2.85%)p31.90( 91.00%)d 2.15(  6.14%)
                                                  f 0.00(  0.01%)
   536. (0.00001) RY*(10) O  18           s(  5.31%)p 3.40( 18.06%)d14.43( 76.59%)
                                                  f 0.01(  0.04%)
   537. (0.00001) RY*(11) O  18           s(  1.66%)p 6.33( 10.53%)d48.99( 81.49%)
                                                  f 3.79(  6.31%)
   538. (0.00000) RY*(12) O  18           s( 99.97%)p 0.00(  0.01%)d 0.00(  0.01%)
                                                  f 0.00(  0.00%)
   539. (0.00000) RY*(13) O  18           s(  0.06%)p29.72(  1.86%)d99.99( 98.08%)
                                                  f 0.05(  0.00%)
   540. (0.00000) RY*(14) O  18           s(  0.04%)p13.15(  0.47%)d99.99( 99.49%)
                                                  f 0.29(  0.01%)
   541. (0.00000) RY*(15) O  18           s(  0.00%)p 1.00(  0.51%)d99.99( 99.47%)
                                                  f 0.03(  0.02%)
   542. (0.00001) RY*(16) O  18           s( 11.49%)p 5.23( 60.09%)d 2.46( 28.31%)
                                                  f 0.01(  0.12%)
   543. (0.00000) RY*(17) O  18           s(  0.04%)p41.84(  1.53%)d99.99( 98.43%)
                                                  f 0.24(  0.01%)
   544. (0.00001) RY*(18) O  18           s(  3.90%)p22.71( 88.68%)d 1.90(  7.41%)
                                                  f 0.00(  0.01%)
   545. (0.00000) RY*(19) O  18           s(  0.14%)p14.54(  2.02%)d99.99( 97.84%)
                                                  f 0.01(  0.00%)
   546. (0.00000) RY*(20) O  18           s(  0.14%)p 1.40(  0.19%)d18.55(  2.57%)
                                                  f99.99( 97.09%)
   547. (0.00000) RY*(21) O  18           s(  0.01%)p 5.24(  0.07%)d57.93(  0.78%)
                                                  f99.99( 99.14%)
   548. (0.00000) RY*(22) O  18           s(  0.01%)p 1.00(  0.10%)d 5.46(  0.55%)
                                                  f99.99( 99.35%)
   549. (0.00000) RY*(23) O  18           s(  0.03%)p 3.05(  0.08%)d45.98(  1.16%)
                                                  f99.99( 98.74%)
   550. (0.00000) RY*(24) O  18           s(  0.18%)p 2.45(  0.44%)d28.51(  5.11%)
                                                  f99.99( 94.27%)
   551. (0.00000) RY*(25) O  18           s(  0.03%)p 2.78(  0.10%)d26.54(  0.91%)
                                                  f99.99( 98.96%)
   552. (0.00000) RY*(26) O  18           s(  0.11%)p 1.85(  0.20%)d30.94(  3.38%)
                                                  f99.99( 96.31%)
   553. (0.02389) RY*( 1) C  19           s( 65.45%)p 0.52( 33.81%)d 0.01(  0.69%)
                                                  f 0.00(  0.05%)
                                            0.0000  0.0842  0.8038  0.0355  0.0090
                                            0.0001 -0.0002  0.0000  0.0335 -0.1398
                                            0.0034  0.1729 -0.5358  0.0212 -0.0000
                                            0.0000 -0.0001  0.0001  0.0012  0.0301
                                            0.0014  0.0028 -0.0310  0.0707 -0.0174
                                            0.0000 -0.0150  0.0014  0.0000 -0.0000
                                            0.0022
   554. (0.00539) RY*( 2) C  19           s( 30.03%)p 2.28( 68.33%)d 0.04(  1.17%)
                                                  f 0.02(  0.46%)
                                            0.0000 -0.0126  0.5381  0.1020 -0.0123
                                            0.0000 -0.0001  0.0000  0.0111  0.2102
                                            0.0004  0.0800  0.7945 -0.0373 -0.0000
                                            0.0000 -0.0002  0.0001  0.0304  0.0378
                                           -0.0011  0.0131 -0.0705  0.0650  0.0668
                                            0.0001  0.0120 -0.0002  0.0000 -0.0000
                                            0.0056
   555. (0.00190) RY*( 3) C  19           s(  0.06%)p99.99( 96.45%)d57.65(  3.24%)
                                                  f 4.63(  0.26%)
                                            0.0000 -0.0039 -0.0016  0.0216 -0.0088
                                            0.0000  0.0017 -0.0002 -0.0059 -0.9358
                                            0.1690  0.0001  0.2372 -0.0622  0.0001
                                            0.0001 -0.0003  0.0001  0.1314 -0.0761
                                           -0.0627 -0.0375 -0.0621 -0.0111 -0.0070
                                           -0.0001  0.0477 -0.0145  0.0001 -0.0000
                                           -0.0081
   556. (0.00159) RY*( 4) C  19           s(  0.00%)p 1.00( 90.05%)d 0.11(  9.89%)
                                                  f 0.00(  0.06%)
                                            0.0000  0.0000  0.0002  0.0000  0.0000
                                            0.0111  0.9469 -0.0623  0.0000  0.0016
                                           -0.0000  0.0000 -0.0005  0.0000  0.0372
                                            0.1250 -0.2800  0.0587 -0.0004 -0.0000
                                           -0.0002 -0.0002  0.0004 -0.0001  0.0000
                                           -0.0202 -0.0000 -0.0001 -0.0002 -0.0137
                                           -0.0000
   557. (0.00116) RY*( 5) C  19           s(  0.00%)p 1.00( 13.49%)d 5.99( 80.75%)
                                                  f 0.43(  5.76%)
                                           -0.0000 -0.0000  0.0001  0.0002  0.0000
                                           -0.0443  0.2233  0.2882  0.0000  0.0001
                                           -0.0001  0.0000 -0.0000 -0.0001  0.2356
                                            0.1507  0.8386  0.1613 -0.0001  0.0000
                                            0.0002  0.0001 -0.0004  0.0000  0.0001
                                           -0.2313 -0.0000 -0.0001 -0.0642 -0.0019
                                           -0.0000
   558. (0.00115) RY*( 6) C  19           s(  0.12%)p88.18( 10.43%)d99.99( 83.91%)
                                                  f46.89(  5.54%)
                                            0.0000 -0.0004  0.0333 -0.0051  0.0071
                                            0.0000 -0.0001  0.0001  0.0461 -0.1566
                                           -0.2648 -0.0010  0.0816  0.0289 -0.0005
                                           -0.0003  0.0001  0.0002 -0.8461 -0.1072
                                            0.1319 -0.0106  0.2854  0.1132 -0.1161
                                           -0.0000  0.1850 -0.0877  0.0000 -0.0000
                                           -0.0053
   559. (0.00015) RY*( 7) C  19           s( 23.29%)p 0.76( 17.63%)d 2.35( 54.86%)
                                                  f 0.18(  4.22%)
                                           -0.0000  0.0096 -0.0733  0.4681 -0.0914
                                            0.0000  0.0004 -0.0001 -0.0001 -0.0880
                                           -0.3614 -0.0092 -0.0518 -0.1874 -0.0001
                                           -0.0006 -0.0004  0.0000 -0.0598  0.1753
                                            0.3315  0.4426 -0.4403 -0.1210  0.1755
                                           -0.0001 -0.0242  0.0177  0.0003  0.0003
                                           -0.1026
   560. (0.00015) RY*( 8) C  19           s(  0.00%)p 1.00( 89.19%)d 0.10(  8.83%)
                                                  f 0.02(  1.98%)
                                            0.0000 -0.0000 -0.0001  0.0012  0.0002
                                            0.0039 -0.0231  0.9441 -0.0000 -0.0001
                                            0.0005 -0.0000 -0.0001 -0.0004 -0.0134
                                            0.0815 -0.2779 -0.0654 -0.0000  0.0001
                                           -0.0003 -0.0003  0.0006 -0.0002 -0.0000
                                            0.1398  0.0001  0.0001 -0.0009  0.0160
                                           -0.0001
   561. (0.00011) RY*( 9) C  19           s( 29.00%)p 0.91( 26.36%)d 1.44( 41.69%)
                                                  f 0.10(  2.94%)
                                           -0.0000  0.0061 -0.0560  0.5278 -0.0912
                                           -0.0000 -0.0002 -0.0008 -0.0027  0.1110
                                            0.4567 -0.0094 -0.0845 -0.1883 -0.0007
                                           -0.0010  0.0003  0.0009 -0.2925 -0.0744
                                           -0.2635 -0.4164 -0.2880  0.0010  0.1139
                                           -0.0003  0.1200 -0.0451  0.0001 -0.0001
                                            0.0022
   562. (0.00009) RY*(10) C  19           s(  0.00%)p 1.00(  4.88%)d19.40( 94.72%)
                                                  f 0.08(  0.39%)
   563. (0.00006) RY*(11) C  19           s( 38.84%)p 0.54( 20.85%)d 1.01( 39.32%)
                                                  f 0.03(  0.98%)
   564. (0.00004) RY*(12) C  19           s(  6.07%)p 8.32( 50.55%)d 6.82( 41.41%)
                                                  f 0.32(  1.97%)
   565. (0.00004) RY*(13) C  19           s(  1.73%)p33.11( 57.45%)d11.22( 19.47%)
                                                  f12.31( 21.35%)
   566. (0.00002) RY*(14) C  19           s(  3.42%)p 1.78(  6.10%)d21.16( 72.45%)
                                                  f 5.27( 18.03%)
   567. (0.00001) RY*(15) C  19           s(  0.90%)p 3.29(  2.96%)d99.99( 93.23%)
                                                  f 3.24(  2.91%)
   568. (0.00000) RY*(16) C  19           s(  0.00%)p 1.00(  0.03%)d99.99( 99.97%)
                                                  f 0.10(  0.00%)
   569. (0.00000) RY*(17) C  19           s(  0.26%)p 5.47(  1.42%)d99.99( 98.06%)
                                                  f 1.04(  0.27%)
   570. (0.00001) RY*(18) C  19           s(  0.00%)p 1.00(  1.32%)d74.93( 98.67%)
                                                  f 0.01(  0.01%)
   571. (0.00000) RY*(19) C  19           s( 93.51%)p 0.00(  0.04%)d 0.07(  6.44%)
                                                  f 0.00(  0.02%)
   572. (0.00000) RY*(20) C  19           s(  1.36%)p 6.60(  9.00%)d19.59( 26.71%)
                                                  f46.16( 62.93%)
   573. (0.00000) RY*(21) C  19           s(  0.00%)p 1.00(  1.18%)d 5.54(  6.51%)
                                                  f78.53( 92.31%)
   574. (0.00000) RY*(22) C  19           s(  1.01%)p 0.77(  0.78%)d 4.39(  4.44%)
                                                  f92.61( 93.76%)
   575. (0.00000) RY*(23) C  19           s(  0.12%)p 0.53(  0.06%)d 8.27(  1.01%)
                                                  f99.99( 98.81%)
   576. (0.00000) RY*(24) C  19           s(  0.00%)p 1.00(  0.04%)d12.31(  0.43%)
                                                  f99.99( 99.53%)
   577. (0.00000) RY*(25) C  19           s(  0.00%)p 1.00(  0.04%)d 0.31(  0.01%)
                                                  f99.99( 99.94%)
   578. (0.00000) RY*(26) C  19           s(  1.57%)p 0.91(  1.43%)d 7.35( 11.56%)
                                                  f54.35( 85.44%)
   579. (0.00277) RY*( 1) O  20           s( 90.14%)p 0.06(  4.98%)d 0.05(  4.87%)
                                                  f 0.00(  0.00%)
                                           -0.0000  0.0046  0.9494  0.0012  0.0068
                                           -0.0000  0.0000  0.0000 -0.0047  0.0408
                                            0.0347 -0.0313  0.0959  0.1918 -0.0000
                                           -0.0000 -0.0003  0.0001 -0.0625  0.0053
                                            0.0040  0.0001 -0.2109  0.0158  0.0060
                                            0.0000  0.0034 -0.0006  0.0000 -0.0000
                                            0.0003
   580. (0.00201) RY*( 2) O  20           s(  0.00%)p 1.00( 98.26%)d 0.02(  1.71%)
                                                  f 0.00(  0.03%)
                                           -0.0000 -0.0000 -0.0001  0.0001  0.0000
                                            0.0095  0.9886 -0.0724  0.0001  0.0047
                                           -0.0004 -0.0000 -0.0012  0.0000  0.0032
                                            0.0220  0.0663  0.1107  0.0004  0.0005
                                            0.0000 -0.0001 -0.0001 -0.0002 -0.0001
                                            0.0152  0.0000 -0.0000  0.0056 -0.0009
                                           -0.0000
   581. (0.00193) RY*( 3) O  20           s(  0.04%)p99.99( 98.23%)d37.76(  1.70%)
                                                  f 0.50(  0.02%)
                                            0.0000  0.0006  0.0211 -0.0021 -0.0011
                                            0.0000  0.0049 -0.0004 -0.0096 -0.9700
                                            0.0721  0.0003  0.1895 -0.0143 -0.0001
                                            0.0001  0.0003  0.0005 -0.0648 -0.1029
                                            0.0099  0.0237  0.0121  0.0372  0.0097
                                            0.0001 -0.0102  0.0052  0.0000 -0.0000
                                            0.0010
   582. (0.00020) RY*( 4) O  20           s(  1.64%)p36.36( 59.72%)d22.68( 37.25%)
                                                  f 0.84(  1.39%)
                                            0.0000 -0.0320  0.0586  0.1088  0.0110
                                            0.0000  0.0002  0.0000  0.0098  0.1434
                                            0.0149  0.0553  0.7571  0.0093  0.0000
                                            0.0000  0.0002  0.0000  0.1929  0.0069
                                           -0.0141 -0.0022  0.5786  0.0151 -0.1045
                                           -0.0000 -0.0536  0.0080 -0.0000  0.0000
                                            0.0005
   583. (0.00006) RY*( 5) O  20           s( 78.37%)p 0.17( 12.98%)d 0.11(  8.25%)
                                                  f 0.01(  0.40%)
   584. (0.00003) RY*( 6) O  20           s(  0.00%)p 1.00(  2.62%)d36.76( 96.38%)
                                                  f 0.38(  0.99%)
   585. (0.00001) RY*( 7) O  20           s(  5.18%)p 1.08(  5.58%)d16.85( 87.37%)
                                                  f 0.36(  1.86%)
   586. (0.00001) RY*( 8) O  20           s(  0.00%)p 1.00( 97.89%)d 0.02(  2.09%)
                                                  f 0.00(  0.02%)
   587. (0.00001) RY*( 9) O  20           s( 17.91%)p 4.53( 81.17%)d 0.05(  0.92%)
                                                  f 0.00(  0.01%)
   588. (0.00000) RY*(10) O  20           s(  0.00%)p 1.00(  0.13%)d99.99( 99.87%)
                                                  f 0.00(  0.00%)
   589. (0.00001) RY*(11) O  20           s(  0.45%)p 0.24(  0.11%)d99.99( 97.99%)
                                                  f 3.23(  1.45%)
   590. (0.00000) RY*(12) O  20           s( 99.98%)p 0.00(  0.01%)d 0.00(  0.01%)
                                                  f 0.00(  0.00%)
   591. (0.00000) RY*(13) O  20           s(  0.00%)p 1.00(  1.45%)d67.75( 98.55%)
                                                  f 0.00(  0.00%)
   592. (0.00000) RY*(14) O  20           s(  0.70%)p99.99( 97.32%)d 2.76(  1.94%)
                                                  f 0.05(  0.04%)
   593. (0.00000) RY*(15) O  20           s(  0.01%)p 1.00(  1.27%)d77.62( 98.70%)
                                                  f 0.01(  0.02%)
   594. (0.00000) RY*(16) O  20           s(  0.00%)p 1.00(  0.06%)d99.99( 99.93%)
                                                  f 0.17(  0.01%)
   595. (0.00000) RY*(17) O  20           s(  0.02%)p 3.66(  0.06%)d99.99( 99.92%)
                                                  f 0.01(  0.00%)
   596. (0.00001) RY*(18) O  20           s(  4.98%)p 7.79( 38.84%)d11.27( 56.18%)
                                                  f 0.00(  0.00%)
   597. (0.00000) RY*(19) O  20           s(  0.05%)p 3.70(  0.17%)d99.99( 99.79%)
                                                  f 0.04(  0.00%)
   598. (0.00000) RY*(20) O  20           s(  0.57%)p 1.15(  0.66%)d 0.75(  0.43%)
                                                  f99.99( 98.34%)
   599. (0.00000) RY*(21) O  20           s(  0.00%)p 1.00(  0.04%)d23.21(  1.01%)
                                                  f99.99( 98.94%)
   600. (0.00000) RY*(22) O  20           s(  0.06%)p 1.93(  0.11%)d32.75(  1.91%)
                                                  f99.99( 97.92%)
   601. (0.00000) RY*(23) O  20           s(  0.00%)p 0.00(  0.01%)d 1.00(  1.03%)
                                                  f96.37( 98.96%)
   602. (0.00000) RY*(24) O  20           s(  0.00%)p 0.00(  0.01%)d 0.00(  0.01%)
                                                  f 1.00( 99.98%)
   603. (0.00000) RY*(25) O  20           s(  0.00%)p 0.00(  0.00%)d 0.00(  0.00%)
                                                  f 1.00(100.00%)
   604. (0.00000) RY*(26) O  20           s(  0.00%)p 0.00(  0.00%)d 1.00(  0.46%)
                                                  f99.99( 99.54%)
   605. (0.00047) RY*( 1) H  21           s( 97.93%)p 0.02(  2.07%)
                                           -0.0024  0.9896 -0.0017 -0.1185  0.0250
                                           -0.0777
   606. (0.00014) RY*( 2) H  21           s( 34.35%)p 1.91( 65.65%)
                                           -0.0002  0.0746  0.5813  0.6074 -0.5136
                                           -0.1539
   607. (0.00010) RY*( 3) H  21           s( 56.56%)p 0.77( 43.44%)
                                           -0.0017 -0.0888  0.7468 -0.6298  0.1307
                                           -0.1438
   608. (0.00007) RY*( 4) H  21           s( 10.61%)p 8.43( 89.39%)
   609. (0.00001) RY*( 5) H  21           s(  0.58%)p99.99( 99.42%)
   610. (0.00084) RY*( 1) H  22           s( 97.19%)p 0.03(  2.81%)
                                           -0.0005  0.9858 -0.0108 -0.1308 -0.0775
                                           -0.0710
   611. (0.00018) RY*( 2) H  22           s( 47.07%)p 1.12( 52.93%)
                                           -0.0069  0.1075  0.6775  0.7224  0.0812
                                           -0.0297
   612. (0.00011) RY*( 3) H  22           s(  0.49%)p99.99( 99.51%)
                                           -0.0016  0.0698 -0.0044  0.0453 -0.0956
                                            0.9919
   613. (0.00006) RY*( 4) H  22           s( 35.76%)p 1.80( 64.24%)
   614. (0.00003) RY*( 5) H  22           s( 19.54%)p 4.12( 80.46%)
   615. (0.00032) RY*( 1) H  23           s( 97.96%)p 0.02(  2.04%)
                                           -0.0026  0.9896  0.0143 -0.1038 -0.0123
                                           -0.0974
   616. (0.00012) RY*( 2) H  23           s( 83.39%)p 0.20( 16.61%)
                                           -0.0025 -0.0680  0.9107 -0.1794  0.0007
                                           -0.3659
   617. (0.00011) RY*( 3) H  23           s(  1.10%)p89.75( 98.90%)
                                           -0.0025  0.0155  0.1038  0.0710 -0.9675
                                            0.2189
   618. (0.00007) RY*( 4) H  23           s( 14.93%)p 5.70( 85.07%)
   619. (0.00001) RY*( 5) H  23           s(  2.65%)p36.79( 97.35%)
   620. (0.00045) RY*( 1) H  24           s( 98.57%)p 0.01(  1.43%)
                                           -0.0022  0.9928  0.0023 -0.0872  0.0018
                                            0.0819
   621. (0.00011) RY*( 2) H  24           s( 16.93%)p 4.91( 83.07%)
                                           -0.0032  0.0228  0.4108  0.6944 -0.3715
                                            0.4589
   622. (0.00009) RY*( 3) H  24           s( 68.94%)p 0.45( 31.06%)
   623. (0.00008) RY*( 4) H  24           s( 14.43%)p 5.93( 85.57%)
   624. (0.00001) RY*( 5) H  24           s(  1.16%)p85.07( 98.84%)
   625. (0.00032) RY*( 1) H  25           s( 97.41%)p 0.03(  2.59%)
                                           -0.0031  0.9869  0.0081 -0.1200  0.0006
                                            0.1073
   626. (0.00011) RY*( 2) H  25           s( 90.60%)p 0.10(  9.40%)
                                           -0.0016 -0.0484  0.9506 -0.0664 -0.0243
                                            0.2983
   627. (0.00011) RY*( 3) H  25           s(  0.47%)p99.99( 99.53%)
                                            0.0003  0.0516  0.0448  0.2923 -0.9426
                                           -0.1463
   628. (0.00008) RY*( 4) H  25           s(  9.71%)p 9.30( 90.29%)
   629. (0.00001) RY*( 5) H  25           s(  1.85%)p53.11( 98.15%)
   630. (0.00090) RY*( 1) H  26           s( 99.29%)p 0.01(  0.71%)
                                           -0.0031  0.9964  0.0003  0.0325 -0.0633
                                            0.0456
   631. (0.00014) RY*( 2) H  26           s( 53.12%)p 0.88( 46.88%)
                                           -0.0025  0.0069  0.7288  0.1102 -0.2753
                                           -0.6172
   632. (0.00011) RY*( 3) H  26           s(  5.57%)p16.96( 94.43%)
                                            0.0006  0.0118  0.2357  0.7192  0.6423
                                            0.1204
   633. (0.00006) RY*( 4) H  26           s( 38.86%)p 1.57( 61.14%)
   634. (0.00002) RY*( 5) H  26           s(  3.21%)p30.20( 96.79%)
   635. (0.00050) RY*( 1) H  27           s( 99.20%)p 0.01(  0.80%)
                                           -0.0023  0.9960 -0.0019 -0.0697  0.0409
                                           -0.0389
   636. (0.00015) RY*( 2) H  27           s( 60.40%)p 0.66( 39.60%)
                                           -0.0009  0.0207  0.7769  0.4174  0.4290
                                            0.1943
   637. (0.00008) RY*( 3) H  27           s( 25.03%)p 3.00( 74.97%)
   638. (0.00008) RY*( 4) H  27           s( 14.91%)p 5.71( 85.09%)
   639. (0.00002) RY*( 5) H  27           s(  0.49%)p99.99( 99.51%)
   640. (0.00030) RY*( 1) H  28           s( 97.14%)p 0.03(  2.86%)
                                           -0.0028  0.9856  0.0095 -0.1483  0.0739
                                           -0.0335
   641. (0.00010) RY*( 2) H  28           s( 93.31%)p 0.07(  6.69%)
                                           -0.0024 -0.0526  0.9645 -0.2015  0.1598
                                           -0.0282
   642. (0.00010) RY*( 3) H  28           s(  0.04%)p99.99( 99.96%)
                                           -0.0003  0.0190 -0.0010 -0.0083  0.1757
                                            0.9842
   643. (0.00008) RY*( 4) H  28           s(  7.21%)p12.88( 92.79%)
   644. (0.00001) RY*( 5) H  28           s(  2.34%)p41.71( 97.66%)
   645. (0.00051) RY*( 1) H  29           s( 99.37%)p 0.01(  0.63%)
                                           -0.0022  0.9969 -0.0026 -0.0628  0.0390
                                            0.0282
   646. (0.00015) RY*( 2) H  29           s( 56.07%)p 0.78( 43.93%)
                                           -0.0010  0.0261  0.7483  0.4570  0.3533
                                           -0.3251
   647. (0.00008) RY*( 3) H  29           s( 28.14%)p 2.55( 71.86%)
   648. (0.00008) RY*( 4) H  29           s( 15.89%)p 5.29( 84.11%)
   649. (0.00001) RY*( 5) H  29           s(  0.56%)p99.99( 99.44%)
   650. (0.00038) RY*( 1) H  30           s( 98.95%)p 0.01(  1.05%)
                                           -0.0027  0.9947  0.0067  0.0328  0.0951
                                            0.0189
   651. (0.00026) RY*( 2) H  30           s(  0.06%)p99.99( 99.94%)
                                           -0.0001  0.0249 -0.0014  0.0060 -0.0641
                                           -0.9976
   652. (0.00011) RY*( 3) H  30           s( 19.50%)p 4.13( 80.50%)
                                            0.0012 -0.0750  0.4352  0.7413  0.5045
                                           -0.0305
   653. (0.00004) RY*( 4) H  30           s( 78.86%)p 0.27( 21.14%)
   654. (0.00001) RY*( 5) H  30           s(  2.68%)p36.32( 97.32%)
   655. (0.00038) RY*( 1) H  31           s( 98.95%)p 0.01(  1.05%)
                                           -0.0027  0.9947  0.0067 -0.0330  0.0950
                                            0.0182
   656. (0.00026) RY*( 2) H  31           s(  0.06%)p99.99( 99.94%)
                                           -0.0001  0.0242 -0.0015 -0.0054 -0.0642
                                           -0.9976
   657. (0.00011) RY*( 3) H  31           s( 19.50%)p 4.13( 80.50%)
                                            0.0012 -0.0751  0.4351 -0.7421  0.5033
                                           -0.0308
   658. (0.00004) RY*( 4) H  31           s( 78.86%)p 0.27( 21.14%)
   659. (0.00001) RY*( 5) H  31           s(  2.68%)p36.28( 97.32%)
   660. (0.00047) RY*( 1) H  32           s( 97.93%)p 0.02(  2.07%)
                                           -0.0024  0.9896 -0.0016  0.1186  0.0250
                                           -0.0776
   661. (0.00014) RY*( 2) H  32           s( 34.25%)p 1.92( 65.75%)
                                           -0.0002  0.0744  0.5805 -0.6069 -0.5146
                                           -0.1561
   662. (0.00010) RY*( 3) H  32           s( 56.64%)p 0.77( 43.36%)
                                           -0.0017 -0.0887  0.7473  0.6293  0.1314
                                           -0.1428
   663. (0.00007) RY*( 4) H  32           s( 10.63%)p 8.41( 89.37%)
   664. (0.00001) RY*( 5) H  32           s(  0.58%)p99.99( 99.42%)
   665. (0.00032) RY*( 1) H  33           s( 97.96%)p 0.02(  2.04%)
                                           -0.0026  0.9896  0.0143  0.1041 -0.0123
                                           -0.0973
   666. (0.00012) RY*( 2) H  33           s( 83.44%)p 0.20( 16.56%)
                                           -0.0025 -0.0679  0.9109  0.1791  0.0006
                                           -0.3655
   667. (0.00011) RY*( 3) H  33           s(  1.10%)p89.98( 98.90%)
                                           -0.0025  0.0155  0.1037 -0.0712 -0.9675
                                            0.2189
   668. (0.00007) RY*( 4) H  33           s( 14.90%)p 5.71( 85.10%)
   669. (0.00001) RY*( 5) H  33           s(  2.64%)p36.94( 97.36%)
   670. (0.00084) RY*( 1) H  34           s( 97.19%)p 0.03(  2.81%)
                                           -0.0004  0.9858 -0.0107  0.1306 -0.0772
                                           -0.0714
   671. (0.00018) RY*( 2) H  34           s( 47.00%)p 1.13( 53.00%)
                                           -0.0069  0.1075  0.6770 -0.7230  0.0809
                                           -0.0274
   672. (0.00011) RY*( 3) H  34           s(  0.49%)p99.99( 99.51%)
                                           -0.0016  0.0695 -0.0038 -0.0419 -0.0994
                                            0.9917
   673. (0.00006) RY*( 4) H  34           s( 35.77%)p 1.80( 64.23%)
   674. (0.00003) RY*( 5) H  34           s( 19.60%)p 4.10( 80.40%)
   675. (0.00032) RY*( 1) H  35           s( 97.41%)p 0.03(  2.59%)
                                           -0.0031  0.9869  0.0081  0.1200  0.0008
                                            0.1074
   676. (0.00011) RY*( 2) H  35           s( 90.60%)p 0.10(  9.40%)
                                           -0.0016 -0.0484  0.9506  0.0664 -0.0242
                                            0.2983
   677. (0.00011) RY*( 3) H  35           s(  0.47%)p99.99( 99.53%)
                                            0.0003  0.0517  0.0450 -0.2909 -0.9429
                                           -0.1468
   678. (0.00008) RY*( 4) H  35           s(  9.71%)p 9.30( 90.29%)
   679. (0.00001) RY*( 5) H  35           s(  1.85%)p53.14( 98.15%)
   680. (0.00045) RY*( 1) H  36           s( 98.57%)p 0.01(  1.43%)
                                           -0.0022  0.9928  0.0023  0.0873  0.0019
                                            0.0819
   681. (0.00011) RY*( 2) H  36           s( 16.95%)p 4.90( 83.05%)
                                           -0.0032  0.0230  0.4110 -0.6938 -0.3730
                                            0.4583
   682. (0.00009) RY*( 3) H  36           s( 68.95%)p 0.45( 31.05%)
   683. (0.00008) RY*( 4) H  36           s( 14.41%)p 5.94( 85.59%)
   684. (0.00001) RY*( 5) H  36           s(  1.16%)p84.95( 98.84%)
   685. (0.00090) RY*( 1) H  37           s( 99.28%)p 0.01(  0.72%)
                                           -0.0031  0.9964  0.0003 -0.0322 -0.0636
                                            0.0457
   686. (0.00014) RY*( 2) H  37           s( 53.09%)p 0.88( 46.91%)
                                           -0.0025  0.0070  0.7286 -0.1107 -0.2745
                                           -0.6176
   687. (0.00011) RY*( 3) H  37           s(  5.54%)p17.06( 94.46%)
                                            0.0006  0.0120  0.2350 -0.7200  0.6415
                                            0.1214
   688. (0.00006) RY*( 4) H  37           s( 38.91%)p 1.57( 61.09%)
   689. (0.00002) RY*( 5) H  37           s(  3.21%)p30.15( 96.79%)
   690. (0.00050) RY*( 1) H  38           s( 99.20%)p 0.01(  0.80%)
                                           -0.0023  0.9960 -0.0019  0.0696  0.0409
                                           -0.0389
   691. (0.00015) RY*( 2) H  38           s( 60.40%)p 0.66( 39.60%)
                                           -0.0009  0.0208  0.7769 -0.4183  0.4281
                                            0.1943
   692. (0.00008) RY*( 3) H  38           s( 25.11%)p 2.98( 74.89%)
   693. (0.00008) RY*( 4) H  38           s( 14.84%)p 5.74( 85.16%)
   694. (0.00002) RY*( 5) H  38           s(  0.49%)p99.99( 99.51%)
   695. (0.00051) RY*( 1) H  39           s( 99.37%)p 0.01(  0.63%)
                                           -0.0022  0.9969 -0.0026  0.0627  0.0391
                                            0.0283
   696. (0.00015) RY*( 2) H  39           s( 56.08%)p 0.78( 43.92%)
                                           -0.0010  0.0261  0.7484 -0.4571  0.3527
                                           -0.3252
   697. (0.00008) RY*( 3) H  39           s( 28.14%)p 2.55( 71.86%)
   698. (0.00008) RY*( 4) H  39           s( 15.87%)p 5.30( 84.13%)
   699. (0.00001) RY*( 5) H  39           s(  0.56%)p99.99( 99.44%)
   700. (0.00030) RY*( 1) H  40           s( 97.14%)p 0.03(  2.86%)
                                           -0.0028  0.9855  0.0095  0.1483  0.0744
                                           -0.0329
   701. (0.00010) RY*( 2) H  40           s( 93.31%)p 0.07(  6.69%)
                                           -0.0024 -0.0526  0.9645  0.2012  0.1600
                                           -0.0280
   702. (0.00010) RY*( 3) H  40           s(  0.03%)p99.99( 99.97%)
                                           -0.0003  0.0186 -0.0008  0.0070  0.1746
                                            0.9844
   703. (0.00008) RY*( 4) H  40           s(  7.20%)p12.88( 92.80%)
   704. (0.00001) RY*( 5) H  40           s(  2.34%)p41.73( 97.66%)
   705. (0.02566) BD*( 1) C   1 - C   2  
                ( 51.27%)   0.7161* C   1 s( 28.62%)p 2.49( 71.15%)d 0.01(  0.21%)
                                                  f 0.00(  0.02%)
                                            0.0003  0.5348  0.0013 -0.0117  0.0002
                                           -0.2176  0.0004  0.0051 -0.5293 -0.0037
                                            0.0119 -0.6194 -0.0041  0.0137  0.0132
                                            0.0003  0.0155 -0.0001  0.0367  0.0008
                                           -0.0136  0.0006  0.0138  0.0005  0.0025
                                           -0.0036 -0.0092  0.0037 -0.0045  0.0055
                                            0.0021
                ( 48.73%)  -0.6980* C   2 s( 26.68%)p 2.75( 73.29%)d 0.00(  0.02%)
                                                  f 0.00(  0.00%)
                                           -0.0001  0.5165 -0.0009 -0.0005  0.0002
                                            0.1940  0.0012  0.0053  0.5592 -0.0023
                                           -0.0017  0.6185  0.0003  0.0002 -0.0036
                                            0.0000  0.0007  0.0061 -0.0058  0.0108
                                            0.0023 -0.0035 -0.0019  0.0041 -0.0009
                                            0.0013  0.0022  0.0011 -0.0013 -0.0029
                                           -0.0013
   706. (0.00669) BD*( 1) C   1 - H  21  
                ( 38.90%)   0.6237* C   1 s( 23.10%)p 3.32( 76.75%)d 0.01(  0.15%)
                                                  f 0.00(  0.01%)
                                            0.0001 -0.4806  0.0026 -0.0048 -0.0001
                                            0.1258 -0.0003 -0.0019  0.3775 -0.0077
                                            0.0018 -0.7804 -0.0005 -0.0084 -0.0060
                                            0.0007  0.0112 -0.0000  0.0306 -0.0000
                                            0.0059 -0.0002 -0.0178 -0.0022 -0.0041
                                            0.0022  0.0047  0.0014 -0.0014 -0.0042
                                           -0.0024
                ( 61.10%)  -0.7817* H  21 s( 99.97%)p 0.00(  0.03%)
                                           -0.9998 -0.0013 -0.0001 -0.0025 -0.0076
                                            0.0158
   707. (0.01202) BD*( 1) C   1 - H  22  
                ( 38.15%)   0.6177* C   1 s( 25.16%)p 2.97( 74.69%)d 0.01(  0.13%)
                                                  f 0.00(  0.01%)
                                           -0.0000 -0.5016 -0.0040 -0.0002  0.0003
                                            0.4612 -0.0008 -0.0057 -0.7302 -0.0019
                                           -0.0045  0.0300 -0.0075 -0.0020  0.0279
                                            0.0035 -0.0002 -0.0022  0.0102 -0.0009
                                            0.0076  0.0006  0.0195  0.0003 -0.0009
                                            0.0002  0.0056  0.0019 -0.0012 -0.0079
                                           -0.0022
                ( 61.85%)  -0.7864* H  22 s( 99.96%)p 0.00(  0.04%)
                                           -0.9998 -0.0006 -0.0005 -0.0107  0.0161
                                            0.0004
   708. (0.00549) BD*( 1) C   1 - H  23  
                ( 38.82%)   0.6230* C   1 s( 23.07%)p 3.33( 76.77%)d 0.01(  0.16%)
                                                  f 0.00(  0.01%)
                                            0.0002 -0.4803  0.0012 -0.0057 -0.0001
                                           -0.8499  0.0036 -0.0058 -0.2043 -0.0039
                                           -0.0036  0.0599 -0.0047 -0.0025 -0.0086
                                           -0.0016  0.0132 -0.0016  0.0055 -0.0007
                                           -0.0313  0.0002  0.0171  0.0010 -0.0012
                                            0.0024  0.0047  0.0009 -0.0023 -0.0046
                                           -0.0039
                ( 61.18%)  -0.7822* H  23 s( 99.97%)p 0.00(  0.03%)
                                           -0.9998 -0.0009 -0.0001  0.0173  0.0035
                                           -0.0017
   709. (0.02676) BD*( 1) C   2 - C   3  
                ( 48.89%)   0.6992* C   2 s( 26.44%)p 2.78( 73.54%)d 0.00(  0.02%)
                                                  f 0.00(  0.00%)
                                            0.0001 -0.5142  0.0015  0.0004 -0.0002
                                           -0.1272 -0.0019 -0.0057 -0.3401  0.0007
                                            0.0013  0.7768  0.0008 -0.0006  0.0027
                                            0.0021  0.0002  0.0042 -0.0048  0.0076
                                           -0.0008  0.0006  0.0048 -0.0103  0.0009
                                           -0.0005 -0.0013  0.0009 -0.0012  0.0035
                                            0.0016
                ( 51.11%)  -0.7149* C   3 s( 28.88%)p 2.46( 70.89%)d 0.01(  0.21%)
                                                  f 0.00(  0.02%)
                                           -0.0003 -0.5372 -0.0016  0.0124 -0.0002
                                            0.1390 -0.0000 -0.0042  0.3086  0.0025
                                           -0.0077 -0.7707 -0.0046  0.0180 -0.0052
                                           -0.0002  0.0129 -0.0000  0.0273  0.0003
                                            0.0047 -0.0006 -0.0342 -0.0009 -0.0063
                                            0.0044  0.0095  0.0008 -0.0026 -0.0035
                                           -0.0024
   710. (0.01986) BD*( 1) C   2 - C   4  
                ( 48.83%)   0.6988* C   2 s( 25.66%)p 2.90( 74.31%)d 0.00(  0.03%)
                                                  f 0.00(  0.00%)
                                            0.0001 -0.5065  0.0003  0.0015 -0.0003
                                           -0.4545  0.0057 -0.0025  0.7266 -0.0085
                                           -0.0017 -0.0915  0.0003  0.0000 -0.0037
                                            0.0131  0.0002 -0.0018 -0.0009  0.0027
                                           -0.0021  0.0074 -0.0026  0.0083  0.0014
                                           -0.0028 -0.0025  0.0000 -0.0005  0.0019
                                            0.0009
                ( 51.17%)  -0.7153* C   4 s( 29.49%)p 2.38( 70.29%)d 0.01(  0.20%)
                                                  f 0.00(  0.02%)
                                           -0.0003 -0.5429  0.0112 -0.0060 -0.0001
                                            0.5043  0.0029 -0.0125 -0.6640 -0.0073
                                            0.0147  0.0850  0.0010 -0.0018  0.0360
                                           -0.0002 -0.0046  0.0001  0.0063  0.0002
                                            0.0112  0.0001  0.0221  0.0005 -0.0028
                                           -0.0017  0.0078 -0.0009 -0.0014 -0.0086
                                           -0.0043
   711. (0.06214) BD*( 1) C   2 - N   5  
                ( 63.33%)   0.7958* C   2 s( 21.21%)p 3.71( 78.75%)d 0.00(  0.04%)
                                                  f 0.00(  0.01%)
                                           -0.0000  0.4605  0.0053  0.0033 -0.0010
                                           -0.8596 -0.0016 -0.0044 -0.2077 -0.0016
                                           -0.0047  0.0730  0.0026  0.0018 -0.0086
                                            0.0004  0.0034 -0.0002  0.0007 -0.0002
                                           -0.0148  0.0036  0.0090 -0.0033 -0.0011
                                           -0.0041  0.0034 -0.0019 -0.0007  0.0016
                                            0.0044
                ( 36.67%)  -0.6056* N   5 s( 32.86%)p 2.04( 67.03%)d 0.00(  0.10%)
                                                  f 0.00(  0.02%)
                                           -0.0001  0.5731  0.0097  0.0028 -0.0006
                                            0.7873  0.0235 -0.0062  0.2206  0.0012
                                           -0.0032 -0.0344 -0.0008  0.0005  0.0139
                                           -0.0001 -0.0057  0.0006 -0.0014  0.0004
                                            0.0234  0.0019 -0.0144  0.0006  0.0014
                                           -0.0094 -0.0024 -0.0013 -0.0010  0.0066
                                            0.0060
   712. (0.00686) BD*( 1) C   3 - H  24  
                ( 38.93%)   0.6239* C   3 s( 23.31%)p 3.28( 76.53%)d 0.01(  0.15%)
                                                  f 0.00(  0.01%)
                                            0.0001 -0.4827  0.0018 -0.0048 -0.0002
                                            0.1400 -0.0004 -0.0010  0.6144 -0.0069
                                            0.0025  0.6067  0.0028  0.0074 -0.0097
                                            0.0005 -0.0087  0.0000 -0.0325 -0.0009
                                            0.0167  0.0004  0.0025 -0.0023 -0.0006
                                            0.0013  0.0050 -0.0027  0.0011 -0.0046
                                           -0.0042
                ( 61.07%)  -0.7815* H  24 s( 99.97%)p 0.00(  0.03%)
                                           -0.9998 -0.0014 -0.0000 -0.0028 -0.0123
                                           -0.0125
   713. (0.00549) BD*( 1) C   3 - H  25  
                ( 38.82%)   0.6230* C   3 s( 23.12%)p 3.32( 76.72%)d 0.01(  0.15%)
                                                  f 0.00(  0.01%)
                                            0.0002 -0.4808  0.0011 -0.0050 -0.0001
                                           -0.8310  0.0032 -0.0057 -0.2654 -0.0021
                                           -0.0024  0.0779  0.0051  0.0038 -0.0158
                                           -0.0013 -0.0040  0.0018 -0.0035  0.0009
                                           -0.0279 -0.0004  0.0213  0.0004 -0.0025
                                            0.0012  0.0036 -0.0009  0.0021 -0.0046
                                           -0.0053
                ( 61.18%)  -0.7822* H  25 s( 99.97%)p 0.00(  0.03%)
                                           -0.9998 -0.0009 -0.0000  0.0167  0.0050
                                           -0.0011
   714. (0.01025) BD*( 1) C   3 - H  26  
                ( 38.50%)   0.6205* C   3 s( 24.64%)p 3.05( 75.20%)d 0.01(  0.15%)
                                                  f 0.00(  0.01%)
                                           -0.0000  0.4963  0.0029  0.0015 -0.0003
                                           -0.5185  0.0017  0.0003  0.6744  0.0001
                                            0.0023 -0.1683 -0.0047 -0.0063 -0.0285
                                           -0.0036  0.0073 -0.0014  0.0010 -0.0026
                                           -0.0058  0.0002 -0.0239  0.0010  0.0025
                                            0.0007 -0.0036  0.0032  0.0012  0.0074
                                            0.0049
                ( 61.50%)  -0.7842* H  26 s( 99.97%)p 0.00(  0.03%)
                                            0.9998  0.0017  0.0002  0.0109 -0.0140
                                            0.0044
   715. (0.00722) BD*( 1) C   4 - H  27  
                ( 38.66%)   0.6218* C   4 s( 23.72%)p 3.21( 76.12%)d 0.01(  0.15%)
                                                  f 0.00(  0.01%)
                                           -0.0001  0.4870  0.0031 -0.0019 -0.0001
                                           -0.1170  0.0048  0.0045 -0.3869 -0.0049
                                           -0.0029  0.7731 -0.0032  0.0048  0.0109
                                           -0.0015 -0.0124  0.0011 -0.0192 -0.0023
                                           -0.0005 -0.0012  0.0289  0.0005  0.0018
                                           -0.0039 -0.0064 -0.0013 -0.0013  0.0016
                                            0.0021
                ( 61.34%)  -0.7832* H  27 s( 99.97%)p 0.00(  0.03%)
                                            0.9998  0.0015  0.0000  0.0015  0.0076
                                           -0.0157
   716. (0.00566) BD*( 1) C   4 - H  28  
                ( 38.29%)   0.6188* C   4 s( 22.94%)p 3.35( 76.90%)d 0.01(  0.15%)
                                                  f 0.00(  0.01%)
                                            0.0001 -0.4790 -0.0044  0.0014 -0.0001
                                           -0.8412  0.0030 -0.0067 -0.2416  0.0087
                                            0.0033  0.0536 -0.0012 -0.0002 -0.0274
                                            0.0012  0.0054 -0.0002  0.0013 -0.0000
                                           -0.0223 -0.0021  0.0157  0.0008 -0.0020
                                            0.0050  0.0047 -0.0006  0.0008 -0.0033
                                           -0.0018
                ( 61.71%)  -0.7855* H  28 s( 99.97%)p 0.00(  0.03%)
                                           -0.9999 -0.0008 -0.0001  0.0163  0.0053
                                           -0.0011
   717. (0.00750) BD*( 1) C   4 - H  29  
                ( 38.75%)   0.6225* C   4 s( 23.79%)p 3.20( 76.06%)d 0.01(  0.15%)
                                                  f 0.00(  0.01%)
                                           -0.0001  0.4877  0.0033 -0.0014 -0.0001
                                           -0.1482  0.0052  0.0047 -0.5899 -0.0041
                                           -0.0039 -0.6249  0.0043 -0.0039  0.0156
                                           -0.0019  0.0104 -0.0005  0.0286  0.0021
                                           -0.0068 -0.0023  0.0153 -0.0004  0.0030
                                           -0.0041 -0.0050  0.0030 -0.0004  0.0015
                                            0.0029
                ( 61.25%)  -0.7827* H  29 s( 99.97%)p 0.00(  0.03%)
                                            0.9998  0.0015  0.0000  0.0020  0.0120
                                            0.0130
   718. (0.03173) BD*( 1) N   5 - C   6  
                ( 38.24%)   0.6184* N   5 s( 31.55%)p 2.16( 68.20%)d 0.01(  0.24%)
                                                  f 0.00(  0.02%)
                                            0.0001 -0.5617  0.0051  0.0013 -0.0004
                                            0.1809  0.0143 -0.0040  0.8036 -0.0115
                                           -0.0040 -0.0558  0.0011  0.0001 -0.0246
                                            0.0004  0.0018 -0.0002  0.0041  0.0002
                                            0.0296  0.0026  0.0294 -0.0037  0.0016
                                           -0.0027 -0.0092  0.0015 -0.0010 -0.0049
                                           -0.0056
                ( 61.76%)  -0.7859* C   6 s( 28.58%)p 2.50( 71.37%)d 0.00(  0.05%)
                                                  f 0.00(  0.00%)
                                            0.0001 -0.5345 -0.0085  0.0003  0.0017
                                           -0.3230 -0.0284 -0.0077 -0.7778 -0.0243
                                           -0.0035  0.0535  0.0008 -0.0002  0.0039
                                           -0.0132 -0.0000  0.0008  0.0011  0.0013
                                           -0.0005  0.0133  0.0061  0.0075  0.0004
                                           -0.0016 -0.0018  0.0003 -0.0001  0.0019
                                            0.0002
   719. (0.02519) BD*( 1) N   5 - C  13  
                ( 34.85%)   0.5904* N   5 s( 35.41%)p 1.82( 64.38%)d 0.01(  0.20%)
                                                  f 0.00(  0.01%)
                                            0.0001 -0.5950  0.0097  0.0021 -0.0001
                                            0.5870  0.0106 -0.0077 -0.5459  0.0180
                                            0.0038  0.0254 -0.0010 -0.0000  0.0316
                                            0.0026 -0.0022 -0.0002  0.0031 -0.0007
                                           -0.0141  0.0013  0.0280 -0.0038 -0.0007
                                           -0.0061  0.0048 -0.0003 -0.0006 -0.0035
                                           -0.0055
                ( 65.15%)  -0.8071* C  13 s( 27.72%)p 2.61( 72.23%)d 0.00(  0.05%)
                                                  f 0.00(  0.00%)
                                            0.0004 -0.5241 -0.0502 -0.0048  0.0001
                                           -0.7065 -0.0280 -0.0169  0.4697  0.0075
                                            0.0032 -0.0365  0.0010 -0.0014 -0.0091
                                            0.0151  0.0005 -0.0014  0.0019  0.0008
                                            0.0078 -0.0039  0.0098  0.0055  0.0002
                                           -0.0038  0.0003 -0.0000 -0.0008 -0.0030
                                            0.0009
   720. (0.00942) BD*( 1) C   6 - C   7  
                ( 50.00%)   0.7071* C   6 s( 36.89%)p 1.71( 62.97%)d 0.00(  0.13%)
                                                  f 0.00(  0.01%)
                                           -0.0000  0.6073  0.0069  0.0045  0.0003
                                           -0.7875 -0.0217  0.0061 -0.0879 -0.0285
                                           -0.0142  0.0165  0.0015  0.0009 -0.0089
                                            0.0061  0.0004 -0.0006 -0.0004  0.0002
                                            0.0268  0.0047 -0.0215 -0.0001 -0.0001
                                            0.0070 -0.0007  0.0002  0.0003 -0.0056
                                           -0.0015
                ( 50.00%)  -0.7071* C   7 s( 36.89%)p 1.71( 62.97%)d 0.00(  0.13%)
                                                  f 0.00(  0.01%)
                                           -0.0000  0.6073  0.0069  0.0045  0.0003
                                            0.7876  0.0217 -0.0061 -0.0866 -0.0285
                                           -0.0142  0.0168  0.0015  0.0009  0.0090
                                           -0.0061 -0.0004  0.0006 -0.0004  0.0002
                                            0.0268  0.0048 -0.0215 -0.0001 -0.0001
                                           -0.0070 -0.0007  0.0003 -0.0003  0.0056
                                           -0.0015
   721. (0.27690) BD*( 2) C   6 - C   7  
                ( 50.00%)   0.7071* C   6 s(  0.00%)p 1.00( 99.92%)d 0.00(  0.05%)
                                                  f 0.00(  0.03%)
                                           -0.0000 -0.0066  0.0004  0.0000 -0.0000
                                            0.0080  0.0002  0.0001  0.0698 -0.0016
                                            0.0005  0.9967 -0.0278  0.0049 -0.0012
                                           -0.0005 -0.0209 -0.0055  0.0047 -0.0005
                                           -0.0006 -0.0000 -0.0005  0.0000 -0.0144
                                            0.0004 -0.0019  0.0049 -0.0051  0.0004
                                            0.0004
                ( 50.00%)  -0.7071* C   7 s(  0.00%)p 1.00( 99.92%)d 0.00(  0.05%)
                                                  f 0.00(  0.03%)
                                           -0.0000 -0.0066  0.0004 -0.0000 -0.0000
                                           -0.0085 -0.0001 -0.0001  0.0698 -0.0016
                                            0.0005  0.9967 -0.0278  0.0049  0.0012
                                            0.0005  0.0209  0.0055  0.0047 -0.0005
                                           -0.0007 -0.0000 -0.0005  0.0001 -0.0144
                                           -0.0004 -0.0019  0.0049  0.0051 -0.0004
                                            0.0004
   722. (0.01222) BD*( 1) C   6 - H  30  
                ( 37.23%)   0.6102* C   6 s( 34.40%)p 1.90( 65.53%)d 0.00(  0.05%)
                                                  f 0.00(  0.01%)
                                            0.0004 -0.5865  0.0074  0.0036 -0.0008
                                           -0.5223  0.0118  0.0117  0.6167 -0.0067
                                            0.0015 -0.0429  0.0003 -0.0002  0.0209
                                            0.0029 -0.0014 -0.0002  0.0014  0.0002
                                            0.0041  0.0008  0.0083  0.0028  0.0010
                                            0.0044 -0.0057  0.0004  0.0009  0.0055
                                            0.0032
                ( 62.77%)  -0.7923* H  30 s( 99.95%)p 0.00(  0.05%)
                                           -0.9997 -0.0014  0.0003  0.0139 -0.0184
                                            0.0013
   723. (0.03173) BD*( 1) C   7 - N   8  
                ( 61.76%)   0.7859* C   7 s( 28.58%)p 2.50( 71.37%)d 0.00(  0.05%)
                                                  f 0.00(  0.00%)
                                            0.0001 -0.5345 -0.0085  0.0003  0.0017
                                            0.3243  0.0284  0.0078 -0.7773 -0.0242
                                           -0.0035  0.0536  0.0008 -0.0002 -0.0039
                                            0.0133  0.0000 -0.0008  0.0011  0.0013
                                           -0.0005  0.0133  0.0061  0.0075  0.0004
                                            0.0016 -0.0018  0.0003  0.0001 -0.0019
                                            0.0002
                ( 38.24%)  -0.6184* N   8 s( 31.55%)p 2.16( 68.20%)d 0.01(  0.24%)
                                                  f 0.00(  0.02%)
                                            0.0001 -0.5616  0.0051  0.0013 -0.0004
                                           -0.1823 -0.0142  0.0041  0.8036 -0.0115
                                           -0.0040 -0.0506  0.0010  0.0002  0.0247
                                           -0.0004 -0.0017  0.0002  0.0041  0.0002
                                            0.0295  0.0026  0.0294 -0.0037  0.0015
                                            0.0027 -0.0092  0.0015  0.0010  0.0049
                                           -0.0056
   724. (0.01222) BD*( 1) C   7 - H  31  
                ( 37.23%)   0.6102* C   7 s( 34.40%)p 1.90( 65.53%)d 0.00(  0.05%)
                                                  f 0.00(  0.01%)
                                           -0.0004  0.5865 -0.0074 -0.0036  0.0008
                                           -0.5213  0.0118  0.0117 -0.6176  0.0067
                                           -0.0015  0.0427 -0.0003  0.0002  0.0209
                                            0.0029 -0.0014 -0.0002 -0.0014 -0.0002
                                           -0.0041 -0.0008 -0.0083 -0.0028 -0.0010
                                            0.0044  0.0057 -0.0004  0.0009  0.0055
                                           -0.0032
                ( 62.77%)  -0.7923* H  31 s( 99.95%)p 0.00(  0.05%)
                                            0.9997  0.0014 -0.0003  0.0139  0.0184
                                           -0.0013
   725. (0.06202) BD*( 1) N   8 - C   9  
                ( 36.68%)   0.6056* N   8 s( 32.85%)p 2.04( 67.03%)d 0.00(  0.10%)
                                                  f 0.00(  0.02%)
                                           -0.0001  0.5731  0.0097  0.0028 -0.0006
                                           -0.7874 -0.0235  0.0062  0.2188  0.0012
                                           -0.0032 -0.0434 -0.0008  0.0004 -0.0139
                                            0.0001  0.0055 -0.0006 -0.0014  0.0004
                                            0.0235  0.0019 -0.0144  0.0006  0.0016
                                            0.0094 -0.0023 -0.0013  0.0009 -0.0066
                                            0.0060
                ( 63.32%)  -0.7958* C   9 s( 21.21%)p 3.71( 78.75%)d 0.00(  0.04%)
                                                  f 0.00(  0.01%)
                                           -0.0000  0.4605  0.0053  0.0033 -0.0010
                                            0.8599  0.0016  0.0044 -0.2064 -0.0016
                                           -0.0047  0.0731  0.0025  0.0018  0.0085
                                           -0.0004 -0.0034  0.0002  0.0007 -0.0002
                                           -0.0148  0.0036  0.0090 -0.0033 -0.0011
                                            0.0041  0.0034 -0.0019  0.0007 -0.0016
                                            0.0044
   726. (0.02519) BD*( 1) N   8 - C  13  
                ( 34.85%)   0.5904* N   8 s( 35.41%)p 1.82( 64.38%)d 0.01(  0.20%)
                                                  f 0.00(  0.01%)
                                            0.0001 -0.5950  0.0097  0.0021 -0.0001
                                           -0.5862 -0.0107  0.0077 -0.5467  0.0180
                                            0.0038  0.0265 -0.0010 -0.0000 -0.0317
                                           -0.0026  0.0022  0.0002  0.0031 -0.0007
                                           -0.0140  0.0013  0.0280 -0.0038 -0.0007
                                            0.0061  0.0048 -0.0003  0.0006  0.0036
                                           -0.0055
                ( 65.15%)  -0.8071* C  13 s( 27.72%)p 2.61( 72.23%)d 0.00(  0.05%)
                                                  f 0.00(  0.00%)
                                            0.0004 -0.5241 -0.0502 -0.0048  0.0001
                                            0.7057  0.0280  0.0169  0.4709  0.0076
                                            0.0033 -0.0363  0.0010 -0.0014  0.0091
                                           -0.0151 -0.0005  0.0014  0.0019  0.0008
                                            0.0078 -0.0039  0.0098  0.0055  0.0002
                                            0.0038  0.0003 -0.0000  0.0008  0.0029
                                            0.0009
   727. (0.44677) BD*( 2) N   8 - C  13  
                ( 23.81%)   0.4880* N   8 s(  0.01%)p99.99( 99.92%)d 3.05(  0.05%)
                                                  f 1.42(  0.02%)
                                           -0.0000 -0.0122  0.0013 -0.0001  0.0001
                                            0.0279 -0.0011  0.0005 -0.0650  0.0011
                                           -0.0007 -0.9970  0.0057 -0.0143 -0.0010
                                            0.0002 -0.0210  0.0031  0.0001 -0.0025
                                            0.0003  0.0000  0.0006 -0.0001  0.0139
                                           -0.0004  0.0020 -0.0019 -0.0032  0.0003
                                           -0.0002
                ( 76.19%)  -0.8729* C  13 s(  0.06%)p99.99( 99.71%)d 3.56(  0.22%)
                                                  f 0.05(  0.00%)
                                           -0.0000  0.0242  0.0058 -0.0014 -0.0001
                                            0.0002 -0.0020  0.0009 -0.0495  0.0016
                                           -0.0008 -0.9967 -0.0327  0.0150 -0.0001
                                            0.0016  0.0125  0.0213  0.0332  0.0217
                                           -0.0026 -0.0020 -0.0039 -0.0016  0.0056
                                           -0.0002  0.0005  0.0016 -0.0004 -0.0000
                                            0.0003
   728. (0.02567) BD*( 1) C   9 - C  10  
                ( 48.73%)   0.6981* C   9 s( 26.68%)p 2.75( 73.29%)d 0.00(  0.02%)
                                                  f 0.00(  0.00%)
                                            0.0001 -0.5165  0.0009  0.0005 -0.0002
                                            0.1951  0.0012  0.0053 -0.5583  0.0023
                                            0.0017 -0.6190 -0.0003 -0.0001 -0.0036
                                            0.0000  0.0007  0.0061  0.0058 -0.0108
                                           -0.0023  0.0035  0.0019 -0.0041  0.0009
                                            0.0013 -0.0022 -0.0011 -0.0013 -0.0029
                                            0.0013
                ( 51.27%)  -0.7160* C  10 s( 28.62%)p 2.49( 71.15%)d 0.01(  0.21%)
                                                  f 0.00(  0.02%)
                                           -0.0003 -0.5348 -0.0013  0.0117 -0.0002
                                           -0.2185  0.0004  0.0051  0.5283  0.0037
                                           -0.0119  0.6199  0.0041 -0.0137  0.0132
                                            0.0003  0.0156 -0.0001 -0.0366 -0.0008
                                            0.0135 -0.0006 -0.0139 -0.0005 -0.0024
                                           -0.0036  0.0092 -0.0037 -0.0045  0.0055
                                           -0.0020
   729. (0.02676) BD*( 1) C   9 - C  11  
                ( 48.89%)   0.6992* C   9 s( 26.44%)p 2.78( 73.54%)d 0.00(  0.02%)
                                                  f 0.00(  0.00%)
                                            0.0001 -0.5142  0.0015  0.0004 -0.0002
                                            0.1274  0.0019  0.0057 -0.3407  0.0007
                                            0.0013  0.7765  0.0008 -0.0005 -0.0027
                                           -0.0021 -0.0001 -0.0042 -0.0048  0.0076
                                           -0.0008  0.0006  0.0047 -0.0103  0.0009
                                            0.0005 -0.0014  0.0009  0.0012 -0.0035
                                            0.0016
                ( 51.11%)  -0.7149* C  11 s( 28.87%)p 2.46( 70.90%)d 0.01(  0.21%)
                                                  f 0.00(  0.02%)
                                           -0.0003 -0.5372 -0.0016  0.0124 -0.0002
                                           -0.1392  0.0000  0.0042  0.3091  0.0025
                                           -0.0077 -0.7705 -0.0046  0.0180  0.0052
                                            0.0002 -0.0129  0.0000  0.0273  0.0003
                                            0.0047 -0.0006 -0.0341 -0.0009 -0.0063
                                           -0.0044  0.0095  0.0008  0.0026  0.0035
                                           -0.0024
   730. (0.01986) BD*( 1) C   9 - C  12  
                ( 48.83%)   0.6988* C   9 s( 25.66%)p 2.90( 74.31%)d 0.00(  0.03%)
                                                  f 0.00(  0.00%)
                                            0.0001 -0.5065  0.0003  0.0015 -0.0003
                                            0.4535 -0.0057  0.0025  0.7274 -0.0085
                                           -0.0017 -0.0906  0.0003  0.0000  0.0037
                                           -0.0131 -0.0002  0.0018 -0.0009  0.0027
                                           -0.0021  0.0074 -0.0026  0.0083  0.0014
                                            0.0028 -0.0025  0.0000  0.0005 -0.0019
                                            0.0008
                ( 51.17%)  -0.7153* C  12 s( 29.49%)p 2.38( 70.29%)d 0.01(  0.20%)
                                                  f 0.00(  0.02%)
                                           -0.0003 -0.5429  0.0112 -0.0060 -0.0001
                                           -0.5033 -0.0029  0.0125 -0.6649 -0.0073
                                            0.0147  0.0841  0.0010 -0.0017 -0.0360
                                            0.0002  0.0045 -0.0001  0.0063  0.0002
                                            0.0113  0.0001  0.0221  0.0005 -0.0028
                                            0.0017  0.0078 -0.0009  0.0014  0.0086
                                           -0.0043
   731. (0.00669) BD*( 1) C  10 - H  32  
                ( 38.90%)   0.6237* C  10 s( 23.10%)p 3.32( 76.75%)d 0.01(  0.15%)
                                                  f 0.00(  0.01%)
                                            0.0001 -0.4806  0.0027 -0.0048 -0.0001
                                           -0.1256  0.0003  0.0019  0.3784 -0.0077
                                            0.0018 -0.7800 -0.0005 -0.0084  0.0060
                                           -0.0007 -0.0112  0.0000  0.0307 -0.0000
                                            0.0059 -0.0002 -0.0178 -0.0022 -0.0041
                                           -0.0022  0.0047  0.0015  0.0014  0.0042
                                           -0.0024
                ( 61.10%)  -0.7817* H  32 s( 99.97%)p 0.00(  0.03%)
                                           -0.9998 -0.0013 -0.0001  0.0025 -0.0076
                                            0.0158
   732. (0.00549) BD*( 1) C  10 - H  33  
                ( 38.82%)   0.6230* C  10 s( 23.07%)p 3.33( 76.77%)d 0.01(  0.16%)
                                                  f 0.00(  0.01%)
                                           -0.0002  0.4803 -0.0012  0.0057  0.0001
                                           -0.8500  0.0036 -0.0059  0.2037  0.0039
                                            0.0036 -0.0603  0.0047  0.0025 -0.0086
                                           -0.0016  0.0132 -0.0016 -0.0055  0.0007
                                            0.0313 -0.0002 -0.0171 -0.0010  0.0012
                                            0.0024 -0.0047 -0.0010 -0.0023 -0.0046
                                            0.0039
                ( 61.18%)  -0.7822* H  33 s( 99.97%)p 0.00(  0.03%)
                                            0.9998  0.0009  0.0001  0.0173 -0.0034
                                            0.0017
   733. (0.01201) BD*( 1) C  10 - H  34  
                ( 38.15%)   0.6177* C  10 s( 25.16%)p 2.97( 74.69%)d 0.01(  0.13%)
                                                  f 0.00(  0.01%)
                                           -0.0000 -0.5016 -0.0040 -0.0002  0.0003
                                           -0.4606  0.0008  0.0057 -0.7306 -0.0019
                                           -0.0045  0.0287 -0.0075 -0.0020 -0.0279
                                           -0.0035  0.0001  0.0022  0.0102 -0.0009
                                            0.0077  0.0006  0.0195  0.0003 -0.0009
                                           -0.0002  0.0056  0.0020  0.0012  0.0080
                                           -0.0021
                ( 61.85%)  -0.7864* H  34 s( 99.96%)p 0.00(  0.04%)
                                           -0.9998 -0.0006 -0.0005  0.0107  0.0161
                                            0.0005
   734. (0.00549) BD*( 1) C  11 - H  35  
                ( 38.82%)   0.6230* C  11 s( 23.12%)p 3.32( 76.72%)d 0.01(  0.15%)
                                                  f 0.00(  0.01%)
                                           -0.0002  0.4808 -0.0011  0.0050  0.0001
                                           -0.8313  0.0032 -0.0057  0.2643  0.0021
                                            0.0024 -0.0780 -0.0051 -0.0038 -0.0157
                                           -0.0013 -0.0040  0.0018  0.0035 -0.0009
                                            0.0280  0.0004 -0.0213 -0.0004  0.0025
                                            0.0012 -0.0036  0.0009  0.0021 -0.0046
                                            0.0053
                ( 61.18%)  -0.7822* H  35 s( 99.97%)p 0.00(  0.03%)
                                            0.9998  0.0009  0.0000  0.0167 -0.0050
                                            0.0011
   735. (0.00687) BD*( 1) C  11 - H  36  
                ( 38.93%)   0.6239* C  11 s( 23.31%)p 3.28( 76.54%)d 0.01(  0.15%)
                                                  f 0.00(  0.01%)
                                            0.0001 -0.4827  0.0018 -0.0048 -0.0002
                                           -0.1411  0.0004  0.0010  0.6137 -0.0069
                                            0.0024  0.6072  0.0028  0.0074  0.0097
                                           -0.0005  0.0088 -0.0000 -0.0325 -0.0009
                                            0.0166  0.0004  0.0025 -0.0023 -0.0006
                                           -0.0013  0.0050 -0.0027 -0.0011  0.0046
                                           -0.0042
                ( 61.07%)  -0.7815* H  36 s( 99.97%)p 0.00(  0.03%)
                                           -0.9998 -0.0014 -0.0000  0.0029 -0.0123
                                           -0.0125
   736. (0.01026) BD*( 1) C  11 - H  37  
                ( 38.50%)   0.6205* C  11 s( 24.64%)p 3.05( 75.20%)d 0.01(  0.15%)
                                                  f 0.00(  0.01%)
                                            0.0000 -0.4964 -0.0029 -0.0015  0.0003
                                           -0.5176  0.0017  0.0003 -0.6753 -0.0001
                                           -0.0023  0.1675  0.0047  0.0063 -0.0285
                                           -0.0036  0.0073 -0.0014 -0.0011  0.0026
                                            0.0059 -0.0002  0.0239 -0.0010 -0.0025
                                            0.0007  0.0036 -0.0032  0.0012  0.0074
                                           -0.0049
                ( 61.50%)  -0.7842* H  37 s( 99.97%)p 0.00(  0.03%)
                                           -0.9998 -0.0017 -0.0002  0.0108  0.0141
                                           -0.0044
   737. (0.00723) BD*( 1) C  12 - H  38  
                ( 38.67%)   0.6218* C  12 s( 23.72%)p 3.21( 76.12%)d 0.01(  0.15%)
                                                  f 0.00(  0.01%)
                                           -0.0001  0.4870  0.0031 -0.0019 -0.0001
                                            0.1171 -0.0048 -0.0045 -0.3872 -0.0049
                                           -0.0030  0.7730 -0.0032  0.0048 -0.0109
                                            0.0015  0.0124 -0.0011 -0.0192 -0.0023
                                           -0.0005 -0.0012  0.0289  0.0005  0.0018
                                            0.0039 -0.0064 -0.0014  0.0013 -0.0016
                                            0.0020
                ( 61.33%)  -0.7832* H  38 s( 99.97%)p 0.00(  0.03%)
                                            0.9998  0.0015  0.0000 -0.0015  0.0077
                                           -0.0157
   738. (0.00750) BD*( 1) C  12 - H  39  
                ( 38.75%)   0.6225* C  12 s( 23.79%)p 3.20( 76.06%)d 0.01(  0.15%)
                                                  f 0.00(  0.01%)
                                           -0.0001  0.4877  0.0033 -0.0014 -0.0001
                                            0.1496 -0.0052 -0.0047 -0.5893 -0.0041
                                           -0.0039 -0.6252  0.0043 -0.0039 -0.0157
                                            0.0019 -0.0105  0.0005  0.0286  0.0021
                                           -0.0067 -0.0023  0.0153 -0.0004  0.0030
                                            0.0041 -0.0050  0.0030  0.0004 -0.0015
                                            0.0029
                ( 61.25%)  -0.7827* H  39 s( 99.97%)p 0.00(  0.03%)
                                            0.9998  0.0015  0.0000 -0.0020  0.0120
                                            0.0130
   739. (0.00566) BD*( 1) C  12 - H  40  
                ( 38.29%)   0.6188* C  12 s( 22.94%)p 3.35( 76.90%)d 0.01(  0.15%)
                                                  f 0.00(  0.01%)
                                           -0.0001  0.4790  0.0044 -0.0014  0.0001
                                           -0.8415  0.0031 -0.0067  0.2403 -0.0087
                                           -0.0034 -0.0541  0.0012  0.0002 -0.0273
                                            0.0012  0.0054 -0.0002 -0.0013  0.0000
                                            0.0224  0.0021 -0.0157 -0.0008  0.0020
                                            0.0051 -0.0047  0.0005  0.0008 -0.0033
                                            0.0018
                ( 61.71%)  -0.7855* H  40 s( 99.97%)p 0.00(  0.03%)
                                            0.9999  0.0008  0.0001  0.0163 -0.0053
                                            0.0011
   740. (0.01287) BD*( 1) C  13 -Ni  14  
                ( 22.28%)   0.4721* C  13 s( 44.87%)p 1.23( 55.12%)d 0.00(  0.01%)
                                                  f 0.00(  0.00%)
                                           -0.0008 -0.6689  0.0349  0.0040 -0.0001
                                            0.0006 -0.0001  0.0000 -0.7408  0.0438
                                            0.0067  0.0208 -0.0034  0.0027  0.0000
                                            0.0000  0.0004  0.0006 -0.0055  0.0010
                                            0.0051 -0.0010  0.0026 -0.0043  0.0004
                                           -0.0000  0.0017  0.0011 -0.0000 -0.0000
                                            0.0037
                ( 77.72%)  -0.8816*Ni  14 s( 24.40%)p 2.96( 72.22%)d 0.14(  3.37%)
                                                  f 0.00(  0.00%)
                                            0.0007 -0.4937  0.0163  0.0039 -0.0041
                                           -0.0003  0.0000 -0.0004  0.0000 -0.0000
                                           -0.0000  0.0001  0.8410 -0.0203  0.0026
                                           -0.0002  0.0009  0.1206  0.0009 -0.0006
                                            0.0000  0.0002  0.0000  0.0000  0.0000
                                           -0.0000  0.0000 -0.0306  0.0036  0.0012
                                            0.1545  0.0039  0.0036  0.0942  0.0019
                                           -0.0013  0.0002  0.0000 -0.0011 -0.0000
                                           -0.0000  0.0000 -0.0020
   741. (0.01288) BD*( 1)Ni  14 - C  15  
                ( 75.63%)   0.8697*Ni  14 s( 25.15%)p 2.87( 72.14%)d 0.11(  2.71%)
                                                  f 0.00(  0.00%)
                                           -0.0031  0.5015  0.0006  0.0004  0.0003
                                           -0.0005  0.0007  0.6926  0.0008  0.0018
                                            0.0000 -0.0011  0.3349  0.0089  0.0017
                                            0.0000 -0.0000 -0.3597 -0.0022 -0.0010
                                           -0.0001  0.0800  0.0239  0.0049 -0.1113
                                           -0.0063 -0.0010 -0.0404 -0.0138 -0.0016
                                            0.0713  0.0028 -0.0020 -0.0258 -0.0100
                                            0.0005  0.0017  0.0001  0.0000 -0.0015
                                           -0.0031  0.0003  0.0025
                ( 24.37%)  -0.4937* C  15 s( 69.60%)p 0.44( 30.34%)d 0.00(  0.04%)
                                                  f 0.00(  0.02%)
                                            0.0011  0.8325  0.0549 -0.0015 -0.0002
                                           -0.3800  0.0201  0.0079 -0.3385  0.0192
                                            0.0048  0.2083 -0.0124 -0.0042 -0.0006
                                            0.0128 -0.0005 -0.0100  0.0003 -0.0071
                                            0.0016  0.0057  0.0004 -0.0046 -0.0061
                                            0.0011  0.0006  0.0036  0.0083  0.0013
                                           -0.0082
   742. (0.01288) BD*( 1)Ni  14 - C  17  
                ( 75.63%)   0.8697*Ni  14 s( 25.14%)p 2.87( 72.15%)d 0.11(  2.71%)
                                                  f 0.00(  0.00%)
                                           -0.0031  0.5014  0.0006  0.0004  0.0003
                                           -0.0005 -0.0007 -0.6939 -0.0008 -0.0018
                                           -0.0000 -0.0011  0.3340  0.0090  0.0017
                                            0.0000 -0.0000 -0.3583 -0.0021 -0.0010
                                           -0.0001 -0.0799 -0.0239 -0.0049  0.1110
                                            0.0063  0.0010 -0.0401 -0.0138 -0.0016
                                            0.0716  0.0029 -0.0020 -0.0263 -0.0101
                                            0.0005  0.0017 -0.0001  0.0000 -0.0015
                                            0.0031 -0.0003  0.0025
                ( 24.37%)  -0.4936* C  17 s( 69.60%)p 0.44( 30.34%)d 0.00(  0.04%)
                                                  f 0.00(  0.02%)
                                            0.0011  0.8325  0.0549 -0.0015 -0.0002
                                            0.3809 -0.0201 -0.0079 -0.3383  0.0192
                                            0.0048  0.2070 -0.0123 -0.0042  0.0006
                                           -0.0128  0.0005  0.0100  0.0003 -0.0070
                                            0.0016  0.0057  0.0004 -0.0046 -0.0061
                                           -0.0011  0.0006  0.0036 -0.0083 -0.0013
                                           -0.0082
   743. (0.01110) BD*( 1)Ni  14 - C  19  
                ( 74.79%)   0.8648*Ni  14 s( 25.24%)p 2.83( 71.51%)d 0.13(  3.25%)
                                                  f 0.00(  0.00%)
                                           -0.0037  0.5023  0.0068  0.0015 -0.0033
                                            0.0014  0.0000  0.0007 -0.0000 -0.0000
                                           -0.0000 -0.0010  0.1562 -0.0002  0.0029
                                           -0.0002  0.0006  0.8310  0.0106  0.0009
                                            0.0002  0.0000  0.0000  0.0000  0.0002
                                           -0.0000 -0.0000  0.0267  0.0098  0.0044
                                            0.0025  0.0049 -0.0011  0.1768  0.0199
                                            0.0029  0.0046  0.0000  0.0013  0.0002
                                            0.0000  0.0000 -0.0001
                ( 25.21%)  -0.5021* C  19 s( 69.06%)p 0.45( 30.88%)d 0.00(  0.04%)
                                                  f 0.00(  0.02%)
                                            0.0012  0.8292  0.0541 -0.0026 -0.0003
                                           -0.0001  0.0000  0.0000 -0.1123  0.0038
                                            0.0024 -0.5432  0.0319  0.0100  0.0000
                                            0.0000  0.0000  0.0000  0.0002  0.0066
                                            0.0003  0.0002 -0.0000  0.0193 -0.0131
                                           -0.0000 -0.0067  0.0009 -0.0000  0.0000
                                           -0.0001
   744. (0.02369) BD*( 1) C  15 - O  16  
                ( 70.59%)   0.8402* C  15 s( 32.24%)p 2.10( 67.61%)d 0.00(  0.11%)
                                                  f 0.00(  0.03%)
                                            0.0002 -0.5336  0.1941 -0.0044 -0.0011
                                           -0.5387 -0.0338 -0.0044 -0.3771 -0.0325
                                           -0.0051  0.4910  0.0194  0.0065 -0.0168
                                            0.0112  0.0181 -0.0077  0.0146 -0.0070
                                           -0.0044  0.0020  0.0018 -0.0059 -0.0074
                                            0.0026  0.0022  0.0015  0.0107  0.0058
                                           -0.0092
                ( 29.41%)  -0.5423* O  16 s( 45.12%)p 1.20( 54.16%)d 0.02(  0.69%)
                                                  f 0.00(  0.03%)
                                           -0.0000 -0.6716  0.0120 -0.0013 -0.0006
                                            0.4790 -0.0092 -0.0036  0.5548 -0.0096
                                           -0.0034 -0.0643  0.0036  0.0022 -0.0659
                                           -0.0009  0.0272  0.0006  0.0276  0.0006
                                           -0.0011 -0.0000  0.0321  0.0004  0.0063
                                           -0.0039 -0.0037 -0.0001 -0.0085 -0.0074
                                            0.0082
   745. (0.14657) BD*( 2) C  15 - O  16  
                ( 76.04%)   0.8720* C  15 s(  0.09%)p99.99( 99.70%)d 2.46(  0.21%)
                                                  f 0.01(  0.00%)
                                            0.0000 -0.0265  0.0124  0.0006 -0.0001
                                           -0.7378 -0.0012 -0.0063  0.4677  0.0013
                                            0.0030 -0.4834 -0.0071 -0.0061 -0.0061
                                           -0.0001 -0.0032 -0.0009 -0.0226 -0.0003
                                           -0.0366  0.0009  0.0145 -0.0014 -0.0014
                                           -0.0002 -0.0003 -0.0015  0.0012  0.0007
                                            0.0022
                ( 23.96%)  -0.4895* O  16 s(  0.08%)p99.99( 99.44%)d 5.45(  0.45%)
                                                  f 0.27(  0.02%)
                                            0.0000 -0.0288 -0.0000 -0.0003 -0.0000
                                           -0.6945  0.0045 -0.0000  0.5059 -0.0025
                                           -0.0002 -0.5060  0.0032  0.0001  0.0052
                                           -0.0000  0.0065 -0.0000  0.0346 -0.0002
                                            0.0531 -0.0002 -0.0205  0.0000  0.0017
                                            0.0054  0.0037  0.0065 -0.0044 -0.0071
                                           -0.0080
   746. (0.16163) BD*( 3) C  15 - O  16  
                ( 75.96%)   0.8716* C  15 s(  1.54%)p63.82( 98.25%)d 0.14(  0.21%)
                                                  f 0.00(  0.00%)
                                           -0.0001  0.1180 -0.0385  0.0009  0.0002
                                           -0.0040  0.0153  0.0007  0.7129  0.0132
                                            0.0043  0.6883 -0.0003  0.0061  0.0199
                                           -0.0033  0.0231  0.0006  0.0090  0.0017
                                           -0.0211  0.0001 -0.0247  0.0014  0.0023
                                            0.0005  0.0017 -0.0003 -0.0035  0.0007
                                            0.0030
                ( 24.04%)  -0.4903* O  16 s(  2.42%)p40.14( 97.09%)d 0.19(  0.46%)
                                                  f 0.01(  0.02%)
                                            0.0000  0.1555 -0.0032 -0.0006  0.0002
                                           -0.2426  0.0032  0.0011  0.4936 -0.0005
                                            0.0009  0.8175 -0.0059 -0.0006 -0.0078
                                            0.0004 -0.0464 -0.0001 -0.0249 -0.0000
                                            0.0325 -0.0002  0.0275 -0.0003 -0.0036
                                           -0.0066 -0.0069  0.0049  0.0070 -0.0062
                                           -0.0027
   747. (0.02366) BD*( 1) C  17 - O  18  
                ( 70.59%)   0.8402* C  17 s( 32.25%)p 2.10( 67.61%)d 0.00(  0.11%)
                                                  f 0.00(  0.03%)
                                           -0.0002  0.5337 -0.1941  0.0044  0.0011
                                           -0.5401 -0.0339 -0.0044  0.3776  0.0325
                                            0.0051 -0.4890 -0.0193 -0.0065 -0.0169
                                            0.0112  0.0181 -0.0077 -0.0146  0.0070
                                            0.0045 -0.0020 -0.0019  0.0060  0.0073
                                            0.0027 -0.0022 -0.0015  0.0107  0.0058
                                            0.0093
                ( 29.41%)  -0.5423* O  18 s( 45.13%)p 1.20( 54.15%)d 0.02(  0.69%)
                                                  f 0.00(  0.03%)
                                            0.0000  0.6717 -0.0120  0.0013  0.0006
                                            0.4801 -0.0092 -0.0036 -0.5540  0.0096
                                            0.0034  0.0627 -0.0036 -0.0021 -0.0660
                                           -0.0009  0.0271  0.0006 -0.0273 -0.0006
                                            0.0013  0.0000 -0.0323 -0.0004 -0.0062
                                           -0.0040  0.0037  0.0001 -0.0084 -0.0074
                                           -0.0082
   748. (0.14668) BD*( 2) C  17 - O  18  
                ( 76.04%)   0.8720* C  17 s(  0.08%)p99.99( 99.70%)d 2.54(  0.21%)
                                                  f 0.01(  0.00%)
                                            0.0000 -0.0261  0.0123  0.0006 -0.0001
                                            0.7363  0.0011  0.0063  0.4725  0.0014
                                            0.0030 -0.4811 -0.0071 -0.0061  0.0059
                                            0.0001  0.0032  0.0009 -0.0225 -0.0003
                                           -0.0367  0.0009  0.0143 -0.0014 -0.0014
                                            0.0002 -0.0003 -0.0015 -0.0012 -0.0007
                                            0.0022
                ( 23.96%)  -0.4894* O  18 s(  0.08%)p99.99( 99.45%)d 5.66(  0.45%)
                                                  f 0.28(  0.02%)
                                            0.0000 -0.0282 -0.0001 -0.0003 -0.0000
                                            0.6937 -0.0045  0.0000  0.5100 -0.0026
                                           -0.0002 -0.5031  0.0032  0.0001 -0.0050
                                            0.0000 -0.0066  0.0000  0.0345 -0.0002
                                            0.0533 -0.0002 -0.0202  0.0000  0.0017
                                           -0.0054  0.0036  0.0064  0.0044  0.0072
                                           -0.0079
   749. (0.16157) BD*( 3) C  17 - O  18  
                ( 75.96%)   0.8716* C  17 s(  1.53%)p64.01( 98.25%)d 0.14(  0.21%)
                                                  f 0.00(  0.00%)
                                           -0.0001  0.1178 -0.0384  0.0009  0.0002
                                            0.0015 -0.0153 -0.0007  0.7096  0.0131
                                            0.0043  0.6918 -0.0002  0.0061 -0.0200
                                            0.0033 -0.0232 -0.0006  0.0092  0.0017
                                           -0.0209  0.0001 -0.0246  0.0014  0.0023
                                           -0.0004  0.0017 -0.0003  0.0035 -0.0007
                                            0.0030
                ( 24.04%)  -0.4903* O  18 s(  2.41%)p40.25( 97.10%)d 0.19(  0.46%)
                                                  f 0.01(  0.02%)
                                            0.0000  0.1553 -0.0032 -0.0006  0.0002
                                            0.2404 -0.0032 -0.0011  0.4907 -0.0005
                                            0.0009  0.8200 -0.0059 -0.0006  0.0078
                                           -0.0004  0.0465  0.0001 -0.0251 -0.0000
                                            0.0323 -0.0002  0.0274 -0.0003 -0.0036
                                            0.0065 -0.0068  0.0049 -0.0070  0.0062
                                           -0.0027
   750. (0.01317) BD*( 1) C  19 - O  20  
                ( 70.06%)   0.8370* C  19 s( 34.17%)p 1.92( 65.70%)d 0.00(  0.11%)
                                                  f 0.00(  0.03%)
                                           -0.0002  0.5517 -0.1929  0.0062  0.0012
                                           -0.0002  0.0000  0.0000  0.1449  0.0122
                                            0.0022  0.7954  0.0558  0.0043 -0.0000
                                           -0.0000 -0.0000 -0.0000  0.0086 -0.0061
                                           -0.0011 -0.0007  0.0260 -0.0164  0.0149
                                            0.0000  0.0078 -0.0009  0.0000 -0.0000
                                            0.0002
                ( 29.94%)  -0.5472* O  20 s( 46.88%)p 1.12( 52.40%)d 0.01(  0.70%)
                                                  f 0.00(  0.02%)
                                            0.0000  0.6846 -0.0107  0.0004  0.0006
                                           -0.0004  0.0000  0.0000 -0.1614  0.0030
                                            0.0017 -0.7055  0.0128  0.0060  0.0000
                                           -0.0000  0.0000 -0.0000  0.0294  0.0005
                                           -0.0031 -0.0000  0.0784  0.0012 -0.0135
                                           -0.0000 -0.0074  0.0012 -0.0000  0.0000
                                            0.0001
   751. (0.14713) BD*( 2) C  19 - O  20  
                ( 76.33%)   0.8737* C  19 s(  0.01%)p99.99( 99.78%)d18.03(  0.21%)
                                                  f 0.06(  0.00%)
                                           -0.0000  0.0107 -0.0009  0.0014 -0.0000
                                           -0.0011  0.0000 -0.0000  0.9813  0.0036
                                            0.0103 -0.1865  0.0015 -0.0017 -0.0000
                                           -0.0000 -0.0001 -0.0000  0.0423  0.0010
                                           -0.0092 -0.0009 -0.0153 -0.0009  0.0019
                                            0.0000 -0.0017  0.0010  0.0000 -0.0000
                                            0.0004
                ( 23.67%)  -0.4865* O  20 s(  0.01%)p99.99( 99.51%)d31.65(  0.45%)
                                                  f 1.55(  0.02%)
                                            0.0000  0.0119 -0.0008  0.0003  0.0000
                                           -0.0011  0.0000  0.0000  0.9749 -0.0052
                                           -0.0000 -0.2114  0.0015 -0.0001  0.0000
                                           -0.0000  0.0001 -0.0000 -0.0612  0.0004
                                            0.0132 -0.0001  0.0242 -0.0002 -0.0073
                                           -0.0000  0.0122 -0.0044 -0.0000 -0.0000
                                           -0.0005
   752. (0.14676) BD*( 3) C  19 - O  20  
                ( 76.25%)   0.8732* C  19 s(  0.00%)p 1.00( 99.79%)d 0.00(  0.21%)
                                                  f 0.00(  0.00%)
                                           -0.0000  0.0002 -0.0001  0.0000  0.0000
                                            0.9989  0.0014  0.0095  0.0011  0.0000
                                            0.0000 -0.0002  0.0000  0.0000  0.0095
                                            0.0024  0.0450  0.0013  0.0000 -0.0000
                                           -0.0000 -0.0000 -0.0000 -0.0000  0.0000
                                           -0.0024  0.0000  0.0000 -0.0014  0.0006
                                            0.0000
                ( 23.75%)  -0.4873* O  20 s(  0.00%)p 1.00( 99.53%)d 0.00(  0.45%)
                                                  f 0.00(  0.02%)
                                           -0.0000  0.0002 -0.0000  0.0000  0.0000
                                            0.9976 -0.0054 -0.0002  0.0010 -0.0000
                                            0.0000 -0.0006  0.0000  0.0000 -0.0135
                                            0.0001 -0.0656  0.0004 -0.0001  0.0000
                                            0.0000 -0.0000  0.0001 -0.0000 -0.0000
                                            0.0141  0.0000 -0.0000  0.0046 -0.0006
                                            0.0000


 NHO Directionality and "Bond Bending" (deviations from line of nuclear centers)

         [Thresholds for printing:  angular deviation  >  1.0 degree]
                                    hybrid p-character > 25.0%
                                    orbital occupancy  >  0.10e

                                Line of Centers        Hybrid 1              Hybrid 2
                                ---------------  -------------------   ------------------
                NBO               Theta   Phi    Theta   Phi    Dev    Theta   Phi    Dev
 ========================================================================================
     1. BD (   1) C   1 - C   2   137.2  248.4     --     --    --      43.6   70.2   1.5
     3. BD (   1) C   1 - H  22    92.2  122.7    91.4  121.7   1.3      --     --    --
     5. BD (   1) C   2 - C   3   156.0   66.4   154.9   68.3   1.3      --     --    --
     6. BD (   1) C   2 - C   4    84.0  304.6    83.9  302.2   2.4     95.9  127.0   2.4
     7. BD (   1) C   2 - N   5    85.8  193.9     --     --    --      92.4   15.2   2.2
    10. BD (   1) C   3 - H  26   101.0  127.9   101.9  127.3   1.1      --     --    --
    12. BD (   1) C   4 - H  28    93.6   16.3    93.4   15.2   1.1      --     --    --
    14. BD (   1) N   5 - C   6    86.4  252.9    86.1  256.4   3.5     93.5   66.0   6.9
    15. BD (   1) N   5 - C  13    92.2  141.8    91.8  138.4   3.4     87.6  327.4   5.6
    16. BD (   1) C   6 - C   7    90.0  180.0    88.7  189.2   9.3     88.6  350.9   9.3
    17. BD (   2) C   6 - C   7    90.0  180.0   175.9  263.1  89.5    175.9  277.3  89.5
    19. BD (   1) C   7 - N   8    93.6  107.2    93.5  114.1   6.9     86.5  283.7   3.5
    21. BD (   1) N   8 - C   9    94.2  166.2    93.0  164.9   1.7      --     --    --
    22. BD (   1) N   8 - C  13    92.2   38.3    91.8   41.7   3.4     87.6  212.7   5.6
    23. BD (   2) N   8 - C  13    92.2   38.3     4.0  112.9  91.2    177.3  268.9  90.5
    24. BD (   1) C   9 - C  10    42.7  111.8    43.6  110.0   1.5      --     --    --
    25. BD (   1) C   9 - C  11   155.9  113.6   154.9  111.7   1.3      --     --    --
    26. BD (   1) C   9 - C  12    84.1  235.5    83.9  237.9   2.4     95.8   53.1   2.4
    29. BD (   1) C  10 - H  34    92.2   57.4    91.3   58.4   1.3      --     --    --
    32. BD (   1) C  11 - H  37   100.9   52.2   101.8   52.7   1.1      --     --    --
    35. BD (   1) C  12 - H  40    93.6  163.8    93.4  164.9   1.1      --     --    --
    36. BD (   1) C  13 -Ni  14    87.3   90.0    91.7   90.0   4.4     98.4  270.0   5.7
    37. BD (   1)Ni  14 - C  15   115.1   32.2   115.0   26.3   5.3     67.9  221.8   9.3
    38. BD (   1)Ni  14 - C  17   114.9  147.9   114.9  153.8   5.3     68.0  318.3   9.3
    39. BD (   1)Ni  14 - C  19    10.2   89.8     --     --    --     168.1  269.9   1.7
    40. BD (   1) C  15 - O  16   111.9   42.4   126.0   35.7  15.3     85.3  229.3  18.5
    41. BD (   2) C  15 - O  16   111.9   42.4    60.6  327.7  88.3     59.5  323.9  88.3
    42. BD (   3) C  15 - O  16   111.9   42.4    46.5   89.1  78.2     34.1  115.7  80.8
    43. BD (   1) C  17 - O  18   111.7  137.7   125.9  144.3  15.3     85.4  310.8  18.4
    44. BD (   2) C  17 - O  18   111.7  137.7    60.8  212.7  88.3     59.7  216.3  88.3
    45. BD (   3) C  17 - O  18   111.7  137.7    46.2   91.1  78.2     33.8   64.3  80.8
    46. BD (   1) C  19 - O  20    11.5   89.9     --     --    --     167.1  269.8   1.3
    47. BD (   2) C  19 - O  20    11.5   89.9   100.6   90.1  89.1    102.2   90.1  89.3
    48. BD (   3) C  19 - O  20    11.5   89.9    90.0    0.1  90.0     90.0    0.1  90.0
    72. LP (   1) N   5             --     --      4.0   72.2   --       --     --    --
    78. LP (   1) O  16             --     --    111.9   42.4   --       --     --    --
    79. LP (   1) O  18             --     --    111.8  137.7   --       --     --    --
    80. LP (   1) O  20             --     --     11.5   89.9   --       --     --    --
   721. BD*(   2) C   6 - C   7    90.0  180.0   175.9  263.1  89.5    175.9  277.3  89.5
   727. BD*(   2) N   8 - C  13    92.2   38.3     4.0  112.9  91.2    177.3  268.9  90.5
   745. BD*(   2) C  15 - O  16   111.9   42.4    60.6  327.7  88.3     59.5  323.9  88.3
   746. BD*(   3) C  15 - O  16   111.9   42.4    46.5   89.1  78.2     34.1  115.7  80.8
   748. BD*(   2) C  17 - O  18   111.7  137.7    60.8  212.7  88.3     59.7  216.3  88.3
   749. BD*(   3) C  17 - O  18   111.7  137.7    46.2   91.1  78.2     33.8   64.3  80.8
   751. BD*(   2) C  19 - O  20    11.5   89.9   100.6   90.1  89.1    102.2   90.1  89.3
   752. BD*(   3) C  19 - O  20    11.5   89.9    90.0    0.1  90.0     90.0    0.1  90.0


 Second Order Perturbation Theory Analysis of Fock Matrix in NBO Basis

     Threshold for printing:   0.50 kcal/mol
                                                                              E(2)  E(j)-E(i) F(i,j)
         Donor NBO (i)                     Acceptor NBO (j)                 kcal/mol   a.u.    a.u. 
 ===================================================================================================

 within unit  1
   1. BD (   1) C   1 - C   2        /186. RY*(   2) N   5                    0.90    1.38    0.032
   1. BD (   1) C   1 - C   2        /712. BD*(   1) C   3 - H  24            1.79    0.99    0.038
   1. BD (   1) C   1 - C   2        /717. BD*(   1) C   4 - H  29            2.28    0.99    0.043
   1. BD (   1) C   1 - C   2        /718. BD*(   1) N   5 - C   6            2.18    1.05    0.043
   2. BD (   1) C   1 - H  21        /107. RY*(   1) C   2                    0.61    1.90    0.030
   2. BD (   1) C   1 - H  21        /709. BD*(   1) C   2 - C   3            4.62    0.82    0.055
   3. BD (   1) C   1 - H  22        /108. RY*(   2) C   2                    0.80    2.07    0.037
   3. BD (   1) C   1 - H  22        /710. BD*(   1) C   2 - C   4            3.50    0.83    0.048
   3. BD (   1) C   1 - H  22        /742. BD*(   1)Ni  14 - C  17            0.81    1.11    0.027
   3. BD (   1) C   1 - H  22        /745. BD*(   2) C  15 - O  16            0.64    0.54    0.017
   4. BD (   1) C   1 - H  23        /110. RY*(   4) C   2                    0.63    3.24    0.041
   4. BD (   1) C   1 - H  23        /711. BD*(   1) C   2 - N   5            5.41    0.77    0.058
   5. BD (   1) C   2 - C   3        / 81. RY*(   1) C   1                    0.54    1.56    0.026
   5. BD (   1) C   2 - C   3        /186. RY*(   2) N   5                    1.10    1.38    0.035
   5. BD (   1) C   2 - C   3        /706. BD*(   1) C   1 - H  21            1.85    0.99    0.038
   5. BD (   1) C   2 - C   3        /715. BD*(   1) C   4 - H  27            2.23    0.99    0.042
   5. BD (   1) C   2 - C   3        /718. BD*(   1) N   5 - C   6            1.62    1.05    0.037
   6. BD (   1) C   2 - C   4        /187. RY*(   3) N   5                    0.92    1.87    0.037
   6. BD (   1) C   2 - C   4        /707. BD*(   1) C   1 - H  22            1.91    1.04    0.040
   6. BD (   1) C   2 - C   4        /714. BD*(   1) C   3 - H  26            1.86    1.02    0.039
   6. BD (   1) C   2 - C   4        /719. BD*(   1) N   5 - C  13            4.60    1.08    0.063
   7. BD (   1) C   2 - N   5        /212. RY*(   2) C   6                    0.78    2.31    0.038
   7. BD (   1) C   2 - N   5        /393. RY*(   1) C  13                    1.39    2.83    0.056
   7. BD (   1) C   2 - N   5        /708. BD*(   1) C   1 - H  23            1.31    1.11    0.034
   7. BD (   1) C   2 - N   5        /713. BD*(   1) C   3 - H  25            1.31    1.11    0.034
   7. BD (   1) C   2 - N   5        /716. BD*(   1) C   4 - H  28            1.04    1.12    0.030
   7. BD (   1) C   2 - N   5        /719. BD*(   1) N   5 - C  13            0.57    1.20    0.023
   7. BD (   1) C   2 - N   5        /720. BD*(   1) C   6 - C   7            1.13    1.32    0.034
   7. BD (   1) C   2 - N   5        /726. BD*(   1) N   8 - C  13            1.20    1.20    0.034
   8. BD (   1) C   3 - H  24        /107. RY*(   1) C   2                    0.65    1.90    0.032
   8. BD (   1) C   3 - H  24        /705. BD*(   1) C   1 - C   2            4.56    0.83    0.055
   9. BD (   1) C   3 - H  25        /110. RY*(   4) C   2                    0.60    3.24    0.040
   9. BD (   1) C   3 - H  25        /711. BD*(   1) C   2 - N   5            5.08    0.78    0.057
  10. BD (   1) C   3 - H  26        /108. RY*(   2) C   2                    0.85    2.07    0.038
  10. BD (   1) C   3 - H  26        /710. BD*(   1) C   2 - C   4            3.61    0.83    0.049
  10. BD (   1) C   3 - H  26        /746. BD*(   3) C  15 - O  16            0.84    0.58    0.020
  11. BD (   1) C   4 - H  27        /108. RY*(   2) C   2                    0.53    2.07    0.030
  11. BD (   1) C   4 - H  27        /709. BD*(   1) C   2 - C   3            3.58    0.83    0.049
  12. BD (   1) C   4 - H  28        /111. RY*(   5) C   2                    0.51    3.39    0.037
  12. BD (   1) C   4 - H  28        /711. BD*(   1) C   2 - N   5            6.12    0.78    0.062
  13. BD (   1) C   4 - H  29        /108. RY*(   2) C   2                    0.64    2.07    0.033
  13. BD (   1) C   4 - H  29        /705. BD*(   1) C   1 - C   2            3.43    0.84    0.048
  14. BD (   1) N   5 - C   6        /107. RY*(   1) C   2                    1.44    2.21    0.050
  14. BD (   1) N   5 - C   6        /239. RY*(   3) C   7                    0.65    2.10    0.033
  14. BD (   1) N   5 - C   6        /393. RY*(   1) C  13                    0.52    2.90    0.035
  14. BD (   1) N   5 - C   6        /396. RY*(   4) C  13                    0.80    2.07    0.037
  14. BD (   1) N   5 - C   6        /398. RY*(   6) C  13                    0.72    3.41    0.044
  14. BD (   1) N   5 - C   6        /705. BD*(   1) C   1 - C   2            0.87    1.14    0.028
  14. BD (   1) N   5 - C   6        /709. BD*(   1) C   2 - C   3            0.53    1.13    0.022
  14. BD (   1) N   5 - C   6        /711. BD*(   1) C   2 - N   5            0.53    1.08    0.022
  14. BD (   1) N   5 - C   6        /719. BD*(   1) N   5 - C  13            1.01    1.26    0.032
  14. BD (   1) N   5 - C   6        /720. BD*(   1) C   6 - C   7            0.66    1.38    0.027
  14. BD (   1) N   5 - C   6        /724. BD*(   1) C   7 - H  31            3.55    1.21    0.058
  14. BD (   1) N   5 - C   6        /725. BD*(   1) N   8 - C   9            0.83    1.08    0.027
  14. BD (   1) N   5 - C   6        /726. BD*(   1) N   8 - C  13            0.80    1.26    0.028
  14. BD (   1) N   5 - C   6        /740. BD*(   1) C  13 -Ni  14            1.36    1.31    0.038
  15. BD (   1) N   5 - C  13        /107. RY*(   1) C   2                    0.94    2.22    0.041
  15. BD (   1) N   5 - C  13        /213. RY*(   3) C   6                    0.88    2.10    0.039
  15. BD (   1) N   5 - C  13        /263. RY*(   1) N   8                    1.34    2.43    0.051
  15. BD (   1) N   5 - C  13        /710. BD*(   1) C   2 - C   4            1.20    1.14    0.033
  15. BD (   1) N   5 - C  13        /711. BD*(   1) C   2 - N   5            0.76    1.09    0.026
  15. BD (   1) N   5 - C  13        /718. BD*(   1) N   5 - C   6            1.16    1.24    0.034
  15. BD (   1) N   5 - C  13        /722. BD*(   1) C   6 - H  30            2.82    1.21    0.052
  15. BD (   1) N   5 - C  13        /725. BD*(   1) N   8 - C   9            5.99    1.09    0.073
  15. BD (   1) N   5 - C  13        /740. BD*(   1) C  13 -Ni  14            1.04    1.32    0.033
  16. BD (   1) C   6 - C   7        /185. RY*(   1) N   5                    1.49    2.35    0.053
  16. BD (   1) C   6 - C   7        /263. RY*(   1) N   8                    1.49    2.35    0.053
  16. BD (   1) C   6 - C   7        /711. BD*(   1) C   2 - N   5            5.55    1.02    0.068
  16. BD (   1) C   6 - C   7        /722. BD*(   1) C   6 - H  30            1.02    1.14    0.030
  16. BD (   1) C   6 - C   7        /724. BD*(   1) C   7 - H  31            1.02    1.14    0.030
  16. BD (   1) C   6 - C   7        /725. BD*(   1) N   8 - C   9            5.55    1.02    0.068
  17. BD (   2) C   6 - C   7        /186. RY*(   2) N   5                    0.53    1.05    0.022
  17. BD (   2) C   6 - C   7        /264. RY*(   2) N   8                    0.52    1.05    0.021
  17. BD (   2) C   6 - C   7        /727. BD*(   2) N   8 - C  13           12.25    0.27    0.056
  18. BD (   1) C   6 - H  30        /185. RY*(   1) N   5                    1.16    2.17    0.045
  18. BD (   1) C   6 - H  30        /238. RY*(   2) C   7                    1.50    2.13    0.051
  18. BD (   1) C   6 - H  30        /716. BD*(   1) C   4 - H  28            0.82    0.94    0.025
  18. BD (   1) C   6 - H  30        /719. BD*(   1) N   5 - C  13            4.65    1.01    0.061
  18. BD (   1) C   6 - H  30        /720. BD*(   1) C   6 - C   7            0.80    1.14    0.027
  18. BD (   1) C   6 - H  30        /723. BD*(   1) C   7 - N   8            2.20    0.99    0.042
  19. BD (   1) C   7 - N   8        /213. RY*(   3) C   6                    0.65    2.10    0.033
  19. BD (   1) C   7 - N   8        /289. RY*(   1) C   9                    1.44    2.21    0.050
  19. BD (   1) C   7 - N   8        /393. RY*(   1) C  13                    0.52    2.90    0.035
  19. BD (   1) C   7 - N   8        /396. RY*(   4) C  13                    0.87    2.07    0.038
  19. BD (   1) C   7 - N   8        /398. RY*(   6) C  13                    0.72    3.41    0.045
  19. BD (   1) C   7 - N   8        /711. BD*(   1) C   2 - N   5            0.83    1.08    0.027
  19. BD (   1) C   7 - N   8        /719. BD*(   1) N   5 - C  13            0.80    1.26    0.028
  19. BD (   1) C   7 - N   8        /720. BD*(   1) C   6 - C   7            0.66    1.38    0.027
  19. BD (   1) C   7 - N   8        /722. BD*(   1) C   6 - H  30            3.55    1.21    0.058
  19. BD (   1) C   7 - N   8        /725. BD*(   1) N   8 - C   9            0.53    1.08    0.022
  19. BD (   1) C   7 - N   8        /726. BD*(   1) N   8 - C  13            1.01    1.26    0.032
  19. BD (   1) C   7 - N   8        /728. BD*(   1) C   9 - C  10            0.88    1.14    0.028
  19. BD (   1) C   7 - N   8        /729. BD*(   1) C   9 - C  11            0.52    1.13    0.022
  19. BD (   1) C   7 - N   8        /740. BD*(   1) C  13 -Ni  14            1.36    1.31    0.038
  20. BD (   1) C   7 - H  31        /212. RY*(   2) C   6                    1.50    2.13    0.051
  20. BD (   1) C   7 - H  31        /263. RY*(   1) N   8                    1.16    2.17    0.045
  20. BD (   1) C   7 - H  31        /718. BD*(   1) N   5 - C   6            2.20    0.99    0.042
  20. BD (   1) C   7 - H  31        /720. BD*(   1) C   6 - C   7            0.80    1.14    0.027
  20. BD (   1) C   7 - H  31        /726. BD*(   1) N   8 - C  13            4.65    1.01    0.061
  20. BD (   1) C   7 - H  31        /739. BD*(   1) C  12 - H  40            0.82    0.94    0.025
  21. BD (   1) N   8 - C   9        /238. RY*(   2) C   7                    0.78    2.31    0.038
  21. BD (   1) N   8 - C   9        /393. RY*(   1) C  13                    1.39    2.83    0.056
  21. BD (   1) N   8 - C   9        /719. BD*(   1) N   5 - C  13            1.20    1.20    0.034
  21. BD (   1) N   8 - C   9        /720. BD*(   1) C   6 - C   7            1.13    1.32    0.034
  21. BD (   1) N   8 - C   9        /726. BD*(   1) N   8 - C  13            0.57    1.20    0.023
  21. BD (   1) N   8 - C   9        /732. BD*(   1) C  10 - H  33            1.30    1.11    0.034
  21. BD (   1) N   8 - C   9        /734. BD*(   1) C  11 - H  35            1.31    1.11    0.034
  21. BD (   1) N   8 - C   9        /739. BD*(   1) C  12 - H  40            1.04    1.12    0.030
  22. BD (   1) N   8 - C  13        /185. RY*(   1) N   5                    1.34    2.43    0.051
  22. BD (   1) N   8 - C  13        /239. RY*(   3) C   7                    0.88    2.10    0.039
  22. BD (   1) N   8 - C  13        /289. RY*(   1) C   9                    0.94    2.22    0.041
  22. BD (   1) N   8 - C  13        /711. BD*(   1) C   2 - N   5            5.99    1.09    0.073
  22. BD (   1) N   8 - C  13        /723. BD*(   1) C   7 - N   8            1.16    1.24    0.034
  22. BD (   1) N   8 - C  13        /724. BD*(   1) C   7 - H  31            2.82    1.21    0.052
  22. BD (   1) N   8 - C  13        /725. BD*(   1) N   8 - C   9            0.76    1.09    0.026
  22. BD (   1) N   8 - C  13        /730. BD*(   1) C   9 - C  12            1.20    1.14    0.033
  22. BD (   1) N   8 - C  13        /740. BD*(   1) C  13 -Ni  14            1.04    1.32    0.033
  23. BD (   2) N   8 - C  13        /186. RY*(   2) N   5                    0.53    1.10    0.022
  23. BD (   2) N   8 - C  13        /237. RY*(   1) C   7                    2.82    0.88    0.046
  23. BD (   2) N   8 - C  13        /721. BD*(   2) C   6 - C   7           20.91    0.36    0.080
  23. BD (   2) N   8 - C  13        /728. BD*(   1) C   9 - C  10            2.55    0.67    0.038
  23. BD (   2) N   8 - C  13        /729. BD*(   1) C   9 - C  11            3.08    0.67    0.041
  24. BD (   1) C   9 - C  10        /264. RY*(   2) N   8                    0.90    1.38    0.032
  24. BD (   1) C   9 - C  10        /723. BD*(   1) C   7 - N   8            2.19    1.05    0.043
  24. BD (   1) C   9 - C  10        /727. BD*(   2) N   8 - C  13            0.81    0.60    0.022
  24. BD (   1) C   9 - C  10        /735. BD*(   1) C  11 - H  36            1.79    0.99    0.038
  24. BD (   1) C   9 - C  10        /738. BD*(   1) C  12 - H  39            2.28    0.99    0.043
  25. BD (   1) C   9 - C  11        /264. RY*(   2) N   8                    1.09    1.38    0.035
  25. BD (   1) C   9 - C  11        /315. RY*(   1) C  10                    0.54    1.56    0.026
  25. BD (   1) C   9 - C  11        /723. BD*(   1) C   7 - N   8            1.61    1.05    0.037
  25. BD (   1) C   9 - C  11        /727. BD*(   2) N   8 - C  13            1.25    0.60    0.028
  25. BD (   1) C   9 - C  11        /731. BD*(   1) C  10 - H  32            1.85    0.99    0.038
  25. BD (   1) C   9 - C  11        /737. BD*(   1) C  12 - H  38            2.23    0.99    0.042
  26. BD (   1) C   9 - C  12        /265. RY*(   3) N   8                    0.92    1.87    0.037
  26. BD (   1) C   9 - C  12        /726. BD*(   1) N   8 - C  13            4.60    1.08    0.063
  26. BD (   1) C   9 - C  12        /733. BD*(   1) C  10 - H  34            1.90    1.04    0.040
  26. BD (   1) C   9 - C  12        /736. BD*(   1) C  11 - H  37            1.86    1.02    0.039
  27. BD (   1) C  10 - H  32        /289. RY*(   1) C   9                    0.61    1.90    0.030
  27. BD (   1) C  10 - H  32        /729. BD*(   1) C   9 - C  11            4.62    0.82    0.055
  28. BD (   1) C  10 - H  33        /292. RY*(   4) C   9                    0.63    3.24    0.041
  28. BD (   1) C  10 - H  33        /725. BD*(   1) N   8 - C   9            5.42    0.77    0.058
  29. BD (   1) C  10 - H  34        /290. RY*(   2) C   9                    0.80    2.07    0.036
  29. BD (   1) C  10 - H  34        /730. BD*(   1) C   9 - C  12            3.50    0.83    0.048
  29. BD (   1) C  10 - H  34        /741. BD*(   1)Ni  14 - C  15            0.81    1.11    0.027
  29. BD (   1) C  10 - H  34        /748. BD*(   2) C  17 - O  18            0.64    0.54    0.017
  30. BD (   1) C  11 - H  35        /292. RY*(   4) C   9                    0.60    3.24    0.040
  30. BD (   1) C  11 - H  35        /725. BD*(   1) N   8 - C   9            5.07    0.78    0.057
  31. BD (   1) C  11 - H  36        /289. RY*(   1) C   9                    0.65    1.90    0.032
  31. BD (   1) C  11 - H  36        /728. BD*(   1) C   9 - C  10            4.57    0.83    0.055
  32. BD (   1) C  11 - H  37        /290. RY*(   2) C   9                    0.85    2.07    0.038
  32. BD (   1) C  11 - H  37        /730. BD*(   1) C   9 - C  12            3.61    0.83    0.049
  32. BD (   1) C  11 - H  37        /749. BD*(   3) C  17 - O  18            0.84    0.58    0.020
  33. BD (   1) C  12 - H  38        /290. RY*(   2) C   9                    0.53    2.07    0.030
  33. BD (   1) C  12 - H  38        /729. BD*(   1) C   9 - C  11            3.58    0.83    0.049
  34. BD (   1) C  12 - H  39        /290. RY*(   2) C   9                    0.64    2.07    0.033
  34. BD (   1) C  12 - H  39        /728. BD*(   1) C   9 - C  10            3.43    0.84    0.048
  35. BD (   1) C  12 - H  40        /293. RY*(   5) C   9                    0.51    3.39    0.037
  35. BD (   1) C  12 - H  40        /725. BD*(   1) N   8 - C   9            6.12    0.78    0.062
  36. BD (   1) C  13 -Ni  14        /185. RY*(   1) N   5                    3.30    2.00    0.075
  36. BD (   1) C  13 -Ni  14        /188. RY*(   4) N   5                    0.51    2.26    0.031
  36. BD (   1) C  13 -Ni  14        /263. RY*(   1) N   8                    3.31    2.00    0.075
  36. BD (   1) C  13 -Ni  14        /266. RY*(   4) N   8                    0.51    2.26    0.031
  36. BD (   1) C  13 -Ni  14        /393. RY*(   1) C  13                    5.26    2.49    0.105
  36. BD (   1) C  13 -Ni  14        /394. RY*(   2) C  13                    2.58    2.65    0.076
  36. BD (   1) C  13 -Ni  14        /395. RY*(   3) C  13                    2.14    1.69    0.055
  36. BD (   1) C  13 -Ni  14        /402. RY*(  10) C  13                    3.51    3.11    0.096
  36. BD (   1) C  13 -Ni  14        /405. RY*(  13) C  13                    2.93    4.23    0.102
  36. BD (   1) C  13 -Ni  14        /419. RY*(   1)Ni  14                    1.27    1.56    0.041
  36. BD (   1) C  13 -Ni  14        /423. RY*(   5)Ni  14                    1.94    1.47    0.049
  36. BD (   1) C  13 -Ni  14        /424. RY*(   6)Ni  14                    2.33    1.96    0.062
  36. BD (   1) C  13 -Ni  14        /426. RY*(   8)Ni  14                    4.11    6.33    0.148
  36. BD (   1) C  13 -Ni  14        /427. RY*(   9)Ni  14                    5.13    7.92    0.186
  36. BD (   1) C  13 -Ni  14        /428. RY*(  10)Ni  14                    5.41   10.87    0.223
  36. BD (   1) C  13 -Ni  14        /429. RY*(  11)Ni  14                    1.19    1.61    0.040
  36. BD (   1) C  13 -Ni  14        /434. RY*(  16)Ni  14                    5.59   31.01    0.383
  36. BD (   1) C  13 -Ni  14        /436. RY*(  18)Ni  14                    1.85    3.53    0.074
  36. BD (   1) C  13 -Ni  14        /450. RY*(   2) C  15                    5.07    4.87    0.144
  36. BD (   1) C  13 -Ni  14        /458. RY*(  10) C  15                    0.91    2.88    0.047
  36. BD (   1) C  13 -Ni  14        /475. RY*(   1) O  16                    0.58    1.98    0.031
  36. BD (   1) C  13 -Ni  14        /502. RY*(   2) C  17                    5.07    4.87    0.144
  36. BD (   1) C  13 -Ni  14        /510. RY*(  10) C  17                    0.91    2.88    0.047
  36. BD (   1) C  13 -Ni  14        /527. RY*(   1) O  18                    0.58    1.98    0.031
  36. BD (   1) C  13 -Ni  14        /554. RY*(   2) C  19                    5.23    4.25    0.137
  36. BD (   1) C  13 -Ni  14        /579. RY*(   1) O  20                    0.62    2.00    0.032
  36. BD (   1) C  13 -Ni  14        /718. BD*(   1) N   5 - C   6            6.72    0.82    0.068
  36. BD (   1) C  13 -Ni  14        /723. BD*(   1) C   7 - N   8            6.72    0.82    0.068
  36. BD (   1) C  13 -Ni  14        /740. BD*(   1) C  13 -Ni  14            3.44    0.89    0.051
  36. BD (   1) C  13 -Ni  14        /741. BD*(   1)Ni  14 - C  15            1.62    1.00    0.037
  36. BD (   1) C  13 -Ni  14        /742. BD*(   1)Ni  14 - C  17            1.62    1.00    0.037
  36. BD (   1) C  13 -Ni  14        /743. BD*(   1)Ni  14 - C  19            1.68    1.02    0.038
  36. BD (   1) C  13 -Ni  14        /744. BD*(   1) C  15 - O  16            1.81    1.05    0.040
  36. BD (   1) C  13 -Ni  14        /746. BD*(   3) C  15 - O  16            2.33    0.47    0.030
  36. BD (   1) C  13 -Ni  14        /747. BD*(   1) C  17 - O  18            1.81    1.05    0.040
  36. BD (   1) C  13 -Ni  14        /749. BD*(   3) C  17 - O  18            2.31    0.47    0.030
  36. BD (   1) C  13 -Ni  14        /750. BD*(   1) C  19 - O  20            1.90    1.09    0.042
  36. BD (   1) C  13 -Ni  14        /751. BD*(   2) C  19 - O  20            3.49    0.43    0.035
  37. BD (   1)Ni  14 - C  15        /393. RY*(   1) C  13                    1.42    2.66    0.056
  37. BD (   1)Ni  14 - C  15        /394. RY*(   2) C  13                    1.16    2.83    0.052
  37. BD (   1)Ni  14 - C  15        /395. RY*(   3) C  13                    0.71    1.87    0.033
  37. BD (   1)Ni  14 - C  15        /402. RY*(  10) C  13                    0.61    3.28    0.040
  37. BD (   1)Ni  14 - C  15        /405. RY*(  13) C  13                    0.82    4.40    0.055
  37. BD (   1)Ni  14 - C  15        /424. RY*(   6)Ni  14                    0.98    2.14    0.042
  37. BD (   1)Ni  14 - C  15        /426. RY*(   8)Ni  14                    1.37    6.50    0.086
  37. BD (   1)Ni  14 - C  15        /427. RY*(   9)Ni  14                    1.68    8.10    0.106
  37. BD (   1)Ni  14 - C  15        /428. RY*(  10)Ni  14                    2.18   11.04    0.141
  37. BD (   1)Ni  14 - C  15        /434. RY*(  16)Ni  14                    1.84   31.19    0.217
  37. BD (   1)Ni  14 - C  15        /436. RY*(  18)Ni  14                    0.51    3.71    0.040
  37. BD (   1)Ni  14 - C  15        /450. RY*(   2) C  15                    2.47    5.05    0.101
  37. BD (   1)Ni  14 - C  15        /475. RY*(   1) O  16                    5.04    2.16    0.095
  37. BD (   1)Ni  14 - C  15        /476. RY*(   2) O  16                    0.63    1.40    0.027
  37. BD (   1)Ni  14 - C  15        /502. RY*(   2) C  17                    1.84    5.05    0.087
  37. BD (   1)Ni  14 - C  15        /554. RY*(   2) C  19                    1.83    4.43    0.081
  37. BD (   1)Ni  14 - C  15        /707. BD*(   1) C   1 - H  22            0.87    0.99    0.027
  37. BD (   1)Ni  14 - C  15        /714. BD*(   1) C   3 - H  26            0.79    0.97    0.025
  37. BD (   1)Ni  14 - C  15        /726. BD*(   1) N   8 - C  13            0.86    1.03    0.027
  37. BD (   1)Ni  14 - C  15        /740. BD*(   1) C  13 -Ni  14            0.96    1.07    0.029
  37. BD (   1)Ni  14 - C  15        /741. BD*(   1)Ni  14 - C  15            1.29    1.18    0.035
  37. BD (   1)Ni  14 - C  15        /743. BD*(   1)Ni  14 - C  19            0.77    1.20    0.027
  37. BD (   1)Ni  14 - C  15        /744. BD*(   1) C  15 - O  16            0.53    1.23    0.023
  37. BD (   1)Ni  14 - C  15        /747. BD*(   1) C  17 - O  18            1.67    1.23    0.041
  37. BD (   1)Ni  14 - C  15        /748. BD*(   2) C  17 - O  18            3.72    0.61    0.043
  37. BD (   1)Ni  14 - C  15        /750. BD*(   1) C  19 - O  20            1.46    1.27    0.039
  37. BD (   1)Ni  14 - C  15        /752. BD*(   3) C  19 - O  20            1.43    0.61    0.027
  38. BD (   1)Ni  14 - C  17        /393. RY*(   1) C  13                    1.42    2.66    0.056
  38. BD (   1)Ni  14 - C  17        /394. RY*(   2) C  13                    1.17    2.83    0.052
  38. BD (   1)Ni  14 - C  17        /395. RY*(   3) C  13                    0.66    1.87    0.032
  38. BD (   1)Ni  14 - C  17        /402. RY*(  10) C  13                    0.61    3.28    0.041
  38. BD (   1)Ni  14 - C  17        /405. RY*(  13) C  13                    0.82    4.40    0.055
  38. BD (   1)Ni  14 - C  17        /424. RY*(   6)Ni  14                    0.98    2.14    0.042
  38. BD (   1)Ni  14 - C  17        /426. RY*(   8)Ni  14                    1.37    6.50    0.086
  38. BD (   1)Ni  14 - C  17        /427. RY*(   9)Ni  14                    1.68    8.10    0.106
  38. BD (   1)Ni  14 - C  17        /428. RY*(  10)Ni  14                    2.18   11.04    0.141
  38. BD (   1)Ni  14 - C  17        /434. RY*(  16)Ni  14                    1.84   31.19    0.217
  38. BD (   1)Ni  14 - C  17        /436. RY*(  18)Ni  14                    0.51    3.71    0.040
  38. BD (   1)Ni  14 - C  17        /450. RY*(   2) C  15                    1.84    5.05    0.087
  38. BD (   1)Ni  14 - C  17        /502. RY*(   2) C  17                    2.47    5.05    0.101
  38. BD (   1)Ni  14 - C  17        /527. RY*(   1) O  18                    5.04    2.16    0.095
  38. BD (   1)Ni  14 - C  17        /528. RY*(   2) O  18                    0.63    1.40    0.027
  38. BD (   1)Ni  14 - C  17        /554. RY*(   2) C  19                    1.83    4.43    0.081
  38. BD (   1)Ni  14 - C  17        /719. BD*(   1) N   5 - C  13            0.86    1.03    0.027
  38. BD (   1)Ni  14 - C  17        /733. BD*(   1) C  10 - H  34            0.87    0.99    0.027
  38. BD (   1)Ni  14 - C  17        /736. BD*(   1) C  11 - H  37            0.79    0.97    0.025
  38. BD (   1)Ni  14 - C  17        /740. BD*(   1) C  13 -Ni  14            0.96    1.07    0.029
  38. BD (   1)Ni  14 - C  17        /742. BD*(   1)Ni  14 - C  17            1.29    1.18    0.035
  38. BD (   1)Ni  14 - C  17        /743. BD*(   1)Ni  14 - C  19            0.76    1.20    0.027
  38. BD (   1)Ni  14 - C  17        /744. BD*(   1) C  15 - O  16            1.67    1.23    0.041
  38. BD (   1)Ni  14 - C  17        /745. BD*(   2) C  15 - O  16            3.72    0.61    0.043
  38. BD (   1)Ni  14 - C  17        /747. BD*(   1) C  17 - O  18            0.53    1.23    0.023
  38. BD (   1)Ni  14 - C  17        /750. BD*(   1) C  19 - O  20            1.46    1.27    0.039
  38. BD (   1)Ni  14 - C  17        /752. BD*(   3) C  19 - O  20            1.43    0.61    0.027
  39. BD (   1)Ni  14 - C  19        /393. RY*(   1) C  13                    1.84    2.67    0.064
  39. BD (   1)Ni  14 - C  19        /394. RY*(   2) C  13                    1.58    2.83    0.061
  39. BD (   1)Ni  14 - C  19        /395. RY*(   3) C  13                    2.03    1.87    0.056
  39. BD (   1)Ni  14 - C  19        /402. RY*(  10) C  13                    0.97    3.29    0.051
  39. BD (   1)Ni  14 - C  19        /405. RY*(  13) C  13                    1.47    4.41    0.073
  39. BD (   1)Ni  14 - C  19        /419. RY*(   1)Ni  14                    0.53    1.74    0.028
  39. BD (   1)Ni  14 - C  19        /424. RY*(   6)Ni  14                    1.10    2.15    0.044
  39. BD (   1)Ni  14 - C  19        /426. RY*(   8)Ni  14                    1.71    6.51    0.096
  39. BD (   1)Ni  14 - C  19        /427. RY*(   9)Ni  14                    2.20    8.10    0.121
  39. BD (   1)Ni  14 - C  19        /428. RY*(  10)Ni  14                    2.92   11.05    0.163
  39. BD (   1)Ni  14 - C  19        /429. RY*(  11)Ni  14                    0.52    1.79    0.028
  39. BD (   1)Ni  14 - C  19        /434. RY*(  16)Ni  14                    2.76   31.19    0.266
  39. BD (   1)Ni  14 - C  19        /450. RY*(   2) C  15                    2.44    5.05    0.101
  39. BD (   1)Ni  14 - C  19        /452. RY*(   4) C  15                    0.51    1.70    0.027
  39. BD (   1)Ni  14 - C  19        /502. RY*(   2) C  17                    2.44    5.05    0.101
  39. BD (   1)Ni  14 - C  19        /504. RY*(   4) C  17                    0.52    1.70    0.027
  39. BD (   1)Ni  14 - C  19        /554. RY*(   2) C  19                    3.14    4.43    0.107
  39. BD (   1)Ni  14 - C  19        /579. RY*(   1) O  20                    5.08    2.18    0.095
  39. BD (   1)Ni  14 - C  19        /727. BD*(   2) N   8 - C  13            1.23    0.56    0.026
  39. BD (   1)Ni  14 - C  19        /740. BD*(   1) C  13 -Ni  14            0.81    1.07    0.027
  39. BD (   1)Ni  14 - C  19        /741. BD*(   1)Ni  14 - C  15            0.92    1.18    0.030
  39. BD (   1)Ni  14 - C  19        /742. BD*(   1)Ni  14 - C  17            0.92    1.18    0.030
  39. BD (   1)Ni  14 - C  19        /743. BD*(   1)Ni  14 - C  19            1.80    1.20    0.042
  39. BD (   1)Ni  14 - C  19        /744. BD*(   1) C  15 - O  16            2.20    1.24    0.047
  39. BD (   1)Ni  14 - C  19        /746. BD*(   3) C  15 - O  16            1.12    0.65    0.025
  39. BD (   1)Ni  14 - C  19        /747. BD*(   1) C  17 - O  18            2.20    1.24    0.047
  39. BD (   1)Ni  14 - C  19        /749. BD*(   3) C  17 - O  18            1.13    0.65    0.025
  39. BD (   1)Ni  14 - C  19        /750. BD*(   1) C  19 - O  20            0.56    1.27    0.024
  40. BD (   1) C  15 - O  16        /426. RY*(   8)Ni  14                    0.64    7.13    0.060
  40. BD (   1) C  15 - O  16        /427. RY*(   9)Ni  14                    0.63    8.72    0.066
  40. BD (   1) C  15 - O  16        /428. RY*(  10)Ni  14                    0.59   11.67    0.074
  40. BD (   1) C  15 - O  16        /434. RY*(  16)Ni  14                    0.54   31.81    0.117
  40. BD (   1) C  15 - O  16        /449. RY*(   1) C  15                    1.62    2.32    0.055
  41. BD (   2) C  15 - O  16        /419. RY*(   1)Ni  14                    0.52    1.62    0.026
  42. BD (   3) C  15 - O  16        /420. RY*(   2)Ni  14                    0.53    1.35    0.024
  43. BD (   1) C  17 - O  18        /426. RY*(   8)Ni  14                    0.64    7.13    0.060
  43. BD (   1) C  17 - O  18        /427. RY*(   9)Ni  14                    0.63    8.72    0.066
  43. BD (   1) C  17 - O  18        /428. RY*(  10)Ni  14                    0.59   11.67    0.074
  43. BD (   1) C  17 - O  18        /434. RY*(  16)Ni  14                    0.54   31.81    0.117
  43. BD (   1) C  17 - O  18        /501. RY*(   1) C  17                    1.62    2.32    0.055
  44. BD (   2) C  17 - O  18        /419. RY*(   1)Ni  14                    0.52    1.62    0.026
  45. BD (   3) C  17 - O  18        /420. RY*(   2)Ni  14                    0.53    1.35    0.024
  46. BD (   1) C  19 - O  20        /553. RY*(   1) C  19                    1.38    2.26    0.050
  47. BD (   2) C  19 - O  20        /419. RY*(   1)Ni  14                    0.61    1.62    0.028
  48. BD (   3) C  19 - O  20        /420. RY*(   2)Ni  14                    0.74    1.31    0.028
  49. CR (   1) C   1                /108. RY*(   2) C   2                    0.94   11.63    0.093
  49. CR (   1) C   1                /610. RY*(   1) H  22                    0.58   11.56    0.073
  50. CR (   1) C   2                /162. RY*(   4) C   4                    0.62   11.17    0.074
  50. CR (   1) C   2                /711. BD*(   1) C   2 - N   5            0.66   10.43    0.075
  50. CR (   1) C   2                /718. BD*(   1) N   5 - C   6            0.53   10.58    0.067
  50. CR (   1) C   2                /719. BD*(   1) N   5 - C  13            1.03   10.61    0.094
  51. CR (   1) C   3                /108. RY*(   2) C   2                    1.10   11.63    0.101
  51. CR (   1) C   3                /630. RY*(   1) H  26                    0.62   11.66    0.076
  52. CR (   1) C   4                /107. RY*(   1) C   2                    1.51   11.48    0.118
  53. CR (   1) N   5                /109. RY*(   3) C   2                    1.27   15.68    0.126
  53. CR (   1) N   5                /213. RY*(   3) C   6                    1.08   15.55    0.116
  53. CR (   1) N   5                /393. RY*(   1) C  13                    0.56   16.36    0.086
  53. CR (   1) N   5                /396. RY*(   4) C  13                    0.79   15.52    0.099
  54. CR (   1) C   6                /187. RY*(   3) N   5                    0.67   11.36    0.078
  54. CR (   1) C   6                /238. RY*(   2) C   7                    0.85   11.68    0.089
  54. CR (   1) C   6                /239. RY*(   3) C   7                    0.75   11.40    0.083
  54. CR (   1) C   6                /650. RY*(   1) H  30                    0.59   12.00    0.075
  54. CR (   1) C   6                /711. BD*(   1) C   2 - N   5            1.19   10.39    0.101
  54. CR (   1) C   6                /719. BD*(   1) N   5 - C  13            0.95   10.57    0.090
  54. CR (   1) C   6                /720. BD*(   1) C   6 - C   7            1.18   10.69    0.100
  54. CR (   1) C   6                /724. BD*(   1) C   7 - H  31            0.96   10.51    0.090
  55. CR (   1) C   7                /212. RY*(   2) C   6                    0.85   11.68    0.089
  55. CR (   1) C   7                /213. RY*(   3) C   6                    0.75   11.40    0.083
  55. CR (   1) C   7                /265. RY*(   3) N   8                    0.67   11.36    0.078
  55. CR (   1) C   7                /655. RY*(   1) H  31                    0.59   12.00    0.075
  55. CR (   1) C   7                /720. BD*(   1) C   6 - C   7            1.18   10.69    0.100
  55. CR (   1) C   7                /722. BD*(   1) C   6 - H  30            0.96   10.51    0.090
  55. CR (   1) C   7                /725. BD*(   1) N   8 - C   9            1.19   10.39    0.101
  55. CR (   1) C   7                /726. BD*(   1) N   8 - C  13            0.95   10.57    0.090
  56. CR (   1) N   8                /239. RY*(   3) C   7                    1.08   15.55    0.116
  56. CR (   1) N   8                /291. RY*(   3) C   9                    1.27   15.68    0.126
  56. CR (   1) N   8                /393. RY*(   1) C  13                    0.56   16.36    0.086
  56. CR (   1) N   8                /396. RY*(   4) C  13                    0.78   15.52    0.099
  57. CR (   1) C   9                /370. RY*(   4) C  12                    0.62   11.17    0.075
  57. CR (   1) C   9                /723. BD*(   1) C   7 - N   8            0.53   10.58    0.067
  57. CR (   1) C   9                /725. BD*(   1) N   8 - C   9            0.66   10.43    0.075
  57. CR (   1) C   9                /726. BD*(   1) N   8 - C  13            1.03   10.61    0.094
  58. CR (   1) C  10                /290. RY*(   2) C   9                    0.94   11.63    0.094
  58. CR (   1) C  10                /670. RY*(   1) H  34                    0.58   11.56    0.073
  59. CR (   1) C  11                /290. RY*(   2) C   9                    1.10   11.63    0.101
  59. CR (   1) C  11                /685. RY*(   1) H  37                    0.62   11.66    0.076
  60. CR (   1) C  12                /289. RY*(   1) C   9                    1.51   11.48    0.118
  61. CR (   1) C  13                /711. BD*(   1) C   2 - N   5            1.59   10.43    0.117
  61. CR (   1) C  13                /718. BD*(   1) N   5 - C   6            0.69   10.58    0.077
  61. CR (   1) C  13                /723. BD*(   1) C   7 - N   8            0.69   10.58    0.077
  61. CR (   1) C  13                /725. BD*(   1) N   8 - C   9            1.58   10.43    0.117
  61. CR (   1) C  13                /740. BD*(   1) C  13 -Ni  14            0.56   10.66    0.069
  62. CR (   1)Ni  14                /393. RY*(   1) C  13                    0.64    6.19    0.056
  62. CR (   1)Ni  14                /449. RY*(   1) C  15                    1.09    5.23    0.068
  62. CR (   1)Ni  14                /450. RY*(   2) C  15                    0.82    8.58    0.075
  62. CR (   1)Ni  14                /501. RY*(   1) C  17                    1.09    5.23    0.068
  62. CR (   1)Ni  14                /502. RY*(   2) C  17                    0.82    8.58    0.075
  62. CR (   1)Ni  14                /553. RY*(   1) C  19                    1.06    5.13    0.066
  62. CR (   1)Ni  14                /554. RY*(   2) C  19                    0.86    7.96    0.074
  62. CR (   1)Ni  14                /719. BD*(   1) N   5 - C  13            1.12    4.56    0.064
  62. CR (   1)Ni  14                /726. BD*(   1) N   8 - C  13            1.12    4.56    0.064
  62. CR (   1)Ni  14                /744. BD*(   1) C  15 - O  16            6.78    4.76    0.161
  62. CR (   1)Ni  14                /747. BD*(   1) C  17 - O  18            6.78    4.76    0.161
  62. CR (   1)Ni  14                /750. BD*(   1) C  19 - O  20            6.25    4.80    0.155
  63. CR (   2)Ni  14                /744. BD*(   1) C  15 - O  16            1.07    3.32    0.054
  63. CR (   2)Ni  14                /747. BD*(   1) C  17 - O  18            1.07    3.32    0.054
  63. CR (   2)Ni  14                /752. BD*(   3) C  19 - O  20            0.64    2.70    0.038
  64. CR (   3)Ni  14                /751. BD*(   2) C  19 - O  20            0.63    2.70    0.038
  65. CR (   4)Ni  14                /750. BD*(   1) C  19 - O  20            1.57    3.37    0.065
  66. CR (   1) C  15                /478. RY*(   4) O  16                    1.29   11.15    0.107
  66. CR (   1) C  15                /741. BD*(   1)Ni  14 - C  15            1.44   10.79    0.112
  66. CR (   1) C  15                /744. BD*(   1) C  15 - O  16            1.19   10.85    0.102
  67. CR (   1) O  16                /449. RY*(   1) C  15                    5.57   20.13    0.301
  67. CR (   1) O  16                /450. RY*(   2) C  15                    0.61   23.48    0.107
  67. CR (   1) O  16                /741. BD*(   1)Ni  14 - C  15            0.50   19.60    0.089
  68. CR (   1) C  17                /530. RY*(   4) O  18                    1.29   11.15    0.107
  68. CR (   1) C  17                /742. BD*(   1)Ni  14 - C  17            1.44   10.79    0.112
  68. CR (   1) C  17                /747. BD*(   1) C  17 - O  18            1.19   10.85    0.102
  69. CR (   1) O  18                /501. RY*(   1) C  17                    5.57   20.13    0.301
  69. CR (   1) O  18                /502. RY*(   2) C  17                    0.61   23.48    0.107
  69. CR (   1) O  18                /742. BD*(   1)Ni  14 - C  17            0.50   19.60    0.089
  70. CR (   1) C  19                /582. RY*(   4) O  20                    1.26   11.21    0.106
  70. CR (   1) C  19                /743. BD*(   1)Ni  14 - C  19            1.43   10.82    0.111
  70. CR (   1) C  19                /750. BD*(   1) C  19 - O  20            1.07   10.89    0.097
  71. CR (   1) O  20                /553. RY*(   1) C  19                    5.60   20.02    0.301
  71. CR (   1) O  20                /554. RY*(   2) C  19                    0.69   22.85    0.112
  71. CR (   1) O  20                /743. BD*(   1)Ni  14 - C  19            0.54   19.63    0.092
  72. LP (   1) N   5                /211. RY*(   1) C   6                    3.47    0.80    0.054
  72. LP (   1) N   5                /397. RY*(   5) C  13                    0.85    2.90    0.051
  72. LP (   1) N   5                /705. BD*(   1) C   1 - C   2            3.81    0.59    0.048
  72. LP (   1) N   5                /709. BD*(   1) C   2 - C   3            4.60    0.59    0.053
  72. LP (   1) N   5                /721. BD*(   2) C   6 - C   7           34.31    0.28    0.092
  72. LP (   1) N   5                /727. BD*(   2) N   8 - C  13           68.58    0.25    0.118
  73. LP (   1)Ni  14                /396. RY*(   4) C  13                    0.79    1.53    0.032
  73. LP (   1)Ni  14                /449. RY*(   1) C  15                    1.06    1.40    0.035
  73. LP (   1)Ni  14                /450. RY*(   2) C  15                    0.74    4.75    0.054
  73. LP (   1)Ni  14                /452. RY*(   4) C  15                    1.08    1.39    0.035
  73. LP (   1)Ni  14                /501. RY*(   1) C  17                    1.09    1.40    0.036
  73. LP (   1)Ni  14                /502. RY*(   2) C  17                    0.77    4.75    0.055
  73. LP (   1)Ni  14                /504. RY*(   4) C  17                    1.10    1.40    0.036
  73. LP (   1)Ni  14                /556. RY*(   4) C  19                    0.82    1.39    0.031
  73. LP (   1)Ni  14                /719. BD*(   1) N   5 - C  13            0.98    0.73    0.024
  73. LP (   1)Ni  14                /726. BD*(   1) N   8 - C  13            0.98    0.73    0.024
  73. LP (   1)Ni  14                /745. BD*(   2) C  15 - O  16            0.92    0.31    0.015
  73. LP (   1)Ni  14                /746. BD*(   3) C  15 - O  16            5.00    0.34    0.038
  73. LP (   1)Ni  14                /748. BD*(   2) C  17 - O  18            0.96    0.31    0.016
  73. LP (   1)Ni  14                /749. BD*(   3) C  17 - O  18            4.99    0.34    0.038
  74. LP (   2)Ni  14                /395. RY*(   3) C  13                    1.30    1.57    0.041
  74. LP (   2)Ni  14                /405. RY*(  13) C  13                    0.75    4.10    0.051
  74. LP (   2)Ni  14                /419. RY*(   1)Ni  14                    1.16    1.44    0.038
  74. LP (   2)Ni  14                /424. RY*(   6)Ni  14                    1.47    1.84    0.048
  74. LP (   2)Ni  14                /426. RY*(   8)Ni  14                    1.82    6.20    0.098
  74. LP (   2)Ni  14                /427. RY*(   9)Ni  14                    1.07    7.80    0.084
  74. LP (   2)Ni  14                /428. RY*(  10)Ni  14                    1.84   10.74    0.129
  74. LP (   2)Ni  14                /433. RY*(  15)Ni  14                    1.85    4.37    0.083
  74. LP (   2)Ni  14                /434. RY*(  16)Ni  14                    1.58   30.88    0.203
  74. LP (   2)Ni  14                /436. RY*(  18)Ni  14                    0.99    3.40    0.053
  74. LP (   2)Ni  14                /440. RY*(  22)Ni  14                    0.94   56.57    0.212
  74. LP (   2)Ni  14                /449. RY*(   1) C  15                    2.29    1.40    0.052
  74. LP (   2)Ni  14                /450. RY*(   2) C  15                    3.44    4.75    0.117
  74. LP (   2)Ni  14                /451. RY*(   3) C  15                    0.84    1.16    0.029
  74. LP (   2)Ni  14                /452. RY*(   4) C  15                    0.81    1.39    0.031
  74. LP (   2)Ni  14                /501. RY*(   1) C  17                    2.27    1.40    0.051
  74. LP (   2)Ni  14                /502. RY*(   2) C  17                    3.42    4.75    0.117
  74. LP (   2)Ni  14                /503. RY*(   3) C  17                    0.85    1.16    0.029
  74. LP (   2)Ni  14                /504. RY*(   4) C  17                    0.79    1.39    0.031
  74. LP (   2)Ni  14                /555. RY*(   3) C  19                    1.54    1.18    0.039
  74. LP (   2)Ni  14                /563. RY*(  11) C  19                    0.58    3.18    0.040
  74. LP (   2)Ni  14                /727. BD*(   2) N   8 - C  13            5.13    0.25    0.035
  74. LP (   2)Ni  14                /741. BD*(   1)Ni  14 - C  15            1.27    0.88    0.031
  74. LP (   2)Ni  14                /742. BD*(   1)Ni  14 - C  17            1.26    0.88    0.031
  74. LP (   2)Ni  14                /745. BD*(   2) C  15 - O  16            0.60    0.31    0.012
  74. LP (   2)Ni  14                /748. BD*(   2) C  17 - O  18            0.60    0.31    0.012
  74. LP (   2)Ni  14                /751. BD*(   2) C  19 - O  20           12.64    0.31    0.056
  75. LP (   3)Ni  14                /422. RY*(   4)Ni  14                    0.72    1.16    0.027
  75. LP (   3)Ni  14                /430. RY*(  12)Ni  14                    0.80    4.35    0.055
  75. LP (   3)Ni  14                /441. RY*(  23)Ni  14                    1.09   56.68    0.234
  75. LP (   3)Ni  14                /449. RY*(   1) C  15                    0.80    1.39    0.031
  75. LP (   3)Ni  14                /450. RY*(   2) C  15                    1.45    4.74    0.078
  75. LP (   3)Ni  14                /501. RY*(   1) C  17                    0.83    1.39    0.032
  75. LP (   3)Ni  14                /502. RY*(   2) C  17                    1.48    4.74    0.078
  75. LP (   3)Ni  14                /556. RY*(   4) C  19                    1.31    1.38    0.040
  75. LP (   3)Ni  14                /707. BD*(   1) C   1 - H  22            0.62    0.68    0.019
  75. LP (   3)Ni  14                /733. BD*(   1) C  10 - H  34            0.59    0.68    0.019
  75. LP (   3)Ni  14                /741. BD*(   1)Ni  14 - C  15            1.39    0.87    0.032
  75. LP (   3)Ni  14                /742. BD*(   1)Ni  14 - C  17            1.46    0.87    0.033
  75. LP (   3)Ni  14                /745. BD*(   2) C  15 - O  16            3.23    0.30    0.028
  75. LP (   3)Ni  14                /746. BD*(   3) C  15 - O  16            1.85    0.33    0.022
  75. LP (   3)Ni  14                /748. BD*(   2) C  17 - O  18            2.59    0.30    0.025
  75. LP (   3)Ni  14                /749. BD*(   3) C  17 - O  18            1.88    0.33    0.022
  75. LP (   3)Ni  14                /752. BD*(   3) C  19 - O  20           21.93    0.30    0.073
  76. LP (   4)Ni  14                /394. RY*(   2) C  13                    1.02    2.51    0.048
  76. LP (   4)Ni  14                /395. RY*(   3) C  13                    1.86    1.56    0.050
  76. LP (   4)Ni  14                /433. RY*(  15)Ni  14                    0.65    4.36    0.050
  76. LP (   4)Ni  14                /439. RY*(  21)Ni  14                    0.53   56.34    0.162
  76. LP (   4)Ni  14                /440. RY*(  22)Ni  14                    0.71   56.56    0.188
  76. LP (   4)Ni  14                /451. RY*(   3) C  15                    0.77    1.15    0.028
  76. LP (   4)Ni  14                /503. RY*(   3) C  17                    0.79    1.15    0.028
  76. LP (   4)Ni  14                /553. RY*(   1) C  19                    1.00    1.29    0.033
  76. LP (   4)Ni  14                /554. RY*(   2) C  19                    1.64    4.12    0.077
  76. LP (   4)Ni  14                /740. BD*(   1) C  13 -Ni  14            1.03    0.76    0.026
  76. LP (   4)Ni  14                /743. BD*(   1)Ni  14 - C  19            1.10    0.89    0.029
  76. LP (   4)Ni  14                /745. BD*(   2) C  15 - O  16           15.19    0.30    0.061
  76. LP (   4)Ni  14                /748. BD*(   2) C  17 - O  18           15.78    0.30    0.062
  77. LP (   5)Ni  14                /394. RY*(   2) C  13                    1.22    2.49    0.052
  77. LP (   5)Ni  14                /432. RY*(  14)Ni  14                    0.76    3.23    0.047
  77. LP (   5)Ni  14                /439. RY*(  21)Ni  14                    1.18   56.32    0.245
  77. LP (   5)Ni  14                /553. RY*(   1) C  19                    1.75    1.26    0.045
  77. LP (   5)Ni  14                /554. RY*(   2) C  19                    2.19    4.09    0.090
  77. LP (   5)Ni  14                /740. BD*(   1) C  13 -Ni  14            3.53    0.74    0.048
  77. LP (   5)Ni  14                /741. BD*(   1)Ni  14 - C  15            0.56    0.85    0.021
  77. LP (   5)Ni  14                /742. BD*(   1)Ni  14 - C  17            0.56    0.85    0.021
  77. LP (   5)Ni  14                /743. BD*(   1)Ni  14 - C  19            2.11    0.87    0.041
  77. LP (   5)Ni  14                /746. BD*(   3) C  15 - O  16           14.25    0.31    0.061
  77. LP (   5)Ni  14                /749. BD*(   3) C  17 - O  18           14.21    0.31    0.060
  77. LP (   5)Ni  14                /751. BD*(   2) C  19 - O  20            9.02    0.27    0.046
  78. LP (   1) O  16                /449. RY*(   1) C  15                   11.18    1.88    0.130
  78. LP (   1) O  16                /450. RY*(   2) C  15                    1.27    5.23    0.073
  78. LP (   1) O  16                /458. RY*(  10) C  15                    0.67    3.24    0.042
  78. LP (   1) O  16                /475. RY*(   1) O  16                    1.00    2.34    0.043
  78. LP (   1) O  16                /479. RY*(   5) O  16                    0.75    4.34    0.051
  78. LP (   1) O  16                /741. BD*(   1)Ni  14 - C  15            2.84    1.36    0.056
  79. LP (   1) O  18                /501. RY*(   1) C  17                   11.17    1.88    0.130
  79. LP (   1) O  18                /502. RY*(   2) C  17                    1.27    5.23    0.073
  79. LP (   1) O  18                /510. RY*(  10) C  17                    0.67    3.24    0.042
  79. LP (   1) O  18                /527. RY*(   1) O  18                    1.00    2.34    0.043
  79. LP (   1) O  18                /531. RY*(   5) O  18                    0.75    4.35    0.051
  79. LP (   1) O  18                /742. BD*(   1)Ni  14 - C  17            2.84    1.36    0.056
  80. LP (   1) O  20                /553. RY*(   1) C  19                   11.46    1.79    0.128
  80. LP (   1) O  20                /554. RY*(   2) C  19                    1.67    4.62    0.079
  80. LP (   1) O  20                /579. RY*(   1) O  20                    1.05    2.37    0.045
  80. LP (   1) O  20                /583. RY*(   5) O  20                    0.87    4.97    0.059
  80. LP (   1) O  20                /743. BD*(   1)Ni  14 - C  19            2.93    1.39    0.057
 721. BD*(   2) C   6 - C   7        /211. RY*(   1) C   6                    0.77    0.52    0.048
 721. BD*(   2) C   6 - C   7        /237. RY*(   1) C   7                    0.77    0.52    0.048
 727. BD*(   2) N   8 - C  13        /264. RY*(   2) N   8                    0.63    0.77    0.041
 727. BD*(   2) N   8 - C  13        /395. RY*(   3) C  13                    1.59    1.31    0.086
 727. BD*(   2) N   8 - C  13        /397. RY*(   5) C  13                    0.69    2.65    0.081
 727. BD*(   2) N   8 - C  13        /721. BD*(   2) C   6 - C   7           28.95    0.03    0.045
 727. BD*(   2) N   8 - C  13        /728. BD*(   1) C   9 - C  10            0.80    0.34    0.030
 727. BD*(   2) N   8 - C  13        /729. BD*(   1) C   9 - C  11            1.01    0.34    0.034
 727. BD*(   2) N   8 - C  13        /743. BD*(   1)Ni  14 - C  19            0.51    0.64    0.034
 727. BD*(   2) N   8 - C  13        /751. BD*(   2) C  19 - O  20            0.94    0.05    0.011
 745. BD*(   2) C  15 - O  16        /451. RY*(   3) C  15                    1.14    0.85    0.102
 745. BD*(   2) C  15 - O  16        /454. RY*(   6) C  15                    0.98    2.56    0.164
 745. BD*(   2) C  15 - O  16        /477. RY*(   3) O  16                    0.97    0.73    0.087
 745. BD*(   2) C  15 - O  16        /742. BD*(   1)Ni  14 - C  17            0.57    0.57    0.057
 746. BD*(   3) C  15 - O  16        /449. RY*(   1) C  15                    0.78    1.06    0.084
 746. BD*(   3) C  15 - O  16        /451. RY*(   3) C  15                    0.68    0.82    0.074
 746. BD*(   3) C  15 - O  16        /452. RY*(   4) C  15                    0.62    1.05    0.080
 746. BD*(   3) C  15 - O  16        /453. RY*(   5) C  15                    1.05    2.51    0.161
 746. BD*(   3) C  15 - O  16        /476. RY*(   2) O  16                    1.08    0.76    0.089
 746. BD*(   3) C  15 - O  16        /740. BD*(   1) C  13 -Ni  14            1.25    0.43    0.070
 746. BD*(   3) C  15 - O  16        /744. BD*(   1) C  15 - O  16            4.45    0.59    0.150
 748. BD*(   2) C  17 - O  18        /503. RY*(   3) C  17                    1.13    0.85    0.102
 748. BD*(   2) C  17 - O  18        /506. RY*(   6) C  17                    0.99    2.56    0.165
 748. BD*(   2) C  17 - O  18        /529. RY*(   3) O  18                    0.96    0.73    0.087
 748. BD*(   2) C  17 - O  18        /741. BD*(   1)Ni  14 - C  15            0.57    0.57    0.057
 749. BD*(   3) C  17 - O  18        /501. RY*(   1) C  17                    0.77    1.06    0.084
 749. BD*(   3) C  17 - O  18        /503. RY*(   3) C  17                    0.69    0.82    0.074
 749. BD*(   3) C  17 - O  18        /504. RY*(   4) C  17                    0.62    1.05    0.080
 749. BD*(   3) C  17 - O  18        /505. RY*(   5) C  17                    1.06    2.51    0.162
 749. BD*(   3) C  17 - O  18        /528. RY*(   2) O  18                    1.07    0.76    0.089
 749. BD*(   3) C  17 - O  18        /740. BD*(   1) C  13 -Ni  14            1.24    0.43    0.070
 749. BD*(   3) C  17 - O  18        /747. BD*(   1) C  17 - O  18            4.44    0.59    0.150
 751. BD*(   2) C  19 - O  20        /555. RY*(   3) C  19                    0.90    0.87    0.092
 751. BD*(   2) C  19 - O  20        /558. RY*(   6) C  19                    1.24    2.68    0.189
 751. BD*(   2) C  19 - O  20        /581. RY*(   3) O  20                    1.28    0.74    0.101
 751. BD*(   2) C  19 - O  20        /740. BD*(   1) C  13 -Ni  14            0.97    0.46    0.067
 752. BD*(   3) C  19 - O  20        /556. RY*(   4) C  19                    0.52    1.08    0.078
 752. BD*(   3) C  19 - O  20        /557. RY*(   5) C  19                    1.37    2.50    0.192
 752. BD*(   3) C  19 - O  20        /580. RY*(   2) O  20                    1.31    0.73    0.101


 Natural Bond Orbitals (Summary):

                                                            Principal Delocalizations
           NBO                        Occupancy    Energy   (geminal,vicinal,remote)
 ====================================================================================
 Molecular unit  1  (C14H20N2O3Ni)
     1. BD (   1) C   1 - C   2          1.97590    -0.61502  717(v),718(v),712(v),186(v)
     2. BD (   1) C   1 - H  21          1.98557    -0.49389  709(v),107(v)
     3. BD (   1) C   1 - H  22          1.97955    -0.50010  710(v),742(r),108(v),745(r)
     4. BD (   1) C   1 - H  23          1.98182    -0.49474  711(v),110(v)
     5. BD (   1) C   2 - C   3          1.97484    -0.61474  715(v),706(v),718(v),186(v)
                                                    81(v)
     6. BD (   1) C   2 - C   4          1.97882    -0.61827  719(v),707(v),714(v),187(v)
     7. BD (   1) C   2 - N   5          1.97994    -0.73681  393(v),708(v),713(v),726(v)
                                                    720(v),716(v),212(v),719(g)
     8. BD (   1) C   3 - H  24          1.98596    -0.49563  705(v),107(v)
     9. BD (   1) C   3 - H  25          1.98238    -0.49626  711(v),110(v)
    10. BD (   1) C   3 - H  26          1.98043    -0.50103  710(v),746(r),108(v)
    11. BD (   1) C   4 - H  27          1.98716    -0.50457  709(v),108(v)
    12. BD (   1) C   4 - H  28          1.98040    -0.49959  711(v),111(v)
    13. BD (   1) C   4 - H  29          1.98736    -0.50531  705(v),108(v)
    14. BD (   1) N   5 - C   6          1.98252    -0.80465  724(v),107(v),740(v),719(g)
                                                    705(v),725(r),396(v),726(v)
                                                    398(v),720(g),239(v),711(g)
                                                    709(v),393(v)
    15. BD (   1) N   5 - C  13          1.97932    -0.81219  725(v),722(v),263(v),710(v)
                                                    718(g),740(g),107(v),213(v)
                                                    711(g)
    16. BD (   1) C   6 - C   7          1.97840    -0.73809  725(v),711(v),263(v),185(v)
                                                    722(g),724(g)
    17. BD (   2) C   6 - C   7          1.87586    -0.28367  727(v),186(v),264(v)
    18. BD (   1) C   6 - H  30          1.97910    -0.55639  719(v),723(v),238(v),185(v)
                                                    716(r),720(g)
    19. BD (   1) C   7 - N   8          1.98251    -0.80463  722(v),289(v),740(v),726(g)
                                                    728(v),396(v),711(r),719(v)
                                                    398(v),720(g),213(v),725(g)
                                                    729(v),393(v)
    20. BD (   1) C   7 - H  31          1.97910    -0.55640  726(v),718(v),212(v),263(v)
                                                    739(r),720(g)
    21. BD (   1) N   8 - C   9          1.97991    -0.73684  393(v),734(v),732(v),719(v)
                                                    720(v),739(v),238(v),726(g)
    22. BD (   1) N   8 - C  13          1.97931    -0.81220  711(v),724(v),185(v),730(v)
                                                    723(g),740(g),289(v),239(v)
                                                    725(g)
    23. BD (   2) N   8 - C  13          1.87251    -0.33738  721(v),729(v),237(v),728(v)
                                                    186(v)
    24. BD (   1) C   9 - C  10          1.97589    -0.61501  738(v),723(v),735(v),727(v)
                                                    264(v)
    25. BD (   1) C   9 - C  11          1.97485    -0.61472  737(v),731(v),723(v),727(v)
                                                    264(v),315(v)
    26. BD (   1) C   9 - C  12          1.97882    -0.61827  726(v),733(v),736(v),265(v)
    27. BD (   1) C  10 - H  32          1.98557    -0.49389  729(v),289(v)
    28. BD (   1) C  10 - H  33          1.98182    -0.49475  725(v),292(v)
    29. BD (   1) C  10 - H  34          1.97955    -0.50010  730(v),741(r),290(v),748(r)
    30. BD (   1) C  11 - H  35          1.98238    -0.49626  725(v),292(v)
    31. BD (   1) C  11 - H  36          1.98595    -0.49561  728(v),289(v)
    32. BD (   1) C  11 - H  37          1.98041    -0.50101  730(v),749(r),290(v)
    33. BD (   1) C  12 - H  38          1.98716    -0.50456  729(v),290(v)
    34. BD (   1) C  12 - H  39          1.98735    -0.50530  728(v),290(v)
    35. BD (   1) C  12 - H  40          1.98039    -0.49959  725(v),293(v)
    36. BD (   1) C  13 -Ni  14          1.88010    -0.38928  723(v),718(v),434(g),428(g)
                                                    393(g),554(v),427(g),450(v)
                                                    502(v),426(g),402(g),740(g)
                                                    751(v),263(v),185(v),405(g)
                                                    394(g),424(g),746(v),749(v)
                                                    395(g),423(g),750(v),436(g)
                                                    747(v),744(v),743(g),742(g)
                                                    741(g),419(g),429(g),458(v)
                                                    510(v),579(r),475(r),527(r)
                                                    266(v),188(v)
    37. BD (   1)Ni  14 - C  15          1.93877    -0.56751  475(v),748(v),450(g),428(g)
                                                    434(g),502(v),554(v),427(g)
                                                    747(v),750(v),752(v),393(v)
                                                    426(g),741(g),394(v),424(g)
                                                    740(g),707(r),726(v),405(v)
                                                    714(r),743(g),395(v),476(v)
                                                    402(v),744(g),436(g)
    38. BD (   1)Ni  14 - C  17          1.93874    -0.56747  527(v),745(v),502(g),428(g)
                                                    434(g),450(v),554(v),427(g)
                                                    744(v),750(v),752(v),393(v)
                                                    426(g),742(g),394(v),424(g)
                                                    740(g),733(r),719(v),405(v)
                                                    736(r),743(g),395(v),528(v)
                                                    402(v),747(g),436(g)
    39. BD (   1)Ni  14 - C  19          1.93456    -0.57029  579(v),554(g),428(g),434(g)
                                                    450(v),502(v),427(g),747(v)
                                                    744(v),395(v),393(v),743(g)
                                                    426(g),394(v),727(v),405(v)
                                                    749(v),746(v),424(g),402(v)
                                                    741(g),742(g),740(g),750(g)
                                                    419(g),429(g),504(v),452(v)
    40. BD (   1) C  15 - O  16          1.99801    -1.19152  449(g),426(v),427(v),428(v)
                                                    434(v)
    41. BD (   2) C  15 - O  16          1.99756    -0.45079  419(v)
    42. BD (   3) C  15 - O  16          1.99714    -0.48777  420(v)
    43. BD (   1) C  17 - O  18          1.99801    -1.19167  501(g),426(v),427(v),428(v)
                                                    434(v)
    44. BD (   2) C  17 - O  18          1.99756    -0.45073  419(v)
    45. BD (   3) C  17 - O  18          1.99714    -0.48767  420(v)
    46. BD (   1) C  19 - O  20          1.99848    -1.23217  553(g)
    47. BD (   2) C  19 - O  20          1.99781    -0.45141  419(v)
    48. BD (   3) C  19 - O  20          1.99742    -0.45135  420(v)
    49. CR (   1) C   1                  1.99937   -10.06385  108(v),610(v)
    50. CR (   1) C   2                  1.99936   -10.14768  719(v),711(g),162(v),718(v)
    51. CR (   1) C   3                  1.99938   -10.06650  108(v),630(v)
    52. CR (   1) C   4                  1.99941   -10.07255  107(v)
    53. CR (   1) N   5                  1.99938   -14.25897  109(v),213(v),396(v),393(v)
    54. CR (   1) C   6                  1.99904   -10.10672  711(v),720(g),724(v),719(v)
                                                    238(v),239(v),187(v),650(v)
    55. CR (   1) C   7                  1.99904   -10.10672  725(v),720(g),722(v),726(v)
                                                    212(v),213(v),265(v),655(v)
    56. CR (   1) N   8                  1.99938   -14.25896  291(v),239(v),396(v),393(v)
    57. CR (   1) C   9                  1.99936   -10.14767  726(v),725(g),370(v),723(v)
    58. CR (   1) C  10                  1.99937   -10.06386  290(v),670(v)
    59. CR (   1) C  11                  1.99938   -10.06648  290(v),685(v)
    60. CR (   1) C  12                  1.99941   -10.07254  289(v)
    61. CR (   1) C  13                  1.99908   -10.15213  711(v),725(v),718(v),723(v)
                                                    740(g)
    62. CR (   1)Ni  14                  1.99089    -4.09647  747(v),744(v),750(v),719(v)
                                                    726(v),449(v),501(v),553(v)
                                                    554(v),450(v),502(v),393(v)
    63. CR (   2)Ni  14                  1.99753    -2.65916  747(v),744(v),752(v)
    64. CR (   3)Ni  14                  1.99839    -2.65701  751(v)
    65. CR (   4)Ni  14                  1.99750    -2.66272  750(v)
    66. CR (   1) C  15                  1.99908   -10.18120  741(g),478(v),744(g)
    67. CR (   1) O  16                  1.99977   -18.99279  449(v),450(v),741(v)
    68. CR (   1) C  17                  1.99908   -10.18120  742(g),530(v),747(g)
    69. CR (   1) O  18                  1.99977   -18.99278  501(v),502(v),742(v)
    70. CR (   1) C  19                  1.99910   -10.18386  743(g),582(v),750(g)
    71. CR (   1) O  20                  1.99976   -18.99369  553(v),554(v),743(v)
    72. LP (   1) N   5                  1.53293    -0.26131  727(v),721(v),709(v),705(v)
                                                    211(v),397(v)
    73. LP (   1)Ni  14                  1.89872    -0.26788  746(v),749(v),504(v),501(v)
                                                    452(v),449(v),719(v),726(v)
                                                    748(v),745(v),556(v),396(v)
                                                    502(v),450(v)
    74. LP (   2)Ni  14                  1.88321    -0.26510  751(v),727(v),450(v),502(v)
                                                    449(v),501(v),433(g),428(g)
                                                    426(g),434(g),555(v),424(g)
                                                    395(v),741(g),742(g),419(g)
                                                    427(g),436(g),440(g),503(v)
                                                    451(v),452(v),504(v),405(v)
                                                    563(v),745(v),748(v)
    75. LP (   3)Ni  14                  1.81292    -0.25575  752(v),745(v),748(v),749(v)
                                                    746(v),502(v),742(g),450(v)
                                                    741(g),556(v),441(g),501(v)
                                                    430(g),449(v),422(g),707(r)
                                                    733(r)
    76. LP (   4)Ni  14                  1.81222    -0.25411  748(v),745(v),395(v),554(v)
                                                    743(g),394(v),740(g),553(v)
                                                    503(v),451(v),440(g),433(g)
                                                    439(g)
    77. LP (   5)Ni  14                  1.75961    -0.23349  746(v),749(v),751(v),740(g)
                                                    554(v),743(g),553(v),394(v)
                                                    439(g),432(g),741(g),742(g)
    78. LP (   1) O  16                  1.97800    -0.75061  449(v),741(v),450(v),475(g)
                                                    479(g),458(v)
    79. LP (   1) O  18                  1.97799    -0.75059  501(v),742(v),502(v),527(g)
                                                    531(g),510(v)
    80. LP (   1) O  20                  1.97856    -0.75914  553(v),743(v),554(v),579(g)
                                                    583(g)
    81. RY*(   1) C   1                  0.00179     0.94598   
    82. RY*(   2) C   1                  0.00129     1.08387   
    83. RY*(   3) C   1                  0.00049     1.40225   
    84. RY*(   4) C   1                  0.00042     1.15258   
    85. RY*(   5) C   1                  0.00030     1.64524   
    86. RY*(   6) C   1                  0.00025     1.47481   
    87. RY*(   7) C   1                  0.00015     1.56828   
    88. RY*(   8) C   1                  0.00012     1.77062   
    89. RY*(   9) C   1                  0.00009     1.84801   
    90. RY*(  10) C   1                  0.00007     2.27674   
    91. RY*(  11) C   1                  0.00004     2.53525   
    92. RY*(  12) C   1                  0.00002     1.82800   
    93. RY*(  13) C   1                  0.00002     2.21521   
    94. RY*(  14) C   1                  0.00002     2.88647   
    95. RY*(  15) C   1                  0.00001     3.27815   
    96. RY*(  16) C   1                  0.00000    21.13578   
    97. RY*(  17) C   1                  0.00000     3.13652   
    98. RY*(  18) C   1                  0.00000     3.06158   
    99. RY*(  19) C   1                  0.00000     3.31131   
   100. RY*(  20) C   1                  0.00001     3.18798   
   101. RY*(  21) C   1                  0.00000     3.47255   
   102. RY*(  22) C   1                  0.00000     3.48100   
   103. RY*(  23) C   1                  0.00000     3.29638   
   104. RY*(  24) C   1                  0.00000     3.30441   
   105. RY*(  25) C   1                  0.00000     3.58138   
   106. RY*(  26) C   1                  0.00001     3.18980   
   107. RY*(   1) C   2                  0.00425     1.40412   
   108. RY*(   2) C   2                  0.00254     1.56700   
   109. RY*(   3) C   2                  0.00171     1.42274   
   110. RY*(   4) C   2                  0.00130     2.74048   
   111. RY*(   5) C   2                  0.00120     2.89041   
   112. RY*(   6) C   2                  0.00066     2.75671   
   113. RY*(   7) C   2                  0.00055     2.10643   
   114. RY*(   8) C   2                  0.00050     2.07894   
   115. RY*(   9) C   2                  0.00034     1.96575   
   116. RY*(  10) C   2                  0.00025     2.77934   
   117. RY*(  11) C   2                  0.00021     1.93035   
   118. RY*(  12) C   2                  0.00014     2.20836   
   119. RY*(  13) C   2                  0.00012     2.07594   
   120. RY*(  14) C   2                  0.00008     2.96022   
   121. RY*(  15) C   2                  0.00005     2.11532   
   122. RY*(  16) C   2                  0.00003     2.53295   
   123. RY*(  17) C   2                  0.00003     2.92042   
   124. RY*(  18) C   2                  0.00002     2.71216   
   125. RY*(  19) C   2                  0.00000    20.41522   
   126. RY*(  20) C   2                  0.00000     3.43814   
   127. RY*(  21) C   2                  0.00000     3.67845   
   128. RY*(  22) C   2                  0.00001     3.88476   
   129. RY*(  23) C   2                  0.00001     3.50259   
   130. RY*(  24) C   2                  0.00001     3.43097   
   131. RY*(  25) C   2                  0.00001     3.58055   
   132. RY*(  26) C   2                  0.00000     3.33546   
   133. RY*(   1) C   3                  0.00170     0.97533   
   134. RY*(   2) C   3                  0.00117     1.10965   
   135. RY*(   3) C   3                  0.00055     1.31087   
   136. RY*(   4) C   3                  0.00034     1.59504   
   137. RY*(   5) C   3                  0.00027     1.26033   
   138. RY*(   6) C   3                  0.00022     1.46855   
   139. RY*(   7) C   3                  0.00019     1.30393   
   140. RY*(   8) C   3                  0.00011     1.62124   
   141. RY*(   9) C   3                  0.00007     2.25865   
   142. RY*(  10) C   3                  0.00007     2.07926   
   143. RY*(  11) C   3                  0.00004     2.07401   
   144. RY*(  12) C   3                  0.00002     1.76339   
   145. RY*(  13) C   3                  0.00001     2.99895   
   146. RY*(  14) C   3                  0.00002     2.50858   
   147. RY*(  15) C   3                  0.00002     3.00598   
   148. RY*(  16) C   3                  0.00000    21.02010   
   149. RY*(  17) C   3                  0.00000     3.24148   
   150. RY*(  18) C   3                  0.00000     3.17647   
   151. RY*(  19) C   3                  0.00001     3.16477   
   152. RY*(  20) C   3                  0.00000     3.19099   
   153. RY*(  21) C   3                  0.00000     3.50324   
   154. RY*(  22) C   3                  0.00001     3.43850   
   155. RY*(  23) C   3                  0.00000     3.44150   
   156. RY*(  24) C   3                  0.00000     3.38308   
   157. RY*(  25) C   3                  0.00000     3.53470   
   158. RY*(  26) C   3                  0.00000     3.41513   
   159. RY*(   1) C   4                  0.00162     0.98956   
   160. RY*(   2) C   4                  0.00102     1.16150   
   161. RY*(   3) C   4                  0.00033     1.64144   
   162. RY*(   4) C   4                  0.00026     1.02371   
   163. RY*(   5) C   4                  0.00020     1.52988   
   164. RY*(   6) C   4                  0.00017     2.32712   
   165. RY*(   7) C   4                  0.00014     1.59859   
   166. RY*(   8) C   4                  0.00006     1.98276   
   167. RY*(   9) C   4                  0.00005     1.69177   
   168. RY*(  10) C   4                  0.00004     2.19607   
   169. RY*(  11) C   4                  0.00001     3.22875   
   170. RY*(  12) C   4                  0.00001     2.46006   
   171. RY*(  13) C   4                  0.00000     3.14502   
   172. RY*(  14) C   4                  0.00001     1.20045   
   173. RY*(  15) C   4                  0.00000     1.78198   
   174. RY*(  16) C   4                  0.00000     3.15838   
   175. RY*(  17) C   4                  0.00001     2.71418   
   176. RY*(  18) C   4                  0.00000    20.88573   
   177. RY*(  19) C   4                  0.00001     3.24717   
   178. RY*(  20) C   4                  0.00001     3.30790   
   179. RY*(  21) C   4                  0.00000     3.33125   
   180. RY*(  22) C   4                  0.00000     3.73969   
   181. RY*(  23) C   4                  0.00000     3.29773   
   182. RY*(  24) C   4                  0.00000     3.26413   
   183. RY*(  25) C   4                  0.00001     3.24781   
   184. RY*(  26) C   4                  0.00001     3.63030   
   185. RY*(   1) N   5                  0.00631     1.61455   
   186. RY*(   2) N   5                  0.00495     0.76267   
   187. RY*(   3) N   5                  0.00272     1.24990   
   188. RY*(   4) N   5                  0.00190     1.86771   
   189. RY*(   5) N   5                  0.00076     2.06704   
   190. RY*(   6) N   5                  0.00071     1.95306   
   191. RY*(   7) N   5                  0.00058     1.66514   
   192. RY*(   8) N   5                  0.00033     2.25689   
   193. RY*(   9) N   5                  0.00014     2.12492   
   194. RY*(  10) N   5                  0.00011     4.47249   
   195. RY*(  11) N   5                  0.00010     4.43140   
   196. RY*(  12) N   5                  0.00007     3.92902   
   197. RY*(  13) N   5                  0.00006     4.16020   
   198. RY*(  14) N   5                  0.00003     5.37998   
   199. RY*(  15) N   5                  0.00003     3.80013   
   200. RY*(  16) N   5                  0.00001     3.83706   
   201. RY*(  17) N   5                  0.00002     4.82474   
   202. RY*(  18) N   5                  0.00001     3.34751   
   203. RY*(  19) N   5                  0.00000     4.73673   
   204. RY*(  20) N   5                  0.00000     4.50171   
   205. RY*(  21) N   5                  0.00001     4.60862   
   206. RY*(  22) N   5                  0.00001     4.58308   
   207. RY*(  23) N   5                  0.00000     4.56599   
   208. RY*(  24) N   5                  0.00000     4.53979   
   209. RY*(  25) N   5                  0.00001     5.16075   
   210. RY*(  26) N   5                  0.00000    28.50869   
   211. RY*(   1) C   6                  0.00362     0.53934   
   212. RY*(   2) C   6                  0.00309     1.56935   
   213. RY*(   3) C   6                  0.00158     1.29255   
   214. RY*(   4) C   6                  0.00085     1.45962   
   215. RY*(   5) C   6                  0.00073     1.89795   
   216. RY*(   6) C   6                  0.00042     1.50443   
   217. RY*(   7) C   6                  0.00029     2.25478   
   218. RY*(   8) C   6                  0.00023     1.46500   
   219. RY*(   9) C   6                  0.00016     2.19021   
   220. RY*(  10) C   6                  0.00010     1.24669   
   221. RY*(  11) C   6                  0.00007     2.28710   
   222. RY*(  12) C   6                  0.00007     3.44186   
   223. RY*(  13) C   6                  0.00005     3.07401   
   224. RY*(  14) C   6                  0.00002     1.70287   
   225. RY*(  15) C   6                  0.00001     2.21280   
   226. RY*(  16) C   6                  0.00002     2.61289   
   227. RY*(  17) C   6                  0.00000    20.81160   
   228. RY*(  18) C   6                  0.00000     3.17085   
   229. RY*(  19) C   6                  0.00001     3.52204   
   230. RY*(  20) C   6                  0.00000     3.44857   
   231. RY*(  21) C   6                  0.00000     3.85509   
   232. RY*(  22) C   6                  0.00001     3.70916   
   233. RY*(  23) C   6                  0.00000     3.52104   
   234. RY*(  24) C   6                  0.00000     3.32865   
   235. RY*(  25) C   6                  0.00000     4.19108   
   236. RY*(  26) C   6                  0.00001     3.97951   
   237. RY*(   1) C   7                  0.00362     0.53927   
   238. RY*(   2) C   7                  0.00309     1.56946   
   239. RY*(   3) C   7                  0.00158     1.29245   
   240. RY*(   4) C   7                  0.00085     1.45964   
   241. RY*(   5) C   7                  0.00073     1.89791   
   242. RY*(   6) C   7                  0.00042     1.50451   
   243. RY*(   7) C   7                  0.00029     2.25489   
   244. RY*(   8) C   7                  0.00023     1.46509   
   245. RY*(   9) C   7                  0.00016     2.19022   
   246. RY*(  10) C   7                  0.00010     1.24775   
   247. RY*(  11) C   7                  0.00007     2.28600   
   248. RY*(  12) C   7                  0.00007     3.44151   
   249. RY*(  13) C   7                  0.00005     3.07444   
   250. RY*(  14) C   7                  0.00002     1.70311   
   251. RY*(  15) C   7                  0.00001     2.21200   
   252. RY*(  16) C   7                  0.00002     2.61378   
   253. RY*(  17) C   7                  0.00000    20.81199   
   254. RY*(  18) C   7                  0.00000     3.17080   
   255. RY*(  19) C   7                  0.00001     3.52183   
   256. RY*(  20) C   7                  0.00000     3.44860   
   257. RY*(  21) C   7                  0.00000     3.85514   
   258. RY*(  22) C   7                  0.00001     3.70930   
   259. RY*(  23) C   7                  0.00000     3.52068   
   260. RY*(  24) C   7                  0.00000     3.32879   
   261. RY*(  25) C   7                  0.00000     4.19056   
   262. RY*(  26) C   7                  0.00001     3.97954   
   263. RY*(   1) N   8                  0.00631     1.61475   
   264. RY*(   2) N   8                  0.00496     0.76242   
   265. RY*(   3) N   8                  0.00272     1.24989   
   266. RY*(   4) N   8                  0.00190     1.86739   
   267. RY*(   5) N   8                  0.00080     2.07146   
   268. RY*(   6) N   8                  0.00071     1.95381   
   269. RY*(   7) N   8                  0.00058     1.66736   
   270. RY*(   8) N   8                  0.00033     2.25673   
   271. RY*(   9) N   8                  0.00014     2.12480   
   272. RY*(  10) N   8                  0.00011     4.47286   
   273. RY*(  11) N   8                  0.00010     4.43143   
   274. RY*(  12) N   8                  0.00007     3.91940   
   275. RY*(  13) N   8                  0.00006     4.16457   
   276. RY*(  14) N   8                  0.00003     3.74434   
   277. RY*(  15) N   8                  0.00003     5.43524   
   278. RY*(  16) N   8                  0.00001     3.80854   
   279. RY*(  17) N   8                  0.00001     4.95098   
   280. RY*(  18) N   8                  0.00001     3.26954   
   281. RY*(  19) N   8                  0.00000     4.74456   
   282. RY*(  20) N   8                  0.00000     4.50512   
   283. RY*(  21) N   8                  0.00001     4.61021   
   284. RY*(  22) N   8                  0.00001     4.58920   
   285. RY*(  23) N   8                  0.00000     4.58362   
   286. RY*(  24) N   8                  0.00000     4.59596   
   287. RY*(  25) N   8                  0.00001     5.15922   
   288. RY*(  26) N   8                  0.00000    28.39676   
   289. RY*(   1) C   9                  0.00425     1.40419   
   290. RY*(   2) C   9                  0.00254     1.56711   
   291. RY*(   3) C   9                  0.00171     1.42234   
   292. RY*(   4) C   9                  0.00130     2.74089   
   293. RY*(   5) C   9                  0.00120     2.89072   
   294. RY*(   6) C   9                  0.00066     2.75604   
   295. RY*(   7) C   9                  0.00055     2.10704   
   296. RY*(   8) C   9                  0.00050     2.07889   
   297. RY*(   9) C   9                  0.00034     1.96643   
   298. RY*(  10) C   9                  0.00025     2.77877   
   299. RY*(  11) C   9                  0.00021     1.92933   
   300. RY*(  12) C   9                  0.00014     2.20904   
   301. RY*(  13) C   9                  0.00012     2.07601   
   302. RY*(  14) C   9                  0.00008     2.95978   
   303. RY*(  15) C   9                  0.00005     2.11411   
   304. RY*(  16) C   9                  0.00003     2.53173   
   305. RY*(  17) C   9                  0.00003     2.92227   
   306. RY*(  18) C   9                  0.00002     2.71387   
   307. RY*(  19) C   9                  0.00000    20.41525   
   308. RY*(  20) C   9                  0.00000     3.43816   
   309. RY*(  21) C   9                  0.00000     3.67896   
   310. RY*(  22) C   9                  0.00001     3.88478   
   311. RY*(  23) C   9                  0.00001     3.50172   
   312. RY*(  24) C   9                  0.00001     3.43182   
   313. RY*(  25) C   9                  0.00001     3.58513   
   314. RY*(  26) C   9                  0.00000     3.33014   
   315. RY*(   1) C  10                  0.00179     0.94603   
   316. RY*(   2) C  10                  0.00129     1.08380   
   317. RY*(   3) C  10                  0.00049     1.40119   
   318. RY*(   4) C  10                  0.00042     1.15336   
   319. RY*(   5) C  10                  0.00030     1.64525   
   320. RY*(   6) C  10                  0.00025     1.47441   
   321. RY*(   7) C  10                  0.00015     1.56803   
   322. RY*(   8) C  10                  0.00012     1.77000   
   323. RY*(   9) C  10                  0.00009     1.84765   
   324. RY*(  10) C  10                  0.00007     2.27768   
   325. RY*(  11) C  10                  0.00004     2.53667   
   326. RY*(  12) C  10                  0.00002     1.82291   
   327. RY*(  13) C  10                  0.00002     2.21652   
   328. RY*(  14) C  10                  0.00002     2.88586   
   329. RY*(  15) C  10                  0.00001     3.27803   
   330. RY*(  16) C  10                  0.00000    21.13569   
   331. RY*(  17) C  10                  0.00000     3.13887   
   332. RY*(  18) C  10                  0.00000     3.06237   
   333. RY*(  19) C  10                  0.00000     3.31145   
   334. RY*(  20) C  10                  0.00001     3.18785   
   335. RY*(  21) C  10                  0.00000     3.47196   
   336. RY*(  22) C  10                  0.00000     3.48011   
   337. RY*(  23) C  10                  0.00000     3.29653   
   338. RY*(  24) C  10                  0.00000     3.30375   
   339. RY*(  25) C  10                  0.00000     3.58267   
   340. RY*(  26) C  10                  0.00001     3.19010   
   341. RY*(   1) C  11                  0.00170     0.97523   
   342. RY*(   2) C  11                  0.00117     1.10961   
   343. RY*(   3) C  11                  0.00055     1.31062   
   344. RY*(   4) C  11                  0.00034     1.59532   
   345. RY*(   5) C  11                  0.00027     1.25959   
   346. RY*(   6) C  11                  0.00022     1.46848   
   347. RY*(   7) C  11                  0.00019     1.30495   
   348. RY*(   8) C  11                  0.00011     1.62101   
   349. RY*(   9) C  11                  0.00007     2.25619   
   350. RY*(  10) C  11                  0.00007     2.08173   
   351. RY*(  11) C  11                  0.00004     2.07126   
   352. RY*(  12) C  11                  0.00002     1.75375   
   353. RY*(  13) C  11                  0.00001     3.02783   
   354. RY*(  14) C  11                  0.00002     2.51068   
   355. RY*(  15) C  11                  0.00002     3.00710   
   356. RY*(  16) C  11                  0.00000    21.02707   
   357. RY*(  17) C  11                  0.00000     3.24516   
   358. RY*(  18) C  11                  0.00000     3.17710   
   359. RY*(  19) C  11                  0.00001     3.16706   
   360. RY*(  20) C  11                  0.00000     3.19062   
   361. RY*(  21) C  11                  0.00000     3.47109   
   362. RY*(  22) C  11                  0.00001     3.44079   
   363. RY*(  23) C  11                  0.00000     3.43982   
   364. RY*(  24) C  11                  0.00000     3.38138   
   365. RY*(  25) C  11                  0.00000     3.53708   
   366. RY*(  26) C  11                  0.00000     3.41443   
   367. RY*(   1) C  12                  0.00162     0.98956   
   368. RY*(   2) C  12                  0.00102     1.16149   
   369. RY*(   3) C  12                  0.00033     1.64126   
   370. RY*(   4) C  12                  0.00026     1.02380   
   371. RY*(   5) C  12                  0.00020     1.53005   
   372. RY*(   6) C  12                  0.00017     2.32865   
   373. RY*(   7) C  12                  0.00014     1.59720   
   374. RY*(   8) C  12                  0.00006     1.98353   
   375. RY*(   9) C  12                  0.00004     2.38049   
   376. RY*(  10) C  12                  0.00005     1.50631   
   377. RY*(  11) C  12                  0.00002     2.26417   
   378. RY*(  12) C  12                  0.00002     3.20306   
   379. RY*(  13) C  12                  0.00000     3.14425   
   380. RY*(  14) C  12                  0.00000     1.78295   
   381. RY*(  15) C  12                  0.00001     1.28577   
   382. RY*(  16) C  12                  0.00000    20.87593   
   383. RY*(  17) C  12                  0.00000     3.27490   
   384. RY*(  18) C  12                  0.00000     2.67280   
   385. RY*(  19) C  12                  0.00001     3.30155   
   386. RY*(  20) C  12                  0.00001     3.29358   
   387. RY*(  21) C  12                  0.00000     3.43876   
   388. RY*(  22) C  12                  0.00000     3.52296   
   389. RY*(  23) C  12                  0.00000     3.30331   
   390. RY*(  24) C  12                  0.00000     3.26724   
   391. RY*(  25) C  12                  0.00001     3.44537   
   392. RY*(  26) C  12                  0.00000     3.56450   
   393. RY*(   1) C  13                  0.00629     2.09672   
   394. RY*(   2) C  13                  0.00484     2.25943   
   395. RY*(   3) C  13                  0.00336     1.30148   
   396. RY*(   4) C  13                  0.00277     1.26488   
   397. RY*(   5) C  13                  0.00127     2.64339   
   398. RY*(   6) C  13                  0.00094     2.60589   
   399. RY*(   7) C  13                  0.00076     2.73332   
   400. RY*(   8) C  13                  0.00039     1.66952   
   401. RY*(   9) C  13                  0.00037     1.82053   
   402. RY*(  10) C  13                  0.00027     2.71723   
   403. RY*(  11) C  13                  0.00025     2.81042   
   404. RY*(  12) C  13                  0.00014     2.09472   
   405. RY*(  13) C  13                  0.00011     3.83643   
   406. RY*(  14) C  13                  0.00008     3.10511   
   407. RY*(  15) C  13                  0.00008     3.62687   
   408. RY*(  16) C  13                  0.00005     1.77439   
   409. RY*(  17) C  13                  0.00006     2.26042   
   410. RY*(  18) C  13                  0.00002     3.99276   
   411. RY*(  19) C  13                  0.00000    21.77639   
   412. RY*(  20) C  13                  0.00000     3.47600   
   413. RY*(  21) C  13                  0.00001     3.89076   
   414. RY*(  22) C  13                  0.00001     3.43580   
   415. RY*(  23) C  13                  0.00001     3.26815   
   416. RY*(  24) C  13                  0.00000     3.68724   
   417. RY*(  25) C  13                  0.00001     4.18104   
   418. RY*(  26) C  13                  0.00001     4.13044   
   419. RY*(   1)Ni  14                  0.00331     1.17354   
   420. RY*(   2)Ni  14                  0.00287     0.85749   
   421. RY*(   3)Ni  14                  0.00105     0.60728   
   422. RY*(   4)Ni  14                  0.00101     0.90235   
   423. RY*(   5)Ni  14                  0.00091     1.08257   
   424. RY*(   6)Ni  14                  0.00061     1.57505   
   425. RY*(   7)Ni  14                  0.00052     0.45139   
   426. RY*(   8)Ni  14                  0.00046     5.93597   
   427. RY*(   9)Ni  14                  0.00035     7.53293   
   428. RY*(  10)Ni  14                  0.00024    10.47694   
   429. RY*(  11)Ni  14                  0.00016     1.21656   
   430. RY*(  12)Ni  14                  0.00010     4.09499   
   431. RY*(  13)Ni  14                  0.00010     1.70970   
   432. RY*(  14)Ni  14                  0.00008     2.99635   
   433. RY*(  15)Ni  14                  0.00005     4.10651   
   434. RY*(  16)Ni  14                  0.00002    30.61943   
   435. RY*(  17)Ni  14                  0.00002     1.88782   
   436. RY*(  18)Ni  14                  0.00003     3.13891   
   437. RY*(  19)Ni  14                  0.00002     1.94410   
   438. RY*(  20)Ni  14                  0.00002     2.07030   
   439. RY*(  21)Ni  14                  0.00000    56.08528   
   440. RY*(  22)Ni  14                  0.00000    56.30604   
   441. RY*(  23)Ni  14                  0.00000    56.42794   
   442. RY*(  24)Ni  14                  0.00000     6.32156   
   443. RY*(  25)Ni  14                  0.00000     6.16219   
   444. RY*(  26)Ni  14                  0.00000     6.10329   
   445. RY*(  27)Ni  14                  0.00000     6.06853   
   446. RY*(  28)Ni  14                  0.00000     6.10884   
   447. RY*(  29)Ni  14                  0.00000     6.18054   
   448. RY*(  30)Ni  14                  0.00000     6.45040   
   449. RY*(   1) C  15                  0.02417     1.13257   
   450. RY*(   2) C  15                  0.00547     4.48356   
   451. RY*(   3) C  15                  0.00237     0.89364   
   452. RY*(   4) C  15                  0.00146     1.12650   
   453. RY*(   5) C  15                  0.00127     2.58506   
   454. RY*(   6) C  15                  0.00123     2.60097   
   455. RY*(   7) C  15                  0.00028     1.41847   
   456. RY*(   8) C  15                  0.00013     2.03820   
   457. RY*(   9) C  15                  0.00009     2.02040   
   458. RY*(  10) C  15                  0.00007     2.48798   
   459. RY*(  11) C  15                  0.00007     1.99682   
   460. RY*(  12) C  15                  0.00005     1.95291   
   461. RY*(  13) C  15                  0.00004     2.37773   
   462. RY*(  14) C  15                  0.00001     3.00616   
   463. RY*(  15) C  15                  0.00001     2.88777   
   464. RY*(  16) C  15                  0.00001     3.73678   
   465. RY*(  17) C  15                  0.00001     2.69708   
   466. RY*(  18) C  15                  0.00000    18.88645   
   467. RY*(  19) C  15                  0.00001     2.89443   
   468. RY*(  20) C  15                  0.00000     3.14324   
   469. RY*(  21) C  15                  0.00000     3.18046   
   470. RY*(  22) C  15                  0.00000     3.12588   
   471. RY*(  23) C  15                  0.00000     3.18187   
   472. RY*(  24) C  15                  0.00000     3.25771   
   473. RY*(  25) C  15                  0.00000     3.36792   
   474. RY*(  26) C  15                  0.00000     3.42232   
   475. RY*(   1) O  16                  0.00298     1.59340   
   476. RY*(   2) O  16                  0.00244     0.83462   
   477. RY*(   3) O  16                  0.00189     0.77094   
   478. RY*(   4) O  16                  0.00022     0.97113   
   479. RY*(   5) O  16                  0.00009     3.59128   
   480. RY*(   6) O  16                  0.00005     2.54544   
   481. RY*(   7) O  16                  0.00003     2.04997   
   482. RY*(   8) O  16                  0.00002     2.39004   
   483. RY*(   9) O  16                  0.00000     2.76527   
   484. RY*(  10) O  16                  0.00001     1.96438   
   485. RY*(  11) O  16                  0.00001     2.22495   
   486. RY*(  12) O  16                  0.00000    42.11875   
   487. RY*(  13) O  16                  0.00000     6.11313   
   488. RY*(  14) O  16                  0.00000     6.35395   
   489. RY*(  15) O  16                  0.00000     6.26244   
   490. RY*(  16) O  16                  0.00001     2.54414   
   491. RY*(  17) O  16                  0.00000     6.22495   
   492. RY*(  18) O  16                  0.00001     2.99085   
   493. RY*(  19) O  16                  0.00000     6.16814   
   494. RY*(  20) O  16                  0.00000     5.28046   
   495. RY*(  21) O  16                  0.00000     5.38425   
   496. RY*(  22) O  16                  0.00000     5.35385   
   497. RY*(  23) O  16                  0.00000     5.36587   
   498. RY*(  24) O  16                  0.00000     5.35681   
   499. RY*(  25) O  16                  0.00000     5.55159   
   500. RY*(  26) O  16                  0.00000     5.46898   
   501. RY*(   1) C  17                  0.02418     1.13304   
   502. RY*(   2) C  17                  0.00547     4.48402   
   503. RY*(   3) C  17                  0.00237     0.89343   
   504. RY*(   4) C  17                  0.00146     1.12761   
   505. RY*(   5) C  17                  0.00127     2.58519   
   506. RY*(   6) C  17                  0.00123     2.59937   
   507. RY*(   7) C  17                  0.00028     1.41823   
   508. RY*(   8) C  17                  0.00013     2.03645   
   509. RY*(   9) C  17                  0.00009     2.02599   
   510. RY*(  10) C  17                  0.00007     2.48670   
   511. RY*(  11) C  17                  0.00007     1.98871   
   512. RY*(  12) C  17                  0.00005     2.55546   
   513. RY*(  13) C  17                  0.00004     1.78473   
   514. RY*(  14) C  17                  0.00001     2.81699   
   515. RY*(  15) C  17                  0.00001     2.90735   
   516. RY*(  16) C  17                  0.00001     3.10500   
   517. RY*(  17) C  17                  0.00001     2.69072   
   518. RY*(  18) C  17                  0.00000    19.48759   
   519. RY*(  19) C  17                  0.00001     2.87863   
   520. RY*(  20) C  17                  0.00000     3.12691   
   521. RY*(  21) C  17                  0.00000     3.21403   
   522. RY*(  22) C  17                  0.00000     3.12562   
   523. RY*(  23) C  17                  0.00000     3.17877   
   524. RY*(  24) C  17                  0.00000     3.28027   
   525. RY*(  25) C  17                  0.00000     3.44876   
   526. RY*(  26) C  17                  0.00000     3.52496   
   527. RY*(   1) O  18                  0.00298     1.59361   
   528. RY*(   2) O  18                  0.00245     0.83495   
   529. RY*(   3) O  18                  0.00189     0.77092   
   530. RY*(   4) O  18                  0.00022     0.97064   
   531. RY*(   5) O  18                  0.00009     3.59801   
   532. RY*(   6) O  18                  0.00005     2.53861   
   533. RY*(   7) O  18                  0.00003     2.04972   
   534. RY*(   8) O  18                  0.00002     2.38870   
   535. RY*(   9) O  18                  0.00000     2.76458   
   536. RY*(  10) O  18                  0.00001     1.97849   
   537. RY*(  11) O  18                  0.00001     2.24913   
   538. RY*(  12) O  18                  0.00000    42.11883   
   539. RY*(  13) O  18                  0.00000     6.11278   
   540. RY*(  14) O  18                  0.00000     6.35500   
   541. RY*(  15) O  18                  0.00000     6.22719   
   542. RY*(  16) O  18                  0.00001     2.54423   
   543. RY*(  17) O  18                  0.00000     6.22510   
   544. RY*(  18) O  18                  0.00001     2.98992   
   545. RY*(  19) O  18                  0.00000     6.16773   
   546. RY*(  20) O  18                  0.00000     5.28010   
   547. RY*(  21) O  18                  0.00000     5.38410   
   548. RY*(  22) O  18                  0.00000     5.35282   
   549. RY*(  23) O  18                  0.00000     5.36470   
   550. RY*(  24) O  18                  0.00000     5.35738   
   551. RY*(  25) O  18                  0.00000     5.55333   
   552. RY*(  26) O  18                  0.00000     5.46922   
   553. RY*(   1) C  19                  0.02389     1.03097   
   554. RY*(   2) C  19                  0.00539     3.86127   
   555. RY*(   3) C  19                  0.00190     0.91610   
   556. RY*(   4) C  19                  0.00159     1.12480   
   557. RY*(   5) C  19                  0.00116     2.53864   
   558. RY*(   6) C  19                  0.00115     2.72155   
   559. RY*(   7) C  19                  0.00015     1.84809   
   560. RY*(   8) C  19                  0.00015     1.38938   
   561. RY*(   9) C  19                  0.00011     1.71750   
   562. RY*(  10) C  19                  0.00009     1.45865   
   563. RY*(  11) C  19                  0.00006     2.91559   
   564. RY*(  12) C  19                  0.00004     1.66639   
   565. RY*(  13) C  19                  0.00004     2.23717   
   566. RY*(  14) C  19                  0.00002     4.29783   
   567. RY*(  15) C  19                  0.00001     2.41459   
   568. RY*(  16) C  19                  0.00000     3.12178   
   569. RY*(  17) C  19                  0.00000     3.10117   
   570. RY*(  18) C  19                  0.00001     2.62993   
   571. RY*(  19) C  19                  0.00000    19.42371   
   572. RY*(  20) C  19                  0.00000     3.53200   
   573. RY*(  21) C  19                  0.00000     3.70716   
   574. RY*(  22) C  19                  0.00000     3.64426   
   575. RY*(  23) C  19                  0.00000     3.05639   
   576. RY*(  24) C  19                  0.00000     3.06551   
   577. RY*(  25) C  19                  0.00000     2.72060   
   578. RY*(  26) C  19                  0.00000     2.86068   
   579. RY*(   1) O  20                  0.00277     1.60652   
   580. RY*(   2) O  20                  0.00201     0.76653   
   581. RY*(   3) O  20                  0.00193     0.78421   
   582. RY*(   4) O  20                  0.00020     1.02580   
   583. RY*(   5) O  20                  0.00006     4.21267   
   584. RY*(   6) O  20                  0.00003     1.73261   
   585. RY*(   7) O  20                  0.00001     1.94031   
   586. RY*(   8) O  20                  0.00001     2.82191   
   587. RY*(   9) O  20                  0.00001     3.12863   
   588. RY*(  10) O  20                  0.00000     1.49365   
   589. RY*(  11) O  20                  0.00001     1.51240   
   590. RY*(  12) O  20                  0.00000    42.11961   
   591. RY*(  13) O  20                  0.00000     6.25047   
   592. RY*(  14) O  20                  0.00000     2.82574   
   593. RY*(  15) O  20                  0.00000     6.34646   
   594. RY*(  16) O  20                  0.00000     6.16769   
   595. RY*(  17) O  20                  0.00000     6.18665   
   596. RY*(  18) O  20                  0.00001     2.12732   
   597. RY*(  19) O  20                  0.00000     6.63177   
   598. RY*(  20) O  20                  0.00000     6.06712   
   599. RY*(  21) O  20                  0.00000     5.65043   
   600. RY*(  22) O  20                  0.00000     5.72408   
   601. RY*(  23) O  20                  0.00000     5.32210   
   602. RY*(  24) O  20                  0.00000     5.35309   
   603. RY*(  25) O  20                  0.00000     5.11570   
   604. RY*(  26) O  20                  0.00000     5.10024   
   605. RY*(   1) H  21                  0.00047     1.04725   
   606. RY*(   2) H  21                  0.00014     2.07163   
   607. RY*(   3) H  21                  0.00010     1.82812   
   608. RY*(   4) H  21                  0.00007     2.37910   
   609. RY*(   5) H  21                  0.00001     2.98767   
   610. RY*(   1) H  22                  0.00084     1.49711   
   611. RY*(   2) H  22                  0.00018     2.25712   
   612. RY*(   3) H  22                  0.00011     2.34777   
   613. RY*(   4) H  22                  0.00006     2.05864   
   614. RY*(   5) H  22                  0.00003     3.01936   
   615. RY*(   1) H  23                  0.00032     1.20058   
   616. RY*(   2) H  23                  0.00012     1.53756   
   617. RY*(   3) H  23                  0.00011     2.28381   
   618. RY*(   4) H  23                  0.00007     2.28443   
   619. RY*(   5) H  23                  0.00001     2.91008   
   620. RY*(   1) H  24                  0.00045     1.12430   
   621. RY*(   2) H  24                  0.00011     2.16047   
   622. RY*(   3) H  24                  0.00009     1.66714   
   623. RY*(   4) H  24                  0.00008     2.33799   
   624. RY*(   5) H  24                  0.00001     2.96020   
   625. RY*(   1) H  25                  0.00032     1.21190   
   626. RY*(   2) H  25                  0.00011     1.49879   
   627. RY*(   3) H  25                  0.00011     2.22809   
   628. RY*(   4) H  25                  0.00008     2.34033   
   629. RY*(   5) H  25                  0.00001     2.90655   
   630. RY*(   1) H  26                  0.00090     1.59010   
   631. RY*(   2) H  26                  0.00014     1.83651   
   632. RY*(   3) H  26                  0.00011     2.25467   
   633. RY*(   4) H  26                  0.00006     1.99813   
   634. RY*(   5) H  26                  0.00002     3.13242   
   635. RY*(   1) H  27                  0.00050     1.01199   
   636. RY*(   2) H  27                  0.00015     1.86084   
   637. RY*(   3) H  27                  0.00008     2.16193   
   638. RY*(   4) H  27                  0.00008     2.31558   
   639. RY*(   5) H  27                  0.00002     2.96711   
   640. RY*(   1) H  28                  0.00030     1.36013   
   641. RY*(   2) H  28                  0.00010     1.30741   
   642. RY*(   3) H  28                  0.00010     2.21120   
   643. RY*(   4) H  28                  0.00008     2.39332   
   644. RY*(   5) H  28                  0.00001     2.92775   
   645. RY*(   1) H  29                  0.00051     1.00710   
   646. RY*(   2) H  29                  0.00015     1.89761   
   647. RY*(   3) H  29                  0.00008     2.14145   
   648. RY*(   4) H  29                  0.00008     2.30043   
   649. RY*(   5) H  29                  0.00001     2.97574   
   650. RY*(   1) H  30                  0.00038     1.89133   
   651. RY*(   2) H  30                  0.00026     2.18276   
   652. RY*(   3) H  30                  0.00011     2.38483   
   653. RY*(   4) H  30                  0.00004     1.29343   
   654. RY*(   5) H  30                  0.00001     3.07018   
   655. RY*(   1) H  31                  0.00038     1.89133   
   656. RY*(   2) H  31                  0.00026     2.18276   
   657. RY*(   3) H  31                  0.00011     2.38493   
   658. RY*(   4) H  31                  0.00004     1.29334   
   659. RY*(   5) H  31                  0.00001     3.07014   
   660. RY*(   1) H  32                  0.00047     1.04747   
   661. RY*(   2) H  32                  0.00014     2.07211   
   662. RY*(   3) H  32                  0.00010     1.82723   
   663. RY*(   4) H  32                  0.00007     2.37895   
   664. RY*(   5) H  32                  0.00001     2.98773   
   665. RY*(   1) H  33                  0.00032     1.20096   
   666. RY*(   2) H  33                  0.00012     1.53711   
   667. RY*(   3) H  33                  0.00011     2.28328   
   668. RY*(   4) H  33                  0.00007     2.28480   
   669. RY*(   5) H  33                  0.00001     2.91007   
   670. RY*(   1) H  34                  0.00084     1.49756   
   671. RY*(   2) H  34                  0.00018     2.25734   
   672. RY*(   3) H  34                  0.00011     2.34712   
   673. RY*(   4) H  34                  0.00006     2.05931   
   674. RY*(   5) H  34                  0.00003     3.01843   
   675. RY*(   1) H  35                  0.00032     1.21203   
   676. RY*(   2) H  35                  0.00011     1.49858   
   677. RY*(   3) H  35                  0.00011     2.22812   
   678. RY*(   4) H  35                  0.00008     2.34034   
   679. RY*(   5) H  35                  0.00001     2.90661   
   680. RY*(   1) H  36                  0.00045     1.12411   
   681. RY*(   2) H  36                  0.00011     2.16049   
   682. RY*(   3) H  36                  0.00009     1.66716   
   683. RY*(   4) H  36                  0.00008     2.33820   
   684. RY*(   5) H  36                  0.00001     2.96030   
   685. RY*(   1) H  37                  0.00090     1.59025   
   686. RY*(   2) H  37                  0.00014     1.83743   
   687. RY*(   3) H  37                  0.00011     2.25507   
   688. RY*(   4) H  37                  0.00006     1.99754   
   689. RY*(   5) H  37                  0.00002     3.13262   
   690. RY*(   1) H  38                  0.00050     1.01193   
   691. RY*(   2) H  38                  0.00015     1.86102   
   692. RY*(   3) H  38                  0.00008     2.16105   
   693. RY*(   4) H  38                  0.00008     2.31646   
   694. RY*(   5) H  38                  0.00002     2.96713   
   695. RY*(   1) H  39                  0.00051     1.00715   
   696. RY*(   2) H  39                  0.00015     1.89747   
   697. RY*(   3) H  39                  0.00008     2.14135   
   698. RY*(   4) H  39                  0.00008     2.30064   
   699. RY*(   5) H  39                  0.00001     2.97575   
   700. RY*(   1) H  40                  0.00030     1.36044   
   701. RY*(   2) H  40                  0.00010     1.30708   
   702. RY*(   3) H  40                  0.00010     2.21121   
   703. RY*(   4) H  40                  0.00008     2.39342   
   704. RY*(   5) H  40                  0.00001     2.92773   
   705. BD*(   1) C   1 - C   2          0.02566     0.33164   
   706. BD*(   1) C   1 - H  21          0.00669     0.37385   
   707. BD*(   1) C   1 - H  22          0.01202     0.42389   
   708. BD*(   1) C   1 - H  23          0.00549     0.37573   
   709. BD*(   1) C   2 - C   3          0.02676     0.32855   
   710. BD*(   1) C   2 - C   4          0.01986     0.32528   
   711. BD*(   1) C   2 - N   5          0.06214     0.27946   
   712. BD*(   1) C   3 - H  24          0.00686     0.37314   
   713. BD*(   1) C   3 - H  25          0.00549     0.37325   
   714. BD*(   1) C   3 - H  26          0.01025     0.40460   
   715. BD*(   1) C   4 - H  27          0.00722     0.37449   
   716. BD*(   1) C   4 - H  28          0.00566     0.37958   
   717. BD*(   1) C   4 - H  29          0.00750     0.37465   
   718. BD*(   1) N   5 - C   6          0.03173     0.43155   
   719. BD*(   1) N   5 - C  13          0.02519     0.45857   
   720. BD*(   1) C   6 - C   7          0.00942     0.57947   
   721. BD*(   2) C   6 - C   7          0.27690     0.02176  727(v),237(g),211(g)
   722. BD*(   1) C   6 - H  30          0.01222     0.40071   
   723. BD*(   1) C   7 - N   8          0.03173     0.43156   
   724. BD*(   1) C   7 - H  31          0.01222     0.40070   
   725. BD*(   1) N   8 - C   9          0.06202     0.27955   
   726. BD*(   1) N   8 - C  13          0.02519     0.45860   
   727. BD*(   2) N   8 - C  13          0.44677    -0.01041  721(v),395(g),729(v),728(v)
                                                    751(r),397(g),264(g)
   728. BD*(   1) C   9 - C  10          0.02567     0.33162   
   729. BD*(   1) C   9 - C  11          0.02676     0.32856   
   730. BD*(   1) C   9 - C  12          0.01986     0.32530   
   731. BD*(   1) C  10 - H  32          0.00669     0.37384   
   732. BD*(   1) C  10 - H  33          0.00549     0.37573   
   733. BD*(   1) C  10 - H  34          0.01201     0.42387   
   734. BD*(   1) C  11 - H  35          0.00549     0.37327   
   735. BD*(   1) C  11 - H  36          0.00687     0.37314   
   736. BD*(   1) C  11 - H  37          0.01026     0.40465   
   737. BD*(   1) C  12 - H  38          0.00723     0.37449   
   738. BD*(   1) C  12 - H  39          0.00750     0.37464   
   739. BD*(   1) C  12 - H  40          0.00566     0.37959   
   740. BD*(   1) C  13 -Ni  14          0.01287     0.50368   
   741. BD*(   1)Ni  14 - C  15          0.01288     0.61196   
   742. BD*(   1)Ni  14 - C  17          0.01288     0.61208   
   743. BD*(   1)Ni  14 - C  19          0.01110     0.63346   
   744. BD*(   1) C  15 - O  16          0.02369     0.66544   
   745. BD*(   2) C  15 - O  16          0.14657     0.04232  748(r),451(g),751(r),454(g)
                                                    477(g),742(v)
   746. BD*(   3) C  15 - O  16          0.16163     0.07641  744(g),749(r),740(v),476(g)
                                                    453(g),449(g),451(g),452(g)
   747. BD*(   1) C  17 - O  18          0.02366     0.66557   
   748. BD*(   2) C  17 - O  18          0.14668     0.04229  745(r),503(g),751(r),506(g)
                                                    529(g),741(v)
   749. BD*(   3) C  17 - O  18          0.16157     0.07633  747(g),746(r),740(v),528(g)
                                                    505(g),503(g),501(g),504(g)
   750. BD*(   1) C  19 - O  20          0.01317     0.70471   
   751. BD*(   2) C  19 - O  20          0.14713     0.04119  581(g),558(g),748(r),745(r)
                                                    740(v),555(g)
   752. BD*(   3) C  19 - O  20          0.14676     0.04004  557(g),580(g),556(g)
       -------------------------------
              Total Lewis  167.40608  ( 98.4742%)
        Valence non-Lewis    2.29508  (  1.3500%)
        Rydberg non-Lewis    0.29884  (  0.1758%)
       -------------------------------
            Total unit  1  170.00000  (100.0000%)
           Charge unit  1    0.00000


 NATURAL LOCALIZED MOLECULAR ORBITAL (NLMO) ANALYSIS:
 NLMO:  NTime=     10000 OffTop= 2.24D-05 Done= 1.00D-06

 Maximum off-diagonal element of DM in NLMO basis: 9.99D-07 NIter=     12321

 Hybridization/Polarization Analysis of NLMOs in NAO Basis:
 NLMO/Occupancy/Percent from Parent NBO/ Atomic Hybrid Contributions
 -------------------------------------------------------------------------------
     1. (2.00000)  98.7920%  BD ( 1) C   1 C   2      
                           48.160%  C    1 s( 27.85%)p 2.58( 71.91%)d 0.01(  0.22%)
                                                  f 0.00(  0.02%)
                           50.644%  C    2 s( 26.18%)p 2.82( 73.79%)d 0.00(  0.02%)
                                                  f 0.00(  0.00%)
                            0.134%  C    3 s(  2.56%)p36.71( 93.83%)d 1.29(  3.31%)
                                                  f 0.12(  0.30%)
                            0.160%  C    4 s(  1.15%)p82.96( 95.42%)d 2.73(  3.14%)
                                                  f 0.25(  0.28%)
                            0.201%  N    5 s( 13.50%)p 6.19( 83.53%)d 0.20(  2.69%)
                                                  f 0.02(  0.28%)
                            0.166%  C    6 s( 11.25%)p 7.79( 87.58%)d 0.10(  1.12%)
                                                  f 0.00(  0.05%)
                            0.020%  C    7 s(  1.53%)p63.29( 96.68%)d 1.09(  1.66%)
                                                  f 0.08(  0.13%)
                            0.011%  N    8 s(  7.89%)p11.26( 88.91%)d 0.40(  3.12%)
                                                  f 0.01(  0.07%)
                            0.102%  C   13 s(  0.45%)p99.99( 97.79%)d 3.90(  1.74%)
                                                  f 0.06(  0.03%)
                            0.010% Ni   14 s(  5.93%)p 9.84( 58.38%)d 6.01( 35.68%)
                                                  f 0.00(  0.01%)
                            0.142%  H   24 s( 99.95%)p 0.00(  0.05%)
                            0.014%  H   27 s( 99.66%)p 0.00(  0.34%)
                            0.016%  H   28 s( 99.93%)p 0.00(  0.07%)
                            0.164%  H   29 s( 99.94%)p 0.00(  0.06%)
     2. (2.00000)  99.2750%  BD ( 1) C   1 H  21      
                           60.660%  C    1 s( 22.53%)p 3.43( 77.32%)d 0.01(  0.15%)
                                                  f 0.00(  0.01%)
                            0.306%  C    2 s(  4.51%)p19.63( 88.50%)d 1.50(  6.78%)
                                                  f 0.05(  0.21%)
                            0.263%  C    3 s( 30.41%)p 2.19( 66.71%)d 0.08(  2.32%)
                                                  f 0.02(  0.56%)
                            0.024%  C    4 s( 41.29%)p 1.02( 42.18%)d 0.34( 13.90%)
                                                  f 0.06(  2.63%)
                            0.027%  N    5 s( 37.26%)p 1.34( 50.11%)d 0.30( 11.27%)
                                                  f 0.04(  1.36%)
                            0.013% Ni   14 s( 20.22%)p 3.41( 69.03%)d 0.53( 10.74%)
                                                  f 0.00(  0.01%)
                            0.015%  C   15 s(  6.97%)p12.59( 87.82%)d 0.70(  4.86%)
                                                  f 0.05(  0.35%)
                           38.618%  H   21 s( 99.97%)p 0.00(  0.03%)
                            0.018%  H   24 s( 99.90%)p 0.00(  0.10%)
     3. (2.00000)  98.9754%  BD ( 1) C   1 H  22      
                           61.221%  C    1 s( 24.37%)p 3.10( 75.48%)d 0.01(  0.14%)
                                                  f 0.00(  0.01%)
                            0.257%  C    2 s(  2.07%)p44.40( 91.76%)d 2.89(  5.97%)
                                                  f 0.10(  0.20%)
                            0.014%  C    3 s( 27.80%)p 1.79( 49.90%)d 0.73( 20.36%)
                                                  f 0.07(  1.94%)
                            0.216%  C    4 s( 33.40%)p 1.94( 64.71%)d 0.04(  1.40%)
                                                  f 0.01(  0.50%)
                            0.027%  N    5 s( 63.77%)p 0.44( 27.90%)d 0.12(  7.83%)
                                                  f 0.01(  0.50%)
                            0.040%  C   13 s( 28.33%)p 2.40( 68.01%)d 0.13(  3.60%)
                                                  f 0.00(  0.06%)
                            0.186% Ni   14 s( 13.41%)p 5.30( 71.07%)d 1.16( 15.51%)
                                                  f 0.00(  0.01%)
                            0.096%  C   15 s( 23.12%)p 3.23( 74.63%)d 0.08(  1.87%)
                                                  f 0.02(  0.38%)
                            0.023%  O   16 s(  3.20%)p28.66( 91.65%)d 1.57(  5.02%)
                                                  f 0.04(  0.13%)
                            0.045%  C   17 s( 90.80%)p 0.09(  8.24%)d 0.01(  0.86%)
                                                  f 0.00(  0.10%)
                            0.033%  C   19 s( 43.91%)p 1.20( 52.61%)d 0.06(  2.72%)
                                                  f 0.02(  0.76%)
                            0.010%  H   21 s( 62.87%)p 0.59( 37.13%)
                           37.760%  H   22 s( 99.96%)p 0.00(  0.04%)
                            0.029%  H   29 s( 99.77%)p 0.00(  0.23%)
     4. (2.00000)  99.0783%  BD ( 1) C   1 H  23      
                           60.629%  C    1 s( 22.36%)p 3.46( 77.47%)d 0.01(  0.16%)
                                                  f 0.00(  0.01%)
                            0.480%  C    2 s(  9.41%)p 9.05( 85.19%)d 0.56(  5.25%)
                                                  f 0.02(  0.15%)
                            0.014%  C    3 s( 47.61%)p 0.52( 24.91%)d 0.49( 23.13%)
                                                  f 0.09(  4.36%)
                            0.023%  C    4 s( 56.68%)p 0.46( 26.28%)d 0.25( 13.94%)
                                                  f 0.05(  3.11%)
                            0.286%  N    5 s( 39.29%)p 1.49( 58.45%)d 0.05(  2.03%)
                                                  f 0.01(  0.23%)
                            0.020%  C    6 s( 17.58%)p 4.61( 81.09%)d 0.04(  0.68%)
                                                  f 0.04(  0.65%)
                            0.022%  C   13 s( 23.06%)p 3.24( 74.69%)d 0.09(  2.07%)
                                                  f 0.01(  0.18%)
                            0.012% Ni   14 s( 14.56%)p 4.45( 64.80%)d 1.42( 20.63%)
                                                  f 0.00(  0.01%)
                           38.454%  H   23 s( 99.97%)p 0.00(  0.03%)
                            0.010%  H   29 s( 96.81%)p 0.03(  3.19%)
     5. (2.00000)  98.7372%  BD ( 1) C   2 C   3      
                            0.131%  C    1 s(  4.48%)p20.49( 91.80%)d 0.76(  3.41%)
                                                  f 0.07(  0.31%)
                           50.460%  C    2 s( 25.67%)p 2.89( 74.30%)d 0.00(  0.02%)
                                                  f 0.00(  0.00%)
                           48.289%  C    3 s( 28.20%)p 2.54( 71.57%)d 0.01(  0.22%)
                                                  f 0.00(  0.02%)
                            0.156%  C    4 s(  1.36%)p69.83( 95.08%)d 2.40(  3.26%)
                                                  f 0.22(  0.29%)
                            0.219%  N    5 s( 11.34%)p 7.58( 85.98%)d 0.21(  2.41%)
                                                  f 0.02(  0.27%)
                            0.164%  C    6 s(  6.93%)p13.27( 91.95%)d 0.15(  1.07%)
                                                  f 0.01(  0.05%)
                            0.025%  C    7 s(  1.54%)p62.72( 96.65%)d 1.14(  1.75%)
                                                  f 0.04(  0.06%)
                            0.016%  N    8 s(  7.53%)p11.90( 89.64%)d 0.37(  2.76%)
                                                  f 0.01(  0.08%)
                            0.148%  C   13 s(  0.36%)p99.99( 98.19%)d 3.93(  1.43%)
                                                  f 0.05(  0.02%)
                            0.144%  H   21 s( 99.95%)p 0.00(  0.05%)
                            0.162%  H   27 s( 99.93%)p 0.00(  0.07%)
                            0.011%  H   28 s( 99.85%)p 0.00(  0.15%)
                            0.017%  H   29 s( 99.70%)p 0.00(  0.30%)
     6. (2.00000)  98.9368%  BD ( 1) C   2 C   4      
                            0.135%  C    1 s(  1.69%)p55.60( 94.06%)d 2.27(  3.84%)
                                                  f 0.24(  0.41%)
                           50.631%  C    2 s( 25.05%)p 2.99( 74.91%)d 0.00(  0.03%)
                                                  f 0.00(  0.00%)
                            0.133%  C    3 s(  1.38%)p68.20( 94.27%)d 2.84(  3.92%)
                                                  f 0.30(  0.42%)
                           48.316%  C    4 s( 28.92%)p 2.45( 70.87%)d 0.01(  0.20%)
                                                  f 0.00(  0.02%)
                            0.174%  N    5 s( 18.29%)p 4.27( 78.08%)d 0.19(  3.44%)
                                                  f 0.01(  0.18%)
                            0.025%  C    6 s( 58.56%)p 0.66( 38.51%)d 0.04(  2.47%)
                                                  f 0.01(  0.47%)
                            0.201%  C   13 s( 26.43%)p 2.76( 72.84%)d 0.02(  0.61%)
                                                  f 0.00(  0.13%)
                            0.030% Ni   14 s( 32.62%)p 1.78( 57.90%)d 0.29(  9.47%)
                                                  f 0.00(  0.00%)
                            0.016%  C   15 s( 13.87%)p 6.17( 85.63%)d 0.03(  0.46%)
                                                  f 0.00(  0.04%)
                            0.024%  H   21 s( 99.61%)p 0.00(  0.39%)
                            0.108%  H   22 s( 99.87%)p 0.00(  0.13%)
                            0.013%  H   23 s( 99.86%)p 0.00(  0.14%)
                            0.029%  H   24 s( 99.59%)p 0.00(  0.41%)
                            0.110%  H   26 s( 99.88%)p 0.00(  0.12%)
     7. (2.00000)  98.9937%  BD ( 1) C   2 N   5      
                            0.078%  C    1 s( 10.11%)p 8.06( 81.51%)d 0.69(  6.93%)
                                                  f 0.14(  1.44%)
                           36.284%  C    2 s( 21.47%)p 3.66( 78.48%)d 0.00(  0.04%)
                                                  f 0.00(  0.01%)
                            0.079%  C    3 s(  8.93%)p 9.25( 82.60%)d 0.80(  7.11%)
                                                  f 0.15(  1.36%)
                            0.067%  C    4 s(  7.79%)p10.70( 83.35%)d 0.93(  7.24%)
                                                  f 0.21(  1.62%)
                           62.717%  N    5 s( 31.89%)p 2.13( 67.99%)d 0.00(  0.10%)
                                                  f 0.00(  0.02%)
                            0.098%  C    6 s(  6.61%)p12.90( 85.23%)d 1.20(  7.93%)
                                                  f 0.04(  0.23%)
                            0.072%  C    7 s( 46.32%)p 1.05( 48.77%)d 0.08(  3.71%)
                                                  f 0.03(  1.20%)
                            0.087%  N    8 s( 56.35%)p 0.64( 36.01%)d 0.12(  6.89%)
                                                  f 0.01(  0.76%)
                            0.019%  C    9 s( 21.77%)p 3.55( 77.37%)d 0.03(  0.68%)
                                                  f 0.01(  0.19%)
                            0.177%  C   13 s( 13.82%)p 5.80( 80.19%)d 0.42(  5.81%)
                                                  f 0.01(  0.18%)
                            0.090%  H   23 s( 99.93%)p 0.00(  0.07%)
                            0.089%  H   25 s( 99.91%)p 0.00(  0.09%)
                            0.075%  H   28 s( 99.95%)p 0.00(  0.05%)
                            0.022%  H   30 s( 99.41%)p 0.01(  0.59%)
     8. (2.00000)  99.2940%  BD ( 1) C   3 H  24      
                            0.257%  C    1 s( 30.19%)p 2.22( 67.01%)d 0.07(  2.24%)
                                                  f 0.02(  0.57%)
                            0.295%  C    2 s(  4.93%)p17.79( 87.69%)d 1.45(  7.16%)
                                                  f 0.05(  0.22%)
                           60.647%  C    3 s( 22.80%)p 3.38( 77.04%)d 0.01(  0.15%)
                                                  f 0.00(  0.01%)
                            0.029%  C    4 s( 46.39%)p 0.83( 38.73%)d 0.28( 12.81%)
                                                  f 0.04(  2.06%)
                            0.022%  N    5 s( 36.99%)p 1.29( 47.73%)d 0.37( 13.75%)
                                                  f 0.04(  1.53%)
                            0.019%  C   15 s(  3.22%)p28.20( 90.93%)d 1.67(  5.39%)
                                                  f 0.14(  0.45%)
                            0.018%  H   21 s( 99.92%)p 0.00(  0.08%)
                           38.649%  H   24 s( 99.97%)p 0.00(  0.03%)
                            0.011%  H   27 s( 96.84%)p 0.03(  3.16%)
     9. (2.00000)  99.1117%  BD ( 1) C   3 H  25      
                            0.023%  C    1 s( 57.25%)p 0.46( 26.56%)d 0.24( 13.48%)
                                                  f 0.05(  2.71%)
                            0.456%  C    2 s(  9.72%)p 8.69( 84.51%)d 0.58(  5.62%)
                                                  f 0.02(  0.16%)
                           60.653%  C    3 s( 22.52%)p 3.43( 77.32%)d 0.01(  0.15%)
                                                  f 0.00(  0.01%)
                            0.017%  C    4 s( 47.60%)p 0.66( 31.35%)d 0.36( 17.17%)
                                                  f 0.08(  3.88%)
                            0.278%  N    5 s( 38.08%)p 1.57( 59.84%)d 0.05(  1.80%)
                                                  f 0.01(  0.28%)
                            0.021%  C    6 s(  9.57%)p 9.29( 88.92%)d 0.10(  0.94%)
                                                  f 0.06(  0.57%)
                            0.029%  C   13 s( 14.03%)p 5.96( 83.67%)d 0.15(  2.14%)
                                                  f 0.01(  0.15%)
                           38.462%  H   25 s( 99.97%)p 0.00(  0.03%)
    10. (2.00000)  99.0181%  BD ( 1) C   3 H  26      
                            0.012%  C    1 s( 24.11%)p 1.81( 43.52%)d 1.20( 28.93%)
                                                  f 0.14(  3.43%)
                            0.269%  C    2 s(  2.08%)p43.96( 91.57%)d 2.92(  6.08%)
                                                  f 0.13(  0.27%)
                           60.894%  C    3 s( 24.02%)p 3.16( 75.82%)d 0.01(  0.15%)
                                                  f 0.00(  0.01%)
                            0.215%  C    4 s( 33.07%)p 1.96( 64.80%)d 0.05(  1.60%)
                                                  f 0.02(  0.52%)
                            0.038%  N    5 s( 64.11%)p 0.42( 26.67%)d 0.13(  8.55%)
                                                  f 0.01(  0.67%)
                            0.041%  C   13 s( 27.80%)p 2.40( 66.77%)d 0.19(  5.32%)
                                                  f 0.00(  0.11%)
                            0.068% Ni   14 s( 11.41%)p 4.50( 51.38%)d 3.26( 37.22%)
                                                  f 0.00(  0.00%)
                            0.190%  C   15 s(  3.47%)p26.78( 93.02%)d 0.95(  3.30%)
                                                  f 0.06(  0.21%)
                            0.057%  O   16 s(  1.43%)p66.41( 94.68%)d 2.66(  3.80%)
                                                  f 0.07(  0.10%)
                            0.011%  C   19 s( 78.57%)p 0.25( 19.27%)d 0.02(  1.74%)
                                                  f 0.01(  0.42%)
                           38.127%  H   26 s( 99.97%)p 0.00(  0.03%)
                            0.028%  H   27 s( 99.81%)p 0.00(  0.19%)
    11. (2.00000)  99.3571%  BD ( 1) C   4 H  27      
                            0.017%  C    1 s( 44.34%)p 0.76( 33.72%)d 0.43( 19.10%)
                                                  f 0.06(  2.84%)
                            0.249%  C    2 s(  4.33%)p20.23( 87.70%)d 1.79(  7.76%)
                                                  f 0.05(  0.21%)
                            0.201%  C    3 s( 30.83%)p 2.16( 66.51%)d 0.06(  2.00%)
                                                  f 0.02(  0.66%)
                           60.945%  C    4 s( 23.40%)p 3.27( 76.44%)d 0.01(  0.15%)
                                                  f 0.00(  0.01%)
                            0.035%  N    5 s( 50.85%)p 0.76( 38.77%)d 0.18(  9.35%)
                                                  f 0.02(  1.03%)
                            0.043%  C    6 s(  8.83%)p 9.49( 83.84%)d 0.79(  7.02%)
                                                  f 0.03(  0.30%)
                            0.018%  C    7 s( 15.44%)p 5.16( 79.62%)d 0.31(  4.74%)
                                                  f 0.01(  0.21%)
                            0.023%  H   26 s( 99.63%)p 0.00(  0.37%)
                           38.414%  H   27 s( 99.97%)p 0.00(  0.03%)
    12. (2.00000)  99.0003%  BD ( 1) C   4 H  28      
                            0.021%  C    1 s( 43.49%)p 0.80( 34.77%)d 0.42( 18.19%)
                                                  f 0.08(  3.55%)
                            0.535%  C    2 s(  8.40%)p10.35( 86.97%)d 0.53(  4.46%)
                                                  f 0.02(  0.16%)
                            0.017%  C    3 s( 35.89%)p 1.10( 39.48%)d 0.57( 20.58%)
                                                  f 0.11(  4.05%)
                           61.102%  C    4 s( 22.01%)p 3.54( 77.83%)d 0.01(  0.16%)
                                                  f 0.00(  0.01%)
                            0.310%  N    5 s( 44.83%)p 1.18( 52.75%)d 0.05(  2.25%)
                                                  f 0.00(  0.16%)
                            0.014%  C    6 s( 81.56%)p 0.18( 14.48%)d 0.03(  2.46%)
                                                  f 0.02(  1.50%)
                            0.028%  C   13 s( 51.70%)p 0.91( 46.89%)d 0.03(  1.32%)
                                                  f 0.00(  0.08%)
                            0.012%  H   22 s( 97.90%)p 0.02(  2.10%)
                            0.010%  H   26 s( 98.41%)p 0.02(  1.59%)
                           37.907%  H   28 s( 99.97%)p 0.00(  0.03%)
    13. (2.00000)  99.3669%  BD ( 1) C   4 H  29      
                            0.192%  C    1 s( 30.23%)p 2.22( 67.03%)d 0.07(  2.04%)
                                                  f 0.02(  0.69%)
                            0.234%  C    2 s(  4.49%)p19.44( 87.26%)d 1.79(  8.04%)
                                                  f 0.05(  0.21%)
                            0.020%  C    3 s( 49.65%)p 0.59( 29.09%)d 0.38( 18.78%)
                                                  f 0.05(  2.48%)
                           60.870%  C    4 s( 23.47%)p 3.25( 76.38%)d 0.01(  0.15%)
                                                  f 0.00(  0.01%)
                            0.029%  N    5 s( 53.52%)p 0.69( 36.73%)d 0.16(  8.66%)
                                                  f 0.02(  1.09%)
                            0.052%  C    6 s( 12.56%)p 6.42( 80.56%)d 0.52(  6.59%)
                                                  f 0.02(  0.29%)
                            0.020%  C    7 s( 19.55%)p 3.86( 75.47%)d 0.24(  4.76%)
                                                  f 0.01(  0.22%)
                            0.022%  H   22 s( 99.52%)p 0.00(  0.48%)
                           38.498%  H   29 s( 99.97%)p 0.00(  0.03%)
                            0.015%  H   30 s( 92.97%)p 0.08(  7.03%)
    14. (2.00000)  99.1232%  BD ( 1) N   5 C   6      
                            0.041%  C    1 s( 17.35%)p 4.53( 78.65%)d 0.20(  3.51%)
                                                  f 0.03(  0.49%)
                            0.135%  C    2 s(  4.67%)p18.81( 87.77%)d 1.57(  7.30%)
                                                  f 0.06(  0.26%)
                            0.028%  C    3 s( 11.42%)p 7.30( 83.30%)d 0.42(  4.76%)
                                                  f 0.05(  0.52%)
                            0.013%  C    4 s( 28.32%)p 1.97( 55.66%)d 0.48( 13.62%)
                                                  f 0.08(  2.39%)
                           61.231%  N    5 s( 30.35%)p 2.29( 69.39%)d 0.01(  0.24%)
                                                  f 0.00(  0.02%)
                           37.914%  C    6 s( 27.19%)p 2.68( 72.77%)d 0.00(  0.05%)
                                                  f 0.00(  0.00%)
                            0.148%  C    7 s(  2.88%)p32.55( 93.87%)d 0.93(  2.69%)
                                                  f 0.20(  0.56%)
                            0.065%  N    8 s( 82.96%)p 0.15( 12.43%)d 0.04(  3.70%)
                                                  f 0.01(  0.92%)
                            0.018%  C    9 s(  6.60%)p14.02( 92.53%)d 0.10(  0.67%)
                                                  f 0.03(  0.20%)
                            0.159%  C   13 s(  2.89%)p31.13( 89.98%)d 2.32(  6.72%)
                                                  f 0.14(  0.42%)
                            0.086% Ni   14 s( 24.54%)p 2.39( 58.65%)d 0.68( 16.81%)
                                                  f 0.00(  0.00%)
                            0.114%  H   31 s( 99.56%)p 0.00(  0.44%)
    15. (2.00000)  98.9605%  BD ( 1) N   5 C  13      
                            0.123%  C    2 s(  1.44%)p64.87( 93.20%)d 3.57(  5.13%)
                                                  f 0.17(  0.24%)
                            0.056%  C    4 s( 16.69%)p 4.70( 78.40%)d 0.27(  4.46%)
                                                  f 0.03(  0.45%)
                           64.486%  N    5 s( 33.94%)p 1.94( 65.84%)d 0.01(  0.20%)
                                                  f 0.00(  0.01%)
                            0.136%  C    6 s(  1.06%)p88.73( 93.94%)d 4.60(  4.87%)
                                                  f 0.12(  0.13%)
                            0.056%  C    7 s( 75.87%)p 0.26( 19.97%)d 0.05(  3.43%)
                                                  f 0.01(  0.73%)
                            0.206%  N    8 s( 20.76%)p 3.59( 74.42%)d 0.21(  4.38%)
                                                  f 0.02(  0.44%)
                            0.223%  C    9 s( 26.21%)p 2.81( 73.65%)d 0.00(  0.11%)
                                                  f 0.00(  0.02%)
                           34.491%  C   13 s( 27.88%)p 2.58( 72.06%)d 0.00(  0.05%)
                                                  f 0.00(  0.00%)
                            0.043% Ni   14 s( 12.06%)p 3.81( 46.00%)d 3.48( 41.94%)
                                                  f 0.00(  0.00%)
                            0.012%  C   15 s(  7.16%)p12.90( 92.42%)d 0.04(  0.28%)
                                                  f 0.02(  0.14%)
                            0.013%  C   19 s(  1.73%)p56.50( 97.73%)d 0.22(  0.37%)
                                                  f 0.10(  0.17%)
                            0.102%  H   30 s( 99.66%)p 0.00(  0.34%)
    16. (2.00000)  98.9127%  BD ( 1) C   6 C   7      
                            0.215%  C    2 s( 20.77%)p 3.79( 78.66%)d 0.03(  0.52%)
                                                  f 0.00(  0.05%)
                            0.223%  N    5 s( 11.70%)p 7.37( 86.20%)d 0.17(  2.02%)
                                                  f 0.01(  0.08%)
                           49.488%  C    6 s( 34.48%)p 1.90( 65.38%)d 0.00(  0.13%)
                                                  f 0.00(  0.01%)
                           49.488%  C    7 s( 34.48%)p 1.90( 65.38%)d 0.00(  0.13%)
                                                  f 0.00(  0.01%)
                            0.223%  N    8 s( 11.70%)p 7.37( 86.20%)d 0.17(  2.02%)
                                                  f 0.01(  0.08%)
                            0.215%  C    9 s( 20.77%)p 3.79( 78.66%)d 0.03(  0.52%)
                                                  f 0.00(  0.05%)
                            0.023%  C   13 s( 58.32%)p 0.66( 38.53%)d 0.04(  2.23%)
                                                  f 0.02(  0.93%)
                            0.035%  H   30 s( 94.94%)p 0.05(  5.06%)
                            0.035%  H   31 s( 94.94%)p 0.05(  5.06%)
    17. (2.00000)  93.6303%  BD ( 2) C   6 C   7      
                            1.072%  N    5 s(  0.00%)p 1.00( 97.16%)d 0.03(  2.73%)
                                                  f 0.00(  0.11%)
                           46.615%  C    6 s(  0.00%)p 1.00( 99.92%)d 0.00(  0.05%)
                                                  f 0.00(  0.03%)
                           47.016%  C    7 s(  0.00%)p 1.00( 99.92%)d 0.00(  0.05%)
                                                  f 0.00(  0.03%)
                            1.228%  N    8 s(  0.01%)p99.99( 97.49%)d99.99(  2.40%)
                                                  f 8.14(  0.10%)
                            3.910%  C   13 s(  0.10%)p99.99( 99.89%)d 0.09(  0.01%)
                                                  f 0.04(  0.00%)
                            0.047% Ni   14 s(  0.60%)p99.99( 90.77%)d14.38(  8.60%)
                                                  f 0.05(  0.03%)
                            0.019%  C   19 s( 48.60%)p 1.05( 50.88%)d 0.01(  0.48%)
                                                  f 0.00(  0.03%)
                            0.011%  H   30 s(  0.08%)p99.99( 99.92%)
                            0.011%  H   31 s(  0.09%)p99.99( 99.91%)
    18. (2.00000)  98.9499%  BD ( 1) C   6 H  30      
                            0.022%  C    2 s( 85.25%)p 0.16( 13.88%)d 0.01(  0.55%)
                                                  f 0.00(  0.32%)
                            0.046%  C    4 s(  5.75%)p15.40( 88.49%)d 0.96(  5.51%)
                                                  f 0.04(  0.24%)
                            0.188%  N    5 s( 15.42%)p 5.28( 81.42%)d 0.20(  3.08%)
                                                  f 0.00(  0.07%)
                           62.145%  C    6 s( 32.33%)p 2.09( 67.61%)d 0.00(  0.05%)
                                                  f 0.00(  0.01%)
                            0.253%  C    7 s(  6.23%)p14.29( 88.97%)d 0.76(  4.75%)
                                                  f 0.01(  0.05%)
                            0.115%  N    8 s( 42.97%)p 1.26( 53.96%)d 0.07(  2.80%)
                                                  f 0.01(  0.28%)
                            0.014%  C    9 s( 26.04%)p 2.79( 72.76%)d 0.04(  1.11%)
                                                  f 0.00(  0.09%)
                            0.283%  C   13 s( 36.50%)p 1.72( 62.72%)d 0.02(  0.69%)
                                                  f 0.00(  0.09%)
                            0.053%  H   28 s( 99.64%)p 0.00(  0.36%)
                           36.838%  H   30 s( 99.95%)p 0.00(  0.05%)
    19. (2.00000)  99.1231%  BD ( 1) C   7 N   8      
                            0.018%  C    2 s(  6.61%)p13.99( 92.52%)d 0.10(  0.67%)
                                                  f 0.03(  0.20%)
                            0.066%  N    5 s( 82.85%)p 0.15( 12.57%)d 0.04(  3.67%)
                                                  f 0.01(  0.91%)
                            0.147%  C    6 s(  2.92%)p32.12( 93.82%)d 0.92(  2.70%)
                                                  f 0.19(  0.56%)
                           37.913%  C    7 s( 27.19%)p 2.68( 72.77%)d 0.00(  0.05%)
                                                  f 0.00(  0.00%)
                           61.231%  N    8 s( 30.35%)p 2.29( 69.40%)d 0.01(  0.24%)
                                                  f 0.00(  0.02%)
                            0.135%  C    9 s(  4.65%)p18.89( 87.79%)d 1.57(  7.30%)
                                                  f 0.06(  0.26%)
                            0.041%  C   10 s( 17.51%)p 4.48( 78.50%)d 0.20(  3.50%)
                                                  f 0.03(  0.49%)
                            0.028%  C   11 s( 11.25%)p 7.41( 83.45%)d 0.42(  4.77%)
                                                  f 0.05(  0.52%)
                            0.013%  C   12 s( 28.36%)p 1.96( 55.62%)d 0.48( 13.63%)
                                                  f 0.08(  2.39%)
                            0.159%  C   13 s(  2.89%)p31.16( 89.98%)d 2.33(  6.72%)
                                                  f 0.14(  0.42%)
                            0.086% Ni   14 s( 24.63%)p 2.38( 58.55%)d 0.68( 16.82%)
                                                  f 0.00(  0.00%)
                            0.114%  H   30 s( 99.56%)p 0.00(  0.44%)
    20. (2.00000)  98.9499%  BD ( 1) C   7 H  31      
                            0.014%  C    2 s( 26.09%)p 2.79( 72.71%)d 0.04(  1.11%)
                                                  f 0.00(  0.09%)
                            0.115%  N    5 s( 42.98%)p 1.26( 53.95%)d 0.07(  2.80%)
                                                  f 0.01(  0.28%)
                            0.253%  C    6 s(  6.23%)p14.28( 88.97%)d 0.76(  4.75%)
                                                  f 0.01(  0.05%)
                           62.146%  C    7 s( 32.33%)p 2.09( 67.61%)d 0.00(  0.05%)
                                                  f 0.00(  0.01%)
                            0.188%  N    8 s( 15.42%)p 5.28( 81.43%)d 0.20(  3.08%)
                                                  f 0.00(  0.07%)
                            0.022%  C    9 s( 85.26%)p 0.16( 13.87%)d 0.01(  0.56%)
                                                  f 0.00(  0.32%)
                            0.046%  C   12 s(  5.74%)p15.43( 88.50%)d 0.96(  5.51%)
                                                  f 0.04(  0.24%)
                            0.283%  C   13 s( 36.49%)p 1.72( 62.73%)d 0.02(  0.69%)
                                                  f 0.00(  0.09%)
                            0.010%  H   30 s( 99.86%)p 0.00(  0.14%)
                           36.837%  H   31 s( 99.95%)p 0.00(  0.05%)
                            0.053%  H   40 s( 99.64%)p 0.00(  0.36%)
    21. (2.00000)  98.9925%  BD ( 1) N   8 C   9      
                            0.019%  C    2 s( 21.73%)p 3.56( 77.39%)d 0.03(  0.69%)
                                                  f 0.01(  0.19%)
                            0.087%  N    5 s( 56.49%)p 0.64( 35.91%)d 0.12(  6.85%)
                                                  f 0.01(  0.76%)
                            0.072%  C    6 s( 46.34%)p 1.05( 48.74%)d 0.08(  3.71%)
                                                  f 0.03(  1.20%)
                            0.099%  C    7 s(  6.59%)p12.93( 85.25%)d 1.20(  7.92%)
                                                  f 0.04(  0.23%)
                           62.712%  N    8 s( 31.89%)p 2.13( 68.00%)d 0.00(  0.10%)
                                                  f 0.00(  0.02%)
                           36.288%  C    9 s( 21.47%)p 3.66( 78.48%)d 0.00(  0.04%)
                                                  f 0.00(  0.01%)
                            0.077%  C   10 s(  9.96%)p 8.20( 81.69%)d 0.69(  6.91%)
                                                  f 0.14(  1.44%)
                            0.080%  C   11 s(  9.04%)p 9.12( 82.46%)d 0.79(  7.12%)
                                                  f 0.15(  1.37%)
                            0.067%  C   12 s(  7.78%)p10.71( 83.37%)d 0.93(  7.23%)
                                                  f 0.21(  1.62%)
                            0.178%  C   13 s( 13.74%)p 5.84( 80.29%)d 0.42(  5.80%)
                                                  f 0.01(  0.17%)
                            0.022%  H   31 s( 99.42%)p 0.01(  0.58%)
                            0.089%  H   33 s( 99.93%)p 0.00(  0.07%)
                            0.089%  H   35 s( 99.92%)p 0.00(  0.08%)
                            0.075%  H   40 s( 99.95%)p 0.00(  0.05%)
    22. (2.00000)  98.9603%  BD ( 1) N   8 C  13      
                            0.223%  C    2 s( 26.21%)p 2.81( 73.65%)d 0.00(  0.11%)
                                                  f 0.00(  0.02%)
                            0.206%  N    5 s( 20.69%)p 3.60( 74.49%)d 0.21(  4.38%)
                                                  f 0.02(  0.44%)
                            0.056%  C    6 s( 75.91%)p 0.26( 19.93%)d 0.05(  3.43%)
                                                  f 0.01(  0.73%)
                            0.136%  C    7 s(  1.06%)p88.88( 93.94%)d 4.61(  4.87%)
                                                  f 0.12(  0.13%)
                           64.486%  N    8 s( 33.94%)p 1.94( 65.84%)d 0.01(  0.20%)
                                                  f 0.00(  0.01%)
                            0.123%  C    9 s(  1.43%)p65.12( 93.20%)d 3.58(  5.13%)
                                                  f 0.17(  0.24%)
                            0.056%  C   12 s( 16.69%)p 4.70( 78.39%)d 0.27(  4.46%)
                                                  f 0.03(  0.45%)
                           34.491%  C   13 s( 27.89%)p 2.58( 72.06%)d 0.00(  0.05%)
                                                  f 0.00(  0.00%)
                            0.043% Ni   14 s( 12.06%)p 3.82( 46.00%)d 3.48( 41.94%)
                                                  f 0.00(  0.00%)
                            0.012%  C   17 s(  7.22%)p12.80( 92.36%)d 0.04(  0.28%)
                                                  f 0.02(  0.14%)
                            0.013%  C   19 s(  1.68%)p58.24( 97.78%)d 0.22(  0.37%)
                                                  f 0.10(  0.17%)
                            0.102%  H   31 s( 99.66%)p 0.00(  0.34%)
    23. (2.00000)  93.5939%  BD ( 2) N   8 C  13      
                            0.025%  C    2 s(  0.29%)p99.99( 98.61%)d 3.13(  0.90%)
                                                  f 0.71(  0.20%)
                            0.614%  N    5 s(  0.03%)p99.99( 95.52%)d99.99(  4.28%)
                                                  f 6.82(  0.18%)
                            2.571%  C    6 s(  0.00%)p 1.00( 99.46%)d 0.01(  0.54%)
                                                  f 0.00(  0.01%)
                            2.301%  C    7 s(  0.00%)p 1.00( 98.23%)d 0.02(  1.76%)
                                                  f 0.00(  0.01%)
                           71.375%  N    8 s(  0.02%)p99.99( 99.91%)d 2.10(  0.05%)
                                                  f 0.97(  0.02%)
                            0.315%  C    9 s(  0.07%)p99.99( 95.02%)d65.03(  4.59%)
                                                  f 4.57(  0.32%)
                            0.177%  C   10 s( 36.73%)p 1.57( 57.58%)d 0.13(  4.92%)
                                                  f 0.02(  0.77%)
                            0.218%  C   11 s( 34.99%)p 1.70( 59.42%)d 0.14(  4.84%)
                                                  f 0.02(  0.74%)
                            0.011%  C   12 s(  5.48%)p 9.49( 52.01%)d 6.59( 36.11%)
                                                  f 1.17(  6.40%)
                           22.220%  C   13 s(  0.08%)p99.99( 99.69%)d 2.64(  0.22%)
                                                  f 0.04(  0.00%)
                            0.054% Ni   14 s(  0.08%)p99.99( 61.45%)d99.99( 38.42%)
                                                  f 0.62(  0.05%)
                            0.010%  C   19 s( 56.02%)p 0.77( 43.10%)d 0.01(  0.80%)
                                                  f 0.00(  0.08%)
                            0.029%  H   33 s( 99.79%)p 0.00(  0.21%)
                            0.041%  H   35 s( 99.92%)p 0.00(  0.08%)
    24. (2.00000)  98.7917%  BD ( 1) C   9 C  10      
                            0.018%  C    6 s(  1.62%)p59.65( 96.45%)d 1.11(  1.79%)
                                                  f 0.08(  0.14%)
                            0.164%  C    7 s( 11.40%)p 7.67( 87.42%)d 0.10(  1.13%)
                                                  f 0.00(  0.05%)
                            0.206%  N    8 s( 12.94%)p 6.50( 84.16%)d 0.20(  2.62%)
                                                  f 0.02(  0.27%)
                           50.652%  C    9 s( 26.18%)p 2.82( 73.79%)d 0.00(  0.02%)
                                                  f 0.00(  0.00%)
                           48.151%  C   10 s( 27.85%)p 2.58( 71.91%)d 0.01(  0.22%)
                                                  f 0.00(  0.02%)
                            0.134%  C   11 s(  2.52%)p37.18( 93.87%)d 1.31(  3.31%)
                                                  f 0.12(  0.30%)
                            0.160%  C   12 s(  1.15%)p82.83( 95.42%)d 2.73(  3.14%)
                                                  f 0.24(  0.28%)
                            0.102%  C   13 s(  0.44%)p99.99( 97.79%)d 3.95(  1.74%)
                                                  f 0.06(  0.03%)
                            0.010% Ni   14 s(  5.94%)p 9.80( 58.19%)d 6.04( 35.87%)
                                                  f 0.00(  0.01%)
                            0.142%  H   36 s( 99.95%)p 0.00(  0.05%)
                            0.014%  H   38 s( 99.66%)p 0.00(  0.34%)
                            0.164%  H   39 s( 99.94%)p 0.00(  0.06%)
                            0.016%  H   40 s( 99.93%)p 0.00(  0.07%)
    25. (2.00000)  98.7370%  BD ( 1) C   9 C  11      
                            0.013%  N    5 s(  9.03%)p 9.70( 87.55%)d 0.37(  3.34%)
                                                  f 0.01(  0.09%)
                            0.023%  C    6 s(  1.60%)p60.35( 96.43%)d 1.19(  1.90%)
                                                  f 0.04(  0.07%)
                            0.161%  C    7 s(  7.04%)p13.04( 91.82%)d 0.15(  1.09%)
                                                  f 0.01(  0.05%)
                            0.227%  N    8 s( 11.19%)p 7.70( 86.22%)d 0.21(  2.33%)
                                                  f 0.02(  0.26%)
                           50.473%  C    9 s( 25.66%)p 2.90( 74.31%)d 0.00(  0.02%)
                                                  f 0.00(  0.00%)
                            0.131%  C   10 s(  4.43%)p20.71( 91.84%)d 0.77(  3.41%)
                                                  f 0.07(  0.31%)
                           48.276%  C   11 s( 28.19%)p 2.54( 71.57%)d 0.01(  0.22%)
                                                  f 0.00(  0.02%)
                            0.156%  C   12 s(  1.36%)p69.90( 95.08%)d 2.40(  3.27%)
                                                  f 0.22(  0.29%)
                            0.148%  C   13 s(  0.37%)p99.99( 98.18%)d 3.88(  1.43%)
                                                  f 0.05(  0.02%)
                            0.144%  H   32 s( 99.95%)p 0.00(  0.05%)
                            0.162%  H   38 s( 99.93%)p 0.00(  0.07%)
                            0.016%  H   39 s( 99.70%)p 0.00(  0.30%)
                            0.011%  H   40 s( 99.85%)p 0.00(  0.15%)
    26. (2.00000)  98.9370%  BD ( 1) C   9 C  12      
                            0.025%  C    7 s( 58.61%)p 0.66( 38.45%)d 0.04(  2.47%)
                                                  f 0.01(  0.47%)
                            0.174%  N    8 s( 18.27%)p 4.27( 78.10%)d 0.19(  3.44%)
                                                  f 0.01(  0.18%)
                           50.631%  C    9 s( 25.05%)p 2.99( 74.91%)d 0.00(  0.03%)
                                                  f 0.00(  0.00%)
                            0.135%  C   10 s(  1.69%)p55.59( 94.06%)d 2.27(  3.84%)
                                                  f 0.24(  0.41%)
                            0.133%  C   11 s(  1.38%)p68.10( 94.27%)d 2.83(  3.92%)
                                                  f 0.30(  0.42%)
                           48.316%  C   12 s( 28.92%)p 2.45( 70.87%)d 0.01(  0.20%)
                                                  f 0.00(  0.02%)
                            0.201%  C   13 s( 26.41%)p 2.76( 72.85%)d 0.02(  0.61%)
                                                  f 0.00(  0.13%)
                            0.030% Ni   14 s( 32.71%)p 1.77( 57.88%)d 0.29(  9.41%)
                                                  f 0.00(  0.00%)
                            0.016%  C   17 s( 13.85%)p 6.18( 85.65%)d 0.03(  0.46%)
                                                  f 0.00(  0.04%)
                            0.024%  H   32 s( 99.61%)p 0.00(  0.39%)
                            0.013%  H   33 s( 99.86%)p 0.00(  0.14%)
                            0.108%  H   34 s( 99.87%)p 0.00(  0.13%)
                            0.029%  H   36 s( 99.59%)p 0.00(  0.41%)
                            0.110%  H   37 s( 99.88%)p 0.00(  0.12%)
    27. (2.00000)  99.2749%  BD ( 1) C  10 H  32      
                            0.027%  N    8 s( 37.25%)p 1.35( 50.11%)d 0.30( 11.28%)
                                                  f 0.04(  1.37%)
                            0.306%  C    9 s(  4.51%)p19.62( 88.50%)d 1.50(  6.78%)
                                                  f 0.05(  0.21%)
                           60.660%  C   10 s( 22.53%)p 3.43( 77.32%)d 0.01(  0.15%)
                                                  f 0.00(  0.01%)
                            0.263%  C   11 s( 30.42%)p 2.19( 66.70%)d 0.08(  2.32%)
                                                  f 0.02(  0.56%)
                            0.024%  C   12 s( 41.35%)p 1.02( 42.14%)d 0.34( 13.88%)
                                                  f 0.06(  2.63%)
                            0.013% Ni   14 s( 20.20%)p 3.42( 69.13%)d 0.53( 10.66%)
                                                  f 0.00(  0.01%)
                            0.015%  C   17 s(  6.79%)p12.97( 88.00%)d 0.72(  4.86%)
                                                  f 0.05(  0.35%)
                           38.618%  H   32 s( 99.97%)p 0.00(  0.03%)
                            0.018%  H   36 s( 99.90%)p 0.00(  0.10%)
    28. (2.00000)  99.0786%  BD ( 1) C  10 H  33      
                            0.020%  C    7 s( 17.70%)p 4.57( 80.96%)d 0.04(  0.69%)
                                                  f 0.04(  0.65%)
                            0.286%  N    8 s( 39.16%)p 1.50( 58.59%)d 0.05(  2.02%)
                                                  f 0.01(  0.23%)
                            0.480%  C    9 s(  9.41%)p 9.05( 85.18%)d 0.56(  5.25%)
                                                  f 0.02(  0.15%)
                           60.630%  C   10 s( 22.37%)p 3.46( 77.47%)d 0.01(  0.16%)
                                                  f 0.00(  0.01%)
                            0.014%  C   11 s( 47.64%)p 0.52( 24.96%)d 0.48( 23.05%)
                                                  f 0.09(  4.35%)
                            0.023%  C   12 s( 56.63%)p 0.47( 26.35%)d 0.25( 13.91%)
                                                  f 0.05(  3.11%)
                            0.022%  C   13 s( 23.46%)p 3.17( 74.26%)d 0.09(  2.10%)
                                                  f 0.01(  0.18%)
                            0.012% Ni   14 s( 14.59%)p 4.45( 64.85%)d 1.41( 20.55%)
                                                  f 0.00(  0.01%)
                           38.453%  H   33 s( 99.97%)p 0.00(  0.03%)
                            0.010%  H   39 s( 96.81%)p 0.03(  3.19%)
    29. (2.00000)  98.9756%  BD ( 1) C  10 H  34      
                            0.027%  N    8 s( 63.78%)p 0.44( 27.90%)d 0.12(  7.82%)
                                                  f 0.01(  0.50%)
                            0.257%  C    9 s(  2.06%)p44.45( 91.76%)d 2.89(  5.97%)
                                                  f 0.10(  0.20%)
                           61.220%  C   10 s( 24.37%)p 3.10( 75.48%)d 0.01(  0.14%)
                                                  f 0.00(  0.01%)
                            0.014%  C   11 s( 27.72%)p 1.80( 49.96%)d 0.74( 20.38%)
                                                  f 0.07(  1.94%)
                            0.216%  C   12 s( 33.33%)p 1.94( 64.78%)d 0.04(  1.40%)
                                                  f 0.01(  0.50%)
                            0.040%  C   13 s( 28.42%)p 2.39( 67.93%)d 0.13(  3.58%)
                                                  f 0.00(  0.06%)
                            0.186% Ni   14 s( 13.44%)p 5.28( 71.01%)d 1.16( 15.54%)
                                                  f 0.00(  0.01%)
                            0.045%  C   15 s( 90.99%)p 0.09(  8.05%)d 0.01(  0.85%)
                                                  f 0.00(  0.10%)
                            0.097%  C   17 s( 23.18%)p 3.22( 74.58%)d 0.08(  1.86%)
                                                  f 0.02(  0.38%)
                            0.024%  O   18 s(  3.17%)p28.91( 91.69%)d 1.58(  5.01%)
                                                  f 0.04(  0.13%)
                            0.033%  C   19 s( 44.07%)p 1.19( 52.45%)d 0.06(  2.72%)
                                                  f 0.02(  0.77%)
                            0.010%  H   32 s( 62.83%)p 0.59( 37.17%)
                           37.761%  H   34 s( 99.96%)p 0.00(  0.04%)
                            0.029%  H   39 s( 99.77%)p 0.00(  0.23%)
    30. (2.00000)  99.1120%  BD ( 1) C  11 H  35      
                            0.021%  C    7 s(  9.41%)p 9.47( 89.11%)d 0.10(  0.92%)
                                                  f 0.06(  0.56%)
                            0.278%  N    8 s( 38.21%)p 1.56( 59.71%)d 0.05(  1.80%)
                                                  f 0.01(  0.28%)
                            0.456%  C    9 s(  9.71%)p 8.70( 84.50%)d 0.58(  5.62%)
                                                  f 0.02(  0.16%)
                            0.023%  C   10 s( 57.26%)p 0.46( 26.53%)d 0.24( 13.50%)
                                                  f 0.05(  2.71%)
                           60.652%  C   11 s( 22.52%)p 3.43( 77.32%)d 0.01(  0.15%)
                                                  f 0.00(  0.01%)
                            0.017%  C   12 s( 47.64%)p 0.66( 31.33%)d 0.36( 17.16%)
                                                  f 0.08(  3.88%)
                            0.029%  C   13 s( 13.96%)p 6.00( 83.76%)d 0.15(  2.13%)
                                                  f 0.01(  0.15%)
                           38.463%  H   35 s( 99.97%)p 0.00(  0.03%)
    31. (2.00000)  99.2938%  BD ( 1) C  11 H  36      
                            0.022%  N    8 s( 36.90%)p 1.30( 47.81%)d 0.37( 13.75%)
                                                  f 0.04(  1.53%)
                            0.295%  C    9 s(  4.93%)p17.79( 87.69%)d 1.45(  7.16%)
                                                  f 0.05(  0.22%)
                            0.257%  C   10 s( 30.18%)p 2.22( 67.01%)d 0.07(  2.24%)
                                                  f 0.02(  0.57%)
                           60.646%  C   11 s( 22.79%)p 3.38( 77.05%)d 0.01(  0.15%)
                                                  f 0.00(  0.01%)
                            0.029%  C   12 s( 46.37%)p 0.84( 38.77%)d 0.28( 12.80%)
                                                  f 0.04(  2.06%)
                            0.019%  C   17 s(  3.24%)p28.07( 90.93%)d 1.66(  5.39%)
                                                  f 0.14(  0.45%)
                            0.018%  H   32 s( 99.92%)p 0.00(  0.08%)
                           38.650%  H   36 s( 99.97%)p 0.00(  0.03%)
                            0.011%  H   38 s( 96.85%)p 0.03(  3.15%)
    32. (2.00000)  99.0172%  BD ( 1) C  11 H  37      
                            0.038%  N    8 s( 63.72%)p 0.43( 27.09%)d 0.13(  8.52%)
                                                  f 0.01(  0.67%)
                            0.269%  C    9 s(  2.08%)p43.99( 91.58%)d 2.92(  6.07%)
                                                  f 0.13(  0.27%)
                            0.012%  C   10 s( 24.10%)p 1.81( 43.63%)d 1.20( 28.85%)
                                                  f 0.14(  3.42%)
                           60.895%  C   11 s( 24.02%)p 3.16( 75.82%)d 0.01(  0.15%)
                                                  f 0.00(  0.01%)
                            0.215%  C   12 s( 33.07%)p 1.96( 64.81%)d 0.05(  1.60%)
                                                  f 0.02(  0.52%)
                            0.042%  C   13 s( 27.85%)p 2.40( 66.76%)d 0.19(  5.29%)
                                                  f 0.00(  0.11%)
                            0.067% Ni   14 s( 11.51%)p 4.53( 52.11%)d 3.16( 36.38%)
                                                  f 0.00(  0.00%)
                            0.191%  C   17 s(  3.51%)p26.52( 92.99%)d 0.94(  3.29%)
                                                  f 0.06(  0.21%)
                            0.057%  O   18 s(  1.42%)p66.68( 94.71%)d 2.66(  3.78%)
                                                  f 0.07(  0.10%)
                            0.011%  C   19 s( 77.52%)p 0.26( 20.34%)d 0.02(  1.73%)
                                                  f 0.01(  0.41%)
                           38.125%  H   37 s( 99.97%)p 0.00(  0.03%)
                            0.028%  H   38 s( 99.81%)p 0.00(  0.19%)
    33. (2.00000)  99.3560%  BD ( 1) C  12 H  38      
                            0.019%  C    6 s( 14.31%)p 5.67( 81.18%)d 0.30(  4.33%)
                                                  f 0.01(  0.19%)
                            0.045%  C    7 s(  8.52%)p 9.91( 84.44%)d 0.79(  6.75%)
                                                  f 0.03(  0.29%)
                            0.030%  N    8 s( 58.42%)p 0.51( 29.72%)d 0.18( 10.69%)
                                                  f 0.02(  1.17%)
                            0.250%  C    9 s(  4.32%)p20.29( 87.76%)d 1.78(  7.70%)
                                                  f 0.05(  0.21%)
                            0.017%  C   10 s( 44.91%)p 0.74( 33.20%)d 0.42( 19.07%)
                                                  f 0.06(  2.81%)
                            0.202%  C   11 s( 30.92%)p 2.15( 66.45%)d 0.06(  1.98%)
                                                  f 0.02(  0.66%)
                           60.942%  C   12 s( 23.40%)p 3.27( 76.44%)d 0.01(  0.15%)
                                                  f 0.00(  0.01%)
                            0.023%  H   37 s( 99.63%)p 0.00(  0.37%)
                           38.415%  H   38 s( 99.97%)p 0.00(  0.03%)
    34. (2.00000)  99.3657%  BD ( 1) C  12 H  39      
                            0.021%  C    6 s( 18.41%)p 4.18( 76.93%)d 0.24(  4.45%)
                                                  f 0.01(  0.21%)
                            0.054%  C    7 s( 12.18%)p 6.66( 81.12%)d 0.53(  6.42%)
                                                  f 0.02(  0.28%)
                            0.026%  N    8 s( 61.28%)p 0.45( 27.61%)d 0.16(  9.87%)
                                                  f 0.02(  1.24%)
                            0.235%  C    9 s(  4.44%)p19.66( 87.37%)d 1.80(  7.98%)
                                                  f 0.05(  0.21%)
                            0.193%  C   10 s( 30.29%)p 2.21( 66.99%)d 0.07(  2.03%)
                                                  f 0.02(  0.69%)
                            0.020%  C   11 s( 50.17%)p 0.57( 28.72%)d 0.37( 18.66%)
                                                  f 0.05(  2.45%)
                           60.868%  C   12 s( 23.47%)p 3.25( 76.38%)d 0.01(  0.15%)
                                                  f 0.00(  0.01%)
                            0.015%  H   31 s( 92.95%)p 0.08(  7.05%)
                            0.022%  H   34 s( 99.52%)p 0.00(  0.48%)
                           38.499%  H   39 s( 99.97%)p 0.00(  0.03%)
    35. (2.00000)  99.0002%  BD ( 1) C  12 H  40      
                            0.014%  C    7 s( 81.63%)p 0.18( 14.42%)d 0.03(  2.46%)
                                                  f 0.02(  1.50%)
                            0.310%  N    8 s( 44.82%)p 1.18( 52.77%)d 0.05(  2.25%)
                                                  f 0.00(  0.16%)
                            0.535%  C    9 s(  8.40%)p10.36( 86.98%)d 0.53(  4.47%)
                                                  f 0.02(  0.16%)
                            0.021%  C   10 s( 43.25%)p 0.81( 34.95%)d 0.42( 18.24%)
                                                  f 0.08(  3.56%)
                            0.017%  C   11 s( 35.92%)p 1.10( 39.52%)d 0.57( 20.52%)
                                                  f 0.11(  4.05%)
                           61.102%  C   12 s( 22.01%)p 3.54( 77.83%)d 0.01(  0.16%)
                                                  f 0.00(  0.01%)
                            0.028%  C   13 s( 51.68%)p 0.91( 46.91%)d 0.03(  1.32%)
                                                  f 0.00(  0.08%)
                            0.012%  H   34 s( 97.91%)p 0.02(  2.09%)
                            0.010%  H   37 s( 98.41%)p 0.02(  1.59%)
                           37.907%  H   40 s( 99.97%)p 0.00(  0.03%)
    36. (2.00000)  93.9307%  BD ( 1) C  13Ni  14      
                            0.024%  C    1 s(  3.87%)p23.37( 90.44%)d 1.34(  5.20%)
                                                  f 0.13(  0.49%)
                            0.060%  C    2 s( 70.12%)p 0.37( 26.24%)d 0.05(  3.43%)
                                                  f 0.00(  0.22%)
                            0.032%  C    3 s(  6.06%)p14.63( 88.62%)d 0.85(  5.16%)
                                                  f 0.03(  0.16%)
                            0.019%  C    4 s( 15.25%)p 5.49( 83.77%)d 0.05(  0.83%)
                                                  f 0.01(  0.15%)
                            0.401%  N    5 s( 22.94%)p 2.97( 68.16%)d 0.37(  8.57%)
                                                  f 0.01(  0.32%)
                            0.568%  C    6 s( 41.53%)p 1.39( 57.68%)d 0.02(  0.77%)
                                                  f 0.00(  0.02%)
                            0.568%  C    7 s( 41.53%)p 1.39( 57.68%)d 0.02(  0.77%)
                                                  f 0.00(  0.02%)
                            0.401%  N    8 s( 22.85%)p 2.99( 68.26%)d 0.37(  8.57%)
                                                  f 0.01(  0.32%)
                            0.060%  C    9 s( 70.10%)p 0.37( 26.26%)d 0.05(  3.42%)
                                                  f 0.00(  0.22%)
                            0.024%  C   10 s(  3.92%)p23.03( 90.37%)d 1.33(  5.21%)
                                                  f 0.13(  0.49%)
                            0.032%  C   11 s(  6.03%)p14.71( 88.65%)d 0.86(  5.16%)
                                                  f 0.03(  0.16%)
                            0.019%  C   12 s( 15.24%)p 5.50( 83.78%)d 0.05(  0.83%)
                                                  f 0.01(  0.15%)
                           72.967%  C   13 s( 45.60%)p 1.19( 54.39%)d 0.00(  0.01%)
                                                  f 0.00(  0.00%)
                           21.422% Ni   14 s( 21.44%)p 3.19( 68.36%)d 0.48( 10.20%)
                                                  f 0.00(  0.00%)
                            0.762%  C   15 s(  0.58%)p99.99( 99.02%)d 0.47(  0.27%)
                                                  f 0.21(  0.12%)
                            0.235%  O   16 s(  5.43%)p17.31( 94.07%)d 0.09(  0.46%)
                                                  f 0.01(  0.03%)
                            0.760%  C   17 s(  0.62%)p99.99( 98.99%)d 0.44(  0.27%)
                                                  f 0.20(  0.12%)
                            0.235%  O   18 s(  5.46%)p17.24( 94.05%)d 0.09(  0.46%)
                                                  f 0.01(  0.03%)
                            0.990%  C   19 s(  1.01%)p97.96( 98.71%)d 0.20(  0.20%)
                                                  f 0.08(  0.08%)
                            0.300%  O   20 s(  4.41%)p21.57( 95.08%)d 0.11(  0.49%)
                                                  f 0.01(  0.03%)
                            0.012%  H   26 s( 98.13%)p 0.02(  1.87%)
                            0.031%  H   30 s( 99.36%)p 0.01(  0.64%)
                            0.031%  H   31 s( 99.36%)p 0.01(  0.64%)
                            0.012%  H   37 s( 98.14%)p 0.02(  1.86%)
    37. (2.00000)  96.9074%  BD ( 1)Ni  14 C  15      
                            0.048%  C    1 s( 37.02%)p 1.63( 60.30%)d 0.07(  2.56%)
                                                  f 0.00(  0.12%)
                            0.057%  C    3 s( 29.48%)p 2.29( 67.58%)d 0.10(  2.82%)
                                                  f 0.00(  0.13%)
                            0.031%  N    8 s( 37.12%)p 1.66( 61.75%)d 0.03(  1.00%)
                                                  f 0.00(  0.12%)
                            0.011%  C   10 s( 20.62%)p 3.74( 77.22%)d 0.09(  1.94%)
                                                  f 0.01(  0.22%)
                            0.093%  C   13 s(  0.30%)p99.99( 97.86%)d 5.91(  1.79%)
                                                  f 0.14(  0.04%)
                           23.773% Ni   14 s( 24.45%)p 2.87( 70.16%)d 0.22(  5.39%)
                                                  f 0.00(  0.00%)
                           73.359%  C   15 s( 72.26%)p 0.38( 27.69%)d 0.00(  0.04%)
                                                  f 0.00(  0.02%)
                            0.172%  O   16 s( 78.66%)p 0.20( 15.61%)d 0.07(  5.71%)
                                                  f 0.00(  0.01%)
                            0.985%  C   17 s(  0.83%)p99.99( 98.73%)d 0.39(  0.33%)
                                                  f 0.13(  0.11%)
                            0.305%  O   18 s(  4.56%)p20.76( 94.74%)d 0.14(  0.66%)
                                                  f 0.01(  0.04%)
                            0.742%  C   19 s(  1.50%)p65.34( 98.03%)d 0.22(  0.32%)
                                                  f 0.09(  0.14%)
                            0.234%  O   20 s(  5.16%)p18.24( 94.20%)d 0.12(  0.60%)
                                                  f 0.01(  0.04%)
                            0.061%  H   22 s( 99.10%)p 0.01(  0.90%)
                            0.073%  H   26 s( 99.32%)p 0.01(  0.68%)
                            0.013%  H   34 s( 99.81%)p 0.00(  0.19%)
    38. (2.00000)  96.8906%  BD ( 1)Ni  14 C  17      
                            0.012%  C    1 s( 21.14%)p 3.63( 76.75%)d 0.09(  1.90%)
                                                  f 0.01(  0.21%)
                            0.031%  N    5 s( 37.31%)p 1.65( 61.56%)d 0.03(  1.01%)
                                                  f 0.00(  0.12%)
                            0.048%  C   10 s( 36.79%)p 1.64( 60.51%)d 0.07(  2.58%)
                                                  f 0.00(  0.12%)
                            0.057%  C   11 s( 29.40%)p 2.30( 67.64%)d 0.10(  2.83%)
                                                  f 0.00(  0.13%)
                            0.093%  C   13 s(  0.27%)p99.99( 97.93%)d 6.58(  1.76%)
                                                  f 0.16(  0.04%)
                           23.754% Ni   14 s( 23.91%)p 2.96( 70.77%)d 0.22(  5.32%)
                                                  f 0.00(  0.00%)
                            0.984%  C   15 s(  2.98%)p32.37( 96.59%)d 0.11(  0.32%)
                                                  f 0.03(  0.10%)
                            0.307%  O   16 s(  4.63%)p20.44( 94.67%)d 0.14(  0.65%)
                                                  f 0.01(  0.04%)
                           73.355%  C   17 s( 72.30%)p 0.38( 27.65%)d 0.00(  0.04%)
                                                  f 0.00(  0.02%)
                            0.174%  O   18 s( 78.11%)p 0.21( 16.21%)d 0.07(  5.66%)
                                                  f 0.00(  0.01%)
                            0.754%  C   19 s(  1.43%)p68.65( 98.11%)d 0.23(  0.32%)
                                                  f 0.10(  0.14%)
                            0.238%  O   20 s(  4.97%)p19.00( 94.40%)d 0.12(  0.60%)
                                                  f 0.01(  0.04%)
                            0.014%  H   22 s( 99.80%)p 0.00(  0.20%)
                            0.063%  H   34 s( 99.11%)p 0.01(  0.89%)
                            0.074%  H   37 s( 99.33%)p 0.01(  0.67%)
    39. (2.00000)  96.6913%  BD ( 1)Ni  14 C  19      
                            0.022%  C    1 s( 28.06%)p 2.42( 67.93%)d 0.14(  3.92%)
                                                  f 0.00(  0.09%)
                            0.062%  N    5 s(  2.37%)p41.09( 97.20%)d 0.16(  0.37%)
                                                  f 0.03(  0.07%)
                            0.013%  C    6 s(  2.19%)p43.45( 95.01%)d 1.19(  2.61%)
                                                  f 0.09(  0.19%)
                            0.012%  C    7 s(  2.53%)p37.30( 94.29%)d 1.18(  2.98%)
                                                  f 0.08(  0.21%)
                            0.070%  N    8 s(  1.93%)p50.53( 97.68%)d 0.17(  0.33%)
                                                  f 0.03(  0.06%)
                            0.022%  C   10 s( 27.66%)p 2.47( 68.32%)d 0.14(  3.93%)
                                                  f 0.00(  0.09%)
                            0.275%  C   13 s(  0.28%)p99.99( 98.68%)d 3.72(  1.03%)
                                                  f 0.05(  0.01%)
                           24.573% Ni   14 s( 24.24%)p 2.84( 68.89%)d 0.28(  6.86%)
                                                  f 0.00(  0.00%)
                            0.883%  C   15 s(  1.22%)p80.86( 98.30%)d 0.30(  0.37%)
                                                  f 0.10(  0.12%)
                            0.291%  O   16 s(  4.80%)p19.70( 94.55%)d 0.13(  0.61%)
                                                  f 0.01(  0.04%)
                            0.884%  C   17 s(  1.23%)p79.72( 98.28%)d 0.30(  0.37%)
                                                  f 0.10(  0.12%)
                            0.291%  O   18 s(  4.80%)p19.71( 94.55%)d 0.13(  0.61%)
                                                  f 0.01(  0.04%)
                           72.367%  C   19 s( 71.67%)p 0.39( 28.27%)d 0.00(  0.04%)
                                                  f 0.00(  0.02%)
                            0.153%  O   20 s( 83.30%)p 0.13( 10.75%)d 0.07(  5.94%)
                                                  f 0.00(  0.01%)
                            0.027%  H   22 s( 98.55%)p 0.01(  1.45%)
                            0.027%  H   34 s( 98.55%)p 0.01(  1.45%)
    40. (2.00000)  99.9002%  BD ( 1) C  15 O  16      
                            0.029% Ni   14 s( 15.27%)p 2.17( 33.08%)d 3.37( 51.51%)
                                                  f 0.01(  0.14%)
                           29.397%  C   15 s( 33.62%)p 1.97( 66.24%)d 0.00(  0.11%)
                                                  f 0.00(  0.03%)
                           70.525%  O   16 s( 45.03%)p 1.20( 54.25%)d 0.02(  0.69%)
                                                  f 0.00(  0.03%)
                            0.013%  C   17 s(  0.57%)p99.99( 95.22%)d 6.30(  3.61%)
                                                  f 1.04(  0.60%)
                            0.011%  C   19 s(  3.34%)p27.18( 90.75%)d 1.61(  5.38%)
                                                  f 0.16(  0.53%)
    41. (2.00000)  99.8780%  BD ( 2) C  15 O  16      
                            0.077% Ni   14 s(  0.35%)p99.99( 37.46%)d99.99( 62.14%)
                                                  f 0.15(  0.05%)
                           23.927%  C   15 s(  0.13%)p99.99( 99.65%)d 1.59(  0.21%)
                                                  f 0.01(  0.00%)
                           75.953%  O   16 s(  0.08%)p99.99( 99.45%)d 6.01(  0.45%)
                                                  f 0.29(  0.02%)
                            0.014%  C   17 s( 65.01%)p 0.52( 33.58%)d 0.02(  1.21%)
                                                  f 0.00(  0.19%)
    42. (2.00000)  99.8570%  BD ( 3) C  15 O  16      
                            0.078% Ni   14 s(  0.67%)p56.12( 37.67%)d91.80( 61.62%)
                                                  f 0.06(  0.04%)
                           24.015%  C   15 s(  1.78%)p54.91( 98.01%)d 0.12(  0.21%)
                                                  f 0.00(  0.00%)
                           75.858%  O   16 s(  2.25%)p43.17( 97.26%)d 0.21(  0.46%)
                                                  f 0.01(  0.02%)
                            0.011%  C   19 s( 46.91%)p 1.11( 51.96%)d 0.02(  0.87%)
                                                  f 0.01(  0.26%)
                            0.012%  H   26 s( 98.34%)p 0.02(  1.66%)
    43. (2.00000)  99.9003%  BD ( 1) C  17 O  18      
                            0.029% Ni   14 s( 15.30%)p 2.15( 32.97%)d 3.37( 51.58%)
                                                  f 0.01(  0.14%)
                            0.013%  C   15 s(  0.48%)p99.99( 95.28%)d 7.59(  3.64%)
                                                  f 1.25(  0.60%)
                           29.397%  C   17 s( 33.63%)p 1.97( 66.23%)d 0.00(  0.11%)
                                                  f 0.00(  0.03%)
                           70.524%  O   18 s( 45.06%)p 1.20( 54.22%)d 0.02(  0.69%)
                                                  f 0.00(  0.03%)
                            0.011%  C   19 s(  3.34%)p27.15( 90.75%)d 1.61(  5.38%)
                                                  f 0.16(  0.53%)
    44. (2.00000)  99.8781%  BD ( 2) C  17 O  18      
                            0.077% Ni   14 s(  0.35%)p99.99( 37.46%)d99.99( 62.14%)
                                                  f 0.15(  0.05%)
                            0.014%  C   15 s( 64.95%)p 0.52( 33.65%)d 0.02(  1.21%)
                                                  f 0.00(  0.19%)
                           23.926%  C   17 s(  0.13%)p99.99( 99.66%)d 1.63(  0.21%)
                                                  f 0.01(  0.00%)
                           75.954%  O   18 s(  0.07%)p99.99( 99.45%)d 6.25(  0.45%)
                                                  f 0.31(  0.02%)
    45. (2.00000)  99.8571%  BD ( 3) C  17 O  18      
                            0.078% Ni   14 s(  0.67%)p56.38( 37.65%)d92.32( 61.64%)
                                                  f 0.06(  0.04%)
                           24.016%  C   17 s(  1.78%)p55.08( 98.01%)d 0.12(  0.21%)
                                                  f 0.00(  0.00%)
                           75.858%  O   18 s(  2.25%)p43.28( 97.27%)d 0.21(  0.46%)
                                                  f 0.01(  0.02%)
                            0.011%  C   19 s( 47.12%)p 1.10( 51.76%)d 0.02(  0.86%)
                                                  f 0.01(  0.26%)
                            0.012%  H   37 s( 98.34%)p 0.02(  1.66%)
    46. (2.00000)  99.9242%  BD ( 1) C  19 O  20      
                            0.029% Ni   14 s( 17.75%)p 0.91( 16.21%)d 3.71( 65.81%)
                                                  f 0.01(  0.23%)
                            0.012%  C   15 s(  6.37%)p14.46( 92.14%)d 0.20(  1.25%)
                                                  f 0.04(  0.24%)
                            0.012%  C   17 s(  6.33%)p14.57( 92.18%)d 0.20(  1.25%)
                                                  f 0.04(  0.25%)
                           29.920%  C   19 s( 35.22%)p 1.84( 64.65%)d 0.00(  0.11%)
                                                  f 0.00(  0.03%)
                           70.009%  O   20 s( 46.96%)p 1.11( 52.31%)d 0.01(  0.70%)
                                                  f 0.00(  0.02%)
    47. (2.00000)  99.8905%  BD ( 2) C  19 O  20      
                            0.012%  C   13 s( 49.53%)p 0.93( 45.85%)d 0.09(  4.43%)
                                                  f 0.00(  0.19%)
                            0.080% Ni   14 s(  2.00%)p18.40( 36.70%)d30.70( 61.25%)
                                                  f 0.03(  0.05%)
                           23.645%  C   19 s(  0.01%)p99.99( 99.77%)d15.28(  0.21%)
                                                  f 0.05(  0.00%)
                           76.245%  O   20 s(  0.01%)p99.99( 99.51%)d34.18(  0.45%)
                                                  f 1.67(  0.02%)
    48. (2.00000)  99.8707%  BD ( 3) C  19 O  20      
                            0.090% Ni   14 s(  0.00%)p 1.00( 40.71%)d 1.46( 59.25%)
                                                  f 0.00(  0.05%)
                            0.012%  C   15 s( 64.97%)p 0.51( 33.15%)d 0.02(  1.39%)
                                                  f 0.01(  0.49%)
                            0.012%  C   17 s( 65.08%)p 0.51( 33.03%)d 0.02(  1.41%)
                                                  f 0.01(  0.49%)
                           23.714%  C   19 s(  0.00%)p 1.00( 99.79%)d 0.00(  0.21%)
                                                  f 0.00(  0.00%)
                           76.156%  O   20 s(  0.00%)p 1.00( 99.53%)d 0.00(  0.45%)
                                                  f 0.00(  0.02%)
    49. (2.00000)  99.9683%  CR ( 1) C   1            
                           99.969%  C    1 s(100.00%)p 0.00(  0.00%)d 0.00(  0.00%)
                                                  f 0.00(  0.00%)
                            0.014%  C    2 s( 18.80%)p 4.12( 77.49%)d 0.17(  3.29%)
                                                  f 0.02(  0.42%)
    50. (2.00000)  99.9679%  CR ( 1) C   2            
                           99.971%  C    2 s(100.00%)p 0.00(  0.00%)d 0.00(  0.00%)
                                                  f 0.00(  0.00%)
    51. (2.00000)  99.9688%  CR ( 1) C   3            
                            0.014%  C    2 s( 18.55%)p 4.17( 77.34%)d 0.19(  3.61%)
                                                  f 0.03(  0.50%)
                           99.970%  C    3 s(100.00%)p 0.00(  0.00%)d 0.00(  0.00%)
                                                  f 0.00(  0.00%)
    52. (2.00000)  99.9706%  CR ( 1) C   4            
                            0.014%  C    2 s( 18.71%)p 4.09( 76.63%)d 0.22(  4.17%)
                                                  f 0.03(  0.49%)
                           99.972%  C    4 s(100.00%)p 0.00(  0.00%)d 0.00(  0.00%)
                                                  f 0.00(  0.00%)
    53. (2.00000)  99.9688%  CR ( 1) N   5            
                           99.972%  N    5 s(100.00%)p 0.00(  0.00%)d 0.00(  0.00%)
                                                  f 0.00(  0.00%)
    54. (2.00000)  99.9518%  CR ( 1) C   6            
                            0.013%  N    5 s( 30.12%)p 2.05( 61.69%)d 0.25(  7.43%)
                                                  f 0.03(  0.76%)
                           99.957%  C    6 s( 99.99%)p 0.00(  0.00%)d 0.00(  0.00%)
                                                  f 0.00(  0.00%)
                            0.017%  C    7 s( 12.92%)p 6.39( 82.53%)d 0.32(  4.08%)
                                                  f 0.04(  0.46%)
    55. (2.00000)  99.9518%  CR ( 1) C   7            
                            0.017%  C    6 s( 12.93%)p 6.39( 82.53%)d 0.32(  4.08%)
                                                  f 0.04(  0.46%)
                           99.957%  C    7 s( 99.99%)p 0.00(  0.00%)d 0.00(  0.00%)
                                                  f 0.00(  0.00%)
                            0.013%  N    8 s( 30.12%)p 2.05( 61.69%)d 0.25(  7.43%)
                                                  f 0.03(  0.76%)
    56. (2.00000)  99.9688%  CR ( 1) N   8            
                           99.972%  N    8 s(100.00%)p 0.00(  0.00%)d 0.00(  0.00%)
                                                  f 0.00(  0.00%)
    57. (2.00000)  99.9679%  CR ( 1) C   9            
                           99.971%  C    9 s(100.00%)p 0.00(  0.00%)d 0.00(  0.00%)
                                                  f 0.00(  0.00%)
    58. (2.00000)  99.9683%  CR ( 1) C  10            
                            0.014%  C    9 s( 18.80%)p 4.12( 77.49%)d 0.17(  3.29%)
                                                  f 0.02(  0.42%)
                           99.969%  C   10 s(100.00%)p 0.00(  0.00%)d 0.00(  0.00%)
                                                  f 0.00(  0.00%)
    59. (2.00000)  99.9688%  CR ( 1) C  11            
                            0.014%  C    9 s( 18.55%)p 4.17( 77.34%)d 0.19(  3.61%)
                                                  f 0.03(  0.50%)
                           99.970%  C   11 s(100.00%)p 0.00(  0.00%)d 0.00(  0.00%)
                                                  f 0.00(  0.00%)
    60. (2.00000)  99.9706%  CR ( 1) C  12            
                            0.014%  C    9 s( 18.71%)p 4.09( 76.63%)d 0.22(  4.17%)
                                                  f 0.03(  0.49%)
                           99.972%  C   12 s(100.00%)p 0.00(  0.00%)d 0.00(  0.00%)
                                                  f 0.00(  0.00%)
    61. (2.00000)  99.9538%  CR ( 1) C  13            
                            0.011%  N    5 s( 23.97%)p 2.89( 69.23%)d 0.26(  6.13%)
                                                  f 0.03(  0.66%)
                            0.011%  N    8 s( 23.97%)p 2.89( 69.23%)d 0.26(  6.13%)
                                                  f 0.03(  0.66%)
                           99.954%  C   13 s(100.00%)p 0.00(  0.00%)d 0.00(  0.00%)
                                                  f 0.00(  0.00%)
    62. (2.00000)  99.5428%  CR ( 1)Ni  14            
                            0.029%  C   13 s( 60.31%)p 0.66( 39.52%)d 0.00(  0.17%)
                                                  f 0.00(  0.00%)
                           99.560% Ni   14 s( 99.99%)p 0.00(  0.01%)d 0.00(  0.00%)
                                                  f 0.00(  0.00%)
                            0.104%  C   15 s( 19.90%)p 4.02( 79.97%)d 0.01(  0.12%)
                                                  f 0.00(  0.01%)
                            0.031%  O   16 s( 55.30%)p 0.79( 43.71%)d 0.02(  0.97%)
                                                  f 0.00(  0.02%)
                            0.104%  C   17 s( 19.88%)p 4.02( 80.00%)d 0.01(  0.12%)
                                                  f 0.00(  0.01%)
                            0.031%  O   18 s( 55.31%)p 0.79( 43.70%)d 0.02(  0.97%)
                                                  f 0.00(  0.02%)
                            0.094%  C   19 s( 26.61%)p 2.75( 73.24%)d 0.01(  0.14%)
                                                  f 0.00(  0.02%)
                            0.029%  O   20 s( 58.04%)p 0.70( 40.85%)d 0.02(  1.09%)
                                                  f 0.00(  0.02%)
    63. (2.00000)  99.8765%  CR ( 2)Ni  14            
                           99.878% Ni   14 s(  0.00%)p 1.00(100.00%)d 0.00(  0.00%)
                                                  f 0.00(  0.00%)
                            0.044%  C   15 s( 23.64%)p 3.18( 75.17%)d 0.05(  1.13%)
                                                  f 0.00(  0.06%)
                            0.012%  O   16 s( 53.21%)p 0.86( 45.75%)d 0.02(  1.02%)
                                                  f 0.00(  0.01%)
                            0.044%  C   17 s( 23.64%)p 3.18( 75.17%)d 0.05(  1.13%)
                                                  f 0.00(  0.06%)
                            0.012%  O   18 s( 53.22%)p 0.86( 45.74%)d 0.02(  1.02%)
                                                  f 0.00(  0.01%)
    64. (2.00000)  99.9196%  CR ( 3)Ni  14            
                            0.019%  C   13 s( 57.65%)p 0.71( 41.06%)d 0.02(  0.92%)
                                                  f 0.01(  0.37%)
                           99.931% Ni   14 s(  0.01%)p 1.00( 99.99%)d 0.00(  0.00%)
                                                  f 0.00(  0.00%)
                            0.013%  C   15 s(  8.02%)p11.26( 90.32%)d 0.18(  1.44%)
                                                  f 0.03(  0.23%)
                            0.013%  C   17 s(  7.96%)p11.36( 90.38%)d 0.18(  1.44%)
                                                  f 0.03(  0.23%)
    65. (2.00000)  99.8748%  CR ( 4)Ni  14            
                           99.879% Ni   14 s(  0.00%)p 1.00(100.00%)d 0.00(  0.00%)
                                                  f 0.00(  0.00%)
                            0.014%  C   15 s( 18.70%)p 4.27( 79.89%)d 0.06(  1.16%)
                                                  f 0.01(  0.25%)
                            0.014%  C   17 s( 18.74%)p 4.26( 79.85%)d 0.06(  1.16%)
                                                  f 0.01(  0.25%)
                            0.065%  C   19 s( 19.97%)p 3.95( 78.82%)d 0.06(  1.17%)
                                                  f 0.00(  0.04%)
                            0.017%  O   20 s( 57.90%)p 0.71( 41.23%)d 0.01(  0.87%)
                                                  f 0.00(  0.00%)
    66. (2.00000)  99.9541%  CR ( 1) C  15            
                            0.015% Ni   14 s(  5.95%)p15.16( 90.29%)d 0.63(  3.73%)
                                                  f 0.00(  0.02%)
                           99.962%  C   15 s( 99.99%)p 0.00(  0.01%)d 0.00(  0.00%)
                                                  f 0.00(  0.00%)
                            0.011%  O   16 s( 10.39%)p 5.63( 58.49%)d 2.89( 29.98%)
                                                  f 0.11(  1.15%)
    67. (2.00000)  99.9885%  CR ( 1) O  16            
                           99.990%  O   16 s(100.00%)p 0.00(  0.00%)d 0.00(  0.00%)
                                                  f 0.00(  0.00%)
    68. (2.00000)  99.9541%  CR ( 1) C  17            
                            0.015% Ni   14 s(  5.95%)p15.17( 90.28%)d 0.63(  3.75%)
                                                  f 0.00(  0.02%)
                           99.962%  C   17 s( 99.99%)p 0.00(  0.01%)d 0.00(  0.00%)
                                                  f 0.00(  0.00%)
                            0.011%  O   18 s( 10.38%)p 5.64( 58.49%)d 2.89( 29.98%)
                                                  f 0.11(  1.15%)
    69. (2.00000)  99.9885%  CR ( 1) O  18            
                           99.990%  O   18 s(100.00%)p 0.00(  0.00%)d 0.00(  0.00%)
                                                  f 0.00(  0.00%)
    70. (2.00000)  99.9548%  CR ( 1) C  19            
                            0.014% Ni   14 s(  8.40%)p10.30( 86.55%)d 0.60(  5.02%)
                                                  f 0.00(  0.03%)
                           99.962%  C   19 s( 99.99%)p 0.00(  0.01%)d 0.00(  0.00%)
                                                  f 0.00(  0.00%)
                            0.010%  O   20 s( 10.57%)p 5.44( 57.47%)d 2.93( 30.92%)
                                                  f 0.10(  1.04%)
    71. (2.00000)  99.9882%  CR ( 1) O  20            
                           99.990%  O   20 s(100.00%)p 0.00(  0.00%)d 0.00(  0.00%)
                                                  f 0.00(  0.00%)
    72. (2.00000)  74.6078%  LP ( 1) N   5            
                            0.199%  C    1 s( 37.20%)p 1.54( 57.28%)d 0.13(  4.75%)
                                                  f 0.02(  0.78%)
                            0.388%  C    2 s(  0.24%)p99.99( 95.53%)d16.38(  3.97%)
                                                  f 1.09(  0.26%)
                            0.240%  C    3 s( 36.09%)p 1.62( 58.34%)d 0.13(  4.81%)
                                                  f 0.02(  0.76%)
                           74.614%  N    5 s(  0.01%)p 1.00( 99.94%)d 0.00(  0.03%)
                                                  f 0.00(  0.02%)
                            4.489%  C    6 s(  0.01%)p 1.00( 99.17%)d 0.01(  0.82%)
                                                  f 0.00(  0.01%)
                            4.364%  C    7 s(  0.00%)p 1.00( 99.76%)d 0.00(  0.23%)
                                                  f 0.00(  0.01%)
                            3.655%  N    8 s(  0.02%)p99.99( 99.57%)d25.53(  0.39%)
                                                  f 1.82(  0.03%)
                            0.070%  C    9 s(  0.13%)p99.99( 98.11%)d12.57(  1.68%)
                                                  f 0.59(  0.08%)
                            0.031%  C   10 s( 39.41%)p 1.44( 56.75%)d 0.08(  3.15%)
                                                  f 0.02(  0.70%)
                            0.034%  C   11 s( 42.12%)p 1.28( 53.88%)d 0.08(  3.26%)
                                                  f 0.02(  0.74%)
                           11.750%  C   13 s(  0.08%)p99.99( 99.53%)d 4.51(  0.38%)
                                                  f 0.04(  0.00%)
                            0.026% Ni   14 s(  0.07%)p99.99( 57.60%)d99.99( 42.27%)
                                                  f 0.80(  0.06%)
                            0.030%  H   23 s( 99.73%)p 0.00(  0.27%)
                            0.048%  H   25 s( 99.89%)p 0.00(  0.11%)
    73. (2.00000)  94.8987%  LP ( 1)Ni  14            
                            0.018%  C    1 s( 33.33%)p 1.79( 59.55%)d 0.21(  6.86%)
                                                  f 0.01(  0.26%)
                            0.014%  C    3 s( 29.82%)p 2.11( 62.82%)d 0.23(  6.94%)
                                                  f 0.01(  0.41%)
                            0.049%  N    5 s( 50.95%)p 0.90( 45.97%)d 0.06(  2.86%)
                                                  f 0.00(  0.22%)
                            0.049%  N    8 s( 50.89%)p 0.90( 46.03%)d 0.06(  2.86%)
                                                  f 0.00(  0.22%)
                            0.018%  C   10 s( 33.44%)p 1.78( 59.42%)d 0.21(  6.87%)
                                                  f 0.01(  0.26%)
                            0.014%  C   11 s( 29.67%)p 2.12( 62.95%)d 0.23(  6.97%)
                                                  f 0.01(  0.41%)
                            0.226%  C   13 s(  0.00%)p 1.00( 86.77%)d 0.15( 12.87%)
                                                  f 0.00(  0.36%)
                           94.916% Ni   14 s(  0.00%)p 1.00(  0.55%)d99.99( 99.45%)
                                                  f 0.00(  0.00%)
                            1.725%  C   15 s(  7.54%)p12.22( 92.09%)d 0.04(  0.33%)
                                                  f 0.01(  0.05%)
                            0.523%  O   16 s(  2.42%)p40.27( 97.27%)d 0.12(  0.28%)
                                                  f 0.01(  0.03%)
                            1.736%  C   17 s(  7.58%)p12.14( 92.04%)d 0.04(  0.33%)
                                                  f 0.01(  0.05%)
                            0.527%  O   18 s(  2.51%)p38.76( 97.18%)d 0.11(  0.28%)
                                                  f 0.01(  0.03%)
                            0.070%  C   19 s(  0.01%)p 1.00( 91.45%)d 0.09(  8.22%)
                                                  f 0.00(  0.33%)
                            0.020%  H   22 s( 96.79%)p 0.03(  3.21%)
                            0.014%  H   26 s( 96.46%)p 0.04(  3.54%)
                            0.020%  H   34 s( 96.78%)p 0.03(  3.22%)
                            0.014%  H   37 s( 96.50%)p 0.04(  3.50%)
    74. (2.00000)  94.0127%  LP ( 2)Ni  14            
                            0.011%  C    3 s(  3.74%)p24.48( 91.62%)d 1.18(  4.41%)
                                                  f 0.06(  0.23%)
                            0.181%  N    5 s(  0.35%)p99.99( 98.69%)d 2.42(  0.86%)
                                                  f 0.27(  0.10%)
                            0.036%  C    6 s(  0.28%)p99.99( 98.29%)d 4.59(  1.28%)
                                                  f 0.54(  0.15%)
                            0.032%  C    7 s(  0.30%)p99.99( 98.05%)d 4.91(  1.48%)
                                                  f 0.55(  0.16%)
                            0.205%  N    8 s(  0.41%)p99.99( 98.74%)d 1.88(  0.76%)
                                                  f 0.22(  0.09%)
                            0.013%  C   11 s(  4.89%)p18.66( 91.24%)d 0.75(  3.67%)
                                                  f 0.04(  0.20%)
                            0.733%  C   13 s(  1.51%)p64.28( 97.15%)d 0.83(  1.26%)
                                                  f 0.06(  0.08%)
                           94.074% Ni   14 s(  0.01%)p59.11(  0.86%)d99.99( 99.13%)
                                                  f 0.02(  0.00%)
                            0.371%  C   15 s( 30.81%)p 2.20( 67.88%)d 0.04(  1.15%)
                                                  f 0.01(  0.16%)
                            0.073%  O   16 s( 11.24%)p 7.76( 87.18%)d 0.14(  1.52%)
                                                  f 0.01(  0.06%)
                            0.361%  C   17 s( 31.15%)p 2.17( 67.50%)d 0.04(  1.18%)
                                                  f 0.01(  0.17%)
                            0.070%  O   18 s( 11.52%)p 7.54( 86.84%)d 0.14(  1.58%)
                                                  f 0.01(  0.06%)
                            2.909%  C   19 s(  5.18%)p18.26( 94.51%)d 0.06(  0.29%)
                                                  f 0.00(  0.03%)
                            0.883%  O   20 s(  1.73%)p56.49( 97.96%)d 0.16(  0.27%)
                                                  f 0.02(  0.03%)
    75. (2.00000)  90.5081%  LP ( 3)Ni  14            
                            0.048%  C    1 s( 24.42%)p 2.92( 71.42%)d 0.16(  3.90%)
                                                  f 0.01(  0.26%)
                            0.012%  C    3 s( 29.51%)p 2.33( 68.90%)d 0.04(  1.28%)
                                                  f 0.01(  0.31%)
                            0.013%  N    5 s( 40.76%)p 1.43( 58.13%)d 0.02(  0.97%)
                                                  f 0.00(  0.13%)
                            0.013%  N    8 s( 40.47%)p 1.44( 58.43%)d 0.02(  0.97%)
                                                  f 0.00(  0.13%)
                            0.046%  C   10 s( 23.97%)p 3.00( 71.97%)d 0.16(  3.81%)
                                                  f 0.01(  0.25%)
                            0.012%  C   11 s( 29.32%)p 2.36( 69.05%)d 0.05(  1.32%)
                                                  f 0.01(  0.30%)
                            0.035%  C   13 s(  0.05%)p99.99( 97.90%)d41.52(  2.01%)
                                                  f 0.99(  0.05%)
                           90.559% Ni   14 s(  0.00%)p 1.00(  2.45%)d39.89( 97.55%)
                                                  f 0.00(  0.00%)
                            1.248%  C   15 s( 10.90%)p 8.12( 88.52%)d 0.05(  0.53%)
                                                  f 0.00(  0.05%)
                            0.350%  O   16 s(  4.53%)p20.99( 95.05%)d 0.08(  0.38%)
                                                  f 0.01(  0.04%)
                            1.129%  C   17 s( 12.33%)p 7.06( 87.04%)d 0.05(  0.57%)
                                                  f 0.00(  0.06%)
                            0.308%  O   18 s(  5.43%)p17.33( 94.13%)d 0.07(  0.40%)
                                                  f 0.01(  0.04%)
                            4.547%  C   19 s(  0.00%)p 1.00( 99.71%)d 0.00(  0.26%)
                                                  f 0.00(  0.03%)
                            1.476%  O   20 s(  0.00%)p 1.00( 99.67%)d 0.00(  0.30%)
                                                  f 0.00(  0.03%)
                            0.066%  H   22 s( 98.33%)p 0.02(  1.67%)
                            0.026%  H   26 s( 99.74%)p 0.00(  0.26%)
                            0.062%  H   34 s( 98.36%)p 0.02(  1.64%)
                            0.027%  H   37 s( 99.73%)p 0.00(  0.27%)
    76. (2.00000)  90.4189%  LP ( 4)Ni  14            
                            0.024%  C    1 s( 13.40%)p 6.10( 81.67%)d 0.33(  4.42%)
                                                  f 0.04(  0.52%)
                            0.026%  C   10 s( 14.71%)p 5.46( 80.24%)d 0.31(  4.53%)
                                                  f 0.04(  0.52%)
                            0.072%  C   13 s( 43.71%)p 0.91( 39.88%)d 0.37( 16.10%)
                                                  f 0.01(  0.31%)
                           90.457% Ni   14 s(  0.03%)p64.06(  1.69%)d99.99( 98.28%)
                                                  f 0.02(  0.00%)
                            3.363%  C   15 s(  1.20%)p82.21( 98.45%)d 0.28(  0.33%)
                                                  f 0.02(  0.02%)
                            1.097%  O   16 s(  0.68%)p99.99( 98.94%)d 0.51(  0.35%)
                                                  f 0.05(  0.04%)
                            3.488%  C   17 s(  0.99%)p99.73( 98.66%)d 0.33(  0.33%)
                                                  f 0.02(  0.02%)
                            1.140%  O   18 s(  0.58%)p99.99( 99.04%)d 0.59(  0.34%)
                                                  f 0.06(  0.04%)
                            0.205%  C   19 s( 47.11%)p 1.06( 50.11%)d 0.05(  2.52%)
                                                  f 0.01(  0.26%)
                            0.022%  O   20 s( 41.95%)p 1.33( 55.74%)d 0.05(  2.21%)
                                                  f 0.00(  0.10%)
                            0.023%  H   22 s( 94.99%)p 0.05(  5.01%)
                            0.026%  H   34 s( 95.31%)p 0.05(  4.69%)
    77. (2.00000)  87.3786%  LP ( 5)Ni  14            
                            0.014%  C    2 s( 39.32%)p 1.44( 56.50%)d 0.10(  3.96%)
                                                  f 0.01(  0.22%)
                            0.017%  C    3 s(  8.07%)p10.85( 87.59%)d 0.51(  4.12%)
                                                  f 0.03(  0.22%)
                            0.034%  N    5 s( 18.27%)p 4.25( 77.67%)d 0.21(  3.75%)
                                                  f 0.02(  0.31%)
                            0.012%  C    6 s( 28.20%)p 2.33( 65.63%)d 0.21(  5.94%)
                                                  f 0.01(  0.22%)
                            0.011%  C    7 s( 29.43%)p 2.18( 64.16%)d 0.21(  6.18%)
                                                  f 0.01(  0.23%)
                            0.037%  N    8 s( 16.54%)p 4.82( 79.74%)d 0.21(  3.43%)
                                                  f 0.02(  0.29%)
                            0.014%  C    9 s( 39.18%)p 1.44( 56.62%)d 0.10(  3.98%)
                                                  f 0.01(  0.22%)
                            0.018%  C   11 s(  7.94%)p11.06( 87.75%)d 0.52(  4.10%)
                                                  f 0.03(  0.22%)
                            0.236%  C   13 s( 33.88%)p 1.60( 54.18%)d 0.35( 11.70%)
                                                  f 0.01(  0.24%)
                           87.509% Ni   14 s(  0.02%)p99.99(  3.93%)d99.99( 96.05%)
                                                  f 0.02(  0.00%)
                            3.520%  C   15 s(  0.02%)p99.99( 99.64%)d16.04(  0.30%)
                                                  f 1.96(  0.04%)
                            1.175%  O   16 s(  0.03%)p99.99( 99.65%)d 9.16(  0.29%)
                                                  f 0.91(  0.03%)
                            3.518%  C   17 s(  0.02%)p99.99( 99.64%)d13.96(  0.30%)
                                                  f 1.71(  0.04%)
                            1.175%  O   18 s(  0.03%)p99.99( 99.65%)d 9.30(  0.29%)
                                                  f 0.92(  0.03%)
                            2.049%  C   19 s(  9.98%)p 8.98( 89.59%)d 0.04(  0.39%)
                                                  f 0.00(  0.04%)
                            0.595%  O   20 s(  3.58%)p26.83( 96.08%)d 0.09(  0.31%)
                                                  f 0.01(  0.03%)
                            0.014%  H   26 s( 99.08%)p 0.01(  0.92%)
                            0.014%  H   37 s( 99.08%)p 0.01(  0.92%)
    78. (2.00000)  98.8959%  LP ( 1) O  16            
                            0.205% Ni   14 s( 25.39%)p 2.48( 63.01%)d 0.46( 11.59%)
                                                  f 0.00(  0.01%)
                            0.855%  C   15 s( 37.21%)p 1.68( 62.41%)d 0.01(  0.20%)
                                                  f 0.00(  0.18%)
                           98.896%  O   16 s( 52.20%)p 0.91( 47.64%)d 0.00(  0.15%)
                                                  f 0.00(  0.00%)
                            0.013%  C   17 s(  2.23%)p43.68( 97.43%)d 0.12(  0.26%)
                                                  f 0.04(  0.08%)
                            0.011%  C   19 s(  1.61%)p60.71( 97.82%)d 0.31(  0.51%)
                                                  f 0.04(  0.06%)
    79. (2.00000)  98.8956%  LP ( 1) O  18            
                            0.205% Ni   14 s( 25.47%)p 2.47( 63.00%)d 0.45( 11.52%)
                                                  f 0.00(  0.01%)
                            0.013%  C   15 s(  2.04%)p47.96( 97.62%)d 0.13(  0.26%)
                                                  f 0.04(  0.08%)
                            0.856%  C   17 s( 37.26%)p 1.67( 62.36%)d 0.01(  0.20%)
                                                  f 0.00(  0.18%)
                           98.896%  O   18 s( 52.19%)p 0.91( 47.66%)d 0.00(  0.15%)
                                                  f 0.00(  0.00%)
                            0.011%  C   19 s(  1.61%)p60.59( 97.82%)d 0.31(  0.50%)
                                                  f 0.04(  0.06%)
    80. (2.00000)  98.9238%  LP ( 1) O  20            
                            0.204% Ni   14 s( 25.43%)p 2.41( 61.36%)d 0.52( 13.20%)
                                                  f 0.00(  0.01%)
                            0.012%  C   15 s(  1.43%)p68.63( 98.33%)d 0.14(  0.20%)
                                                  f 0.03(  0.04%)
                            0.012%  C   17 s(  1.42%)p69.06( 98.34%)d 0.14(  0.20%)
                                                  f 0.03(  0.04%)
                            0.832%  C   19 s( 36.48%)p 1.73( 63.10%)d 0.01(  0.25%)
                                                  f 0.00(  0.16%)
                           98.924%  O   20 s( 52.92%)p 0.89( 46.94%)d 0.00(  0.14%)
                                                  f 0.00(  0.00%)

 ========================================================================
                   Natural Chemical Shielding Analysis
 ========================================================================

 Contributions to Isotropic shielding for atom    1 (   154.8078 ppm):
                         Standard Origin              Atomic Origin
 NLMO      Total    Paramagnetic  Diamagnetic   Paramagnetic  Diamagnetic
    1     -14.1945      -23.6261       9.4317       -20.5622       6.3677
    2      -7.5548      -17.2419       9.6871       -19.0934      11.5386
    3      -3.1535      -22.3375      19.1840       -15.1238      11.9703
    4     -16.5029      -17.4984       0.9955       -27.8191      11.3162
    5      -1.1975       -1.2922       0.0947        -1.6035       0.4059
    6      -1.7990       -1.6443      -0.1547        -2.5805       0.7816
    7       0.8547       -0.2335       1.0882        -0.1731       1.0278
    8      -0.5635       -1.0634       0.4999        -1.0109       0.4474
    9      -0.4305       -1.1346       0.7042        -1.1487       0.7183
   11      -0.3306       -1.3781       1.0475        -1.0720       0.7414
   12      -0.4296       -1.7816       1.3520        -1.2715       0.8419
   13      -0.6636       -1.5166       0.8530        -1.0004       0.3368
   49     203.6058        0.0100     203.5958         0.0108     203.5950
   72      -1.4202       -1.4089      -0.0113        -2.4497       1.0295
 Sum      156.2204      -92.1472     248.3676       -94.8980     251.1184

 Contributions to Isotropic shielding for atom    2 (   120.8977 ppm):
                         Standard Origin              Atomic Origin
 NLMO      Total    Paramagnetic  Diamagnetic   Paramagnetic  Diamagnetic
    1     -22.1624      -28.9435       6.7811       -28.8506       6.6882
    2      -0.3336       -1.3502       1.0166        -1.4892       1.1556
    3      -0.8468       -1.4039       0.5571        -1.9752       1.1284
    4       1.0913       -0.7111       1.8024        -0.0666       1.1578
    5     -23.4473      -28.9282       5.4809       -29.9173       6.4700
    6     -29.5669      -27.6974      -1.8695       -36.9613       7.3944
    7      -1.7519      -15.0368      13.2849        -7.8384       6.0865
    8      -0.1222       -1.1919       1.0697        -1.2745       1.1523
    9       0.8897       -0.8503       1.7401        -0.2715       1.1612
   10      -0.9297       -1.5749       0.6453        -2.0952       1.1656
   11       0.4842       -0.4504       0.9346        -0.6019       1.0861
   12       0.3054       -1.6296       1.9350        -1.0043       1.3096
   13       0.9549       -0.0469       1.0018        -0.1017       1.0566
   14      -2.5399       -1.6108      -0.9291        -2.8770       0.3372
   15      -0.5282       -1.1035       0.5753        -0.5608       0.0326
   16      -0.6415       -1.2943       0.6528        -0.6644       0.0229
   17      -0.1666       -1.0139       0.8473        -0.4120       0.2453
   50     203.5695        0.0368     203.5327         0.0648     203.5047
   72       0.1245       -1.2641       1.3886        -1.7550       1.8796
 Sum      124.3825     -116.0648     240.4474      -118.6520     243.0346

 Contributions to Isotropic shielding for atom    3 (   154.6910 ppm):
                         Standard Origin              Atomic Origin
 NLMO      Total    Paramagnetic  Diamagnetic   Paramagnetic  Diamagnetic
    1      -1.1798       -1.2688       0.0890        -1.5946       0.4148
    2      -0.6401       -1.1264       0.4863        -1.0895       0.4493
    5     -14.6315      -24.7976      10.1660       -21.2248       6.5933
    6      -2.0297       -1.7237      -0.3061        -2.7698       0.7401
    7       0.6523       -0.3443       0.9965        -0.3797       1.0320
    8      -7.8038      -16.1617       8.3579       -19.5156      11.7117
    9     -16.7317      -18.3073       1.5756       -28.0045      11.2728
   10      -2.1338      -21.4730      19.3391       -14.1157      11.9819
   11      -0.6597       -1.5882       0.9286        -1.0297       0.3700
   12      -0.1883       -1.4069       1.2186        -0.9879       0.7996
   13      -0.4046       -1.4435       1.0388        -1.1433       0.7387
   51     203.6077        0.0110     203.5966         0.0120     203.5956
   72      -1.8439       -1.6644      -0.1794        -2.8555       1.0117
 Sum      156.0129      -91.2946     247.3075       -94.6986     250.7115

 Contributions to Isotropic shielding for atom    4 (   151.2809 ppm):
                         Standard Origin              Atomic Origin
 NLMO      Total    Paramagnetic  Diamagnetic   Paramagnetic  Diamagnetic
    1      -2.4235       -1.9313      -0.4922        -3.0560       0.6325
    3      -0.4495       -1.2667       0.8172        -0.8304       0.3809
    5      -2.5564       -2.0440      -0.5124        -3.1574       0.6010
    6     -17.8640      -30.9024      13.0384       -23.9030       6.0390
    7      -2.1897       -1.5914      -0.5983        -3.1237       0.9340
    8      -0.3244       -0.7498       0.4254        -1.1812       0.8568
   10      -0.4465       -1.3286       0.8821        -0.8467       0.4003
   11      -8.4011      -17.8507       9.4496       -19.9523      11.5512
   12      -5.9942       -9.8603       3.8660       -18.2293      12.2350
   13      -9.9723      -17.5663       7.5940       -21.5428      11.5706
   14      -1.0237       -0.1079      -0.9158        -2.2365       1.2128
   18      -1.1383       -1.4215       0.2832        -1.6290       0.4907
   52     203.6208        0.0180     203.6028         0.0226     203.5982
 Sum      150.8372      -86.6029     237.4401       -99.6659     250.5031

 Contributions to Isotropic shielding for atom    5 (    12.2221 ppm):
                         Standard Origin              Atomic Origin
 NLMO      Total    Paramagnetic  Diamagnetic   Paramagnetic  Diamagnetic
    2      -0.9674       -1.7466       0.7792        -1.8150       0.8475
    4      -1.2087       -1.5245       0.3159        -1.7964       0.5878
    7     -54.8353      -60.6128       5.7776       -63.9642       9.1290
    8      -0.7603       -1.5977       0.8375        -1.6009       0.8407
    9      -1.5815       -1.9624       0.3809        -2.1222       0.5407
   10      -0.6235       -1.3025       0.6790        -1.3918       0.7683
   11      -0.8755       -1.9246       1.0491        -1.5624       0.6869
   12      -0.7226       -1.7348       1.0121        -1.3522       0.6296
   13      -0.6323       -1.6058       0.9735        -1.2817       0.6494
   14     -78.5179      -80.0425       1.5247       -86.7634       8.2455
   15     -67.4465      -84.9958      17.5493       -76.4459       8.9994
   16      -1.8780       -3.1947       1.3167        -2.4465       0.5685
   17       0.9097       -3.0866       3.9963        -1.2640       2.1737
   18      -2.9347       -3.9896       1.0549        -4.0245       1.0898
   19      -2.2921       -3.3574       1.0653        -3.7140       1.4219
   20      -1.0846       -1.3368       0.2522        -1.4878       0.4031
   21      -1.1765       -1.0215      -0.1550        -0.9832      -0.1933
   22      -2.9818       -2.5986      -0.3832        -3.9659       0.9841
   23      -0.1613       -0.6313       0.4700        -2.3519       2.1906
   36     -10.1375      -10.9973       0.8598        -9.7092      -0.4283
   53     239.7573       -0.0119     239.7692        -0.0112     239.7685
   72       6.3979      -20.6884      27.0863       -20.5210      26.9189
 Sum       16.2469     -289.9643     306.2112      -290.5753     306.8222

 Contributions to Isotropic shielding for atom    6 (    61.6868 ppm):
                         Standard Origin              Atomic Origin
 NLMO      Total    Paramagnetic  Diamagnetic   Paramagnetic  Diamagnetic
    7      -3.1392       -3.7555       0.6163        -3.5193       0.3801
   13      -0.1794       -1.0354       0.8560        -0.8161       0.6366
   14     -27.9868      -43.8142      15.8274       -34.6304       6.6436
   15      -1.9713       -1.9011      -0.0702        -2.4897       0.5184
   16     -54.3657      -65.7559      11.3902       -61.3584       6.9927
   17       0.3943      -15.7786      16.1729       -15.7012      16.0955
   18     -48.3248      -49.8313       1.5066       -60.7896      12.4649
   19      -0.4763       -1.9232       1.4469        -1.5168       1.0406
   20      -3.1873       -5.2627       2.0754        -4.6349       1.4476
   22      -1.5404       -0.8273      -0.7131        -2.7022       1.1617
   23       1.5407        0.8427       0.6980        -1.2046       2.7453
   36      -2.8707       -2.6176      -0.2532        -2.5639      -0.3069
   54     203.6033       -0.0004     203.6037        -0.0062     203.6096
   72       1.7826       -2.1773       3.9599        -1.4570       3.2396
 Sum       63.2790     -193.8378     257.1168      -193.3904     256.6694

 Contributions to Isotropic shielding for atom    7 (    61.6922 ppm):
                         Standard Origin              Atomic Origin
 NLMO      Total    Paramagnetic  Diamagnetic   Paramagnetic  Diamagnetic
   14      -0.4698       -1.9151       1.4453        -1.5111       1.0414
   15      -1.5394       -0.8269      -0.7125        -2.7011       1.1617
   16     -54.3646      -65.7561      11.3916       -61.3574       6.9929
   17       0.3996      -15.8700      16.2695       -15.8274      16.2270
   18      -3.1883       -5.2642       2.0759        -4.6360       1.4477
   19     -27.9914      -43.8245      15.8330       -34.6350       6.6436
   20     -48.3211      -49.8289       1.5078       -60.7864      12.4653
   21      -3.1425       -3.7589       0.6164        -3.5211       0.3786
   22      -1.9718       -1.9013      -0.0705        -2.4899       0.5181
   23      -0.3308       -2.6547       2.3239        -3.4115       3.0807
   34      -0.1788       -1.0334       0.8546        -0.8173       0.6385
   36      -2.8700       -2.6174      -0.2526        -2.5628      -0.3072
   55     203.6033       -0.0004     203.6037        -0.0062     203.6095
   72       3.6365        1.3992       2.2373         0.8704       2.7660
 Sum       63.2708     -193.8526     257.1234      -193.3931     256.6639

 Contributions to Isotropic shielding for atom    8 (    12.2224 ppm):
                         Standard Origin              Atomic Origin
 NLMO      Total    Paramagnetic  Diamagnetic   Paramagnetic  Diamagnetic
    7      -1.1785       -1.0229      -0.1556        -0.9856      -0.1928
   14      -2.2881       -3.3553       1.0672        -3.7098       1.4216
   15      -2.9835       -2.6008      -0.3827        -3.9677       0.9841
   16      -1.8783       -3.1953       1.3170        -2.4470       0.5687
   17       0.6837       -3.3566       4.0403        -1.5381       2.2218
   18      -1.0853       -1.3374       0.2521        -1.4884       0.4031
   19     -78.4819      -80.0066       1.5246       -86.7263       8.2444
   20      -2.9341       -3.9895       1.0553        -4.0241       1.0900
   21     -54.7846      -60.5589       5.7743       -63.9049       9.1203
   22     -67.4499      -84.9995      17.5496       -76.4485       8.9986
   23       2.0066      -24.1454      26.1521       -24.1279      26.1346
   27      -0.9604       -1.7395       0.7791        -1.8077       0.8473
   28      -1.2007       -1.5170       0.3162        -1.7881       0.5874
   30      -1.5903       -1.9708       0.3804        -2.1313       0.5410
   31      -0.7632       -1.6006       0.8374        -1.6040       0.8408
   32      -0.6273       -1.3061       0.6788        -1.3966       0.7693
   33      -0.8184       -1.8660       1.0476        -1.5056       0.6872
   34      -0.6087       -1.5840       0.9753        -1.2596       0.6508
   35      -0.7223       -1.7350       1.0127        -1.3523       0.6300
   36     -10.1362      -10.9956       0.8594        -9.7059      -0.4303
   56     239.7573       -0.0119     239.7692        -0.0112     239.7685
   72       4.3284        2.9926       1.3358         1.4270       2.9014
 Sum       16.2843     -289.9019     306.1862      -290.5035     306.7878

 Contributions to Isotropic shielding for atom    9 (   120.8999 ppm):
                         Standard Origin              Atomic Origin
 NLMO      Total    Paramagnetic  Diamagnetic   Paramagnetic  Diamagnetic
   16      -0.6417       -1.2946       0.6529        -0.6647       0.0230
   17      -0.1985       -1.0264       0.8279        -0.4386       0.2401
   19      -2.5396       -1.6101      -0.9296        -2.8762       0.3366
   21      -1.7611      -15.0451      13.2840        -7.8499       6.0888
   22      -0.5280       -1.1032       0.5752        -0.5607       0.0327
   23       0.5546       -0.9906       1.5452        -1.2570       1.8116
   24     -22.1855      -28.9625       6.7770       -28.8837       6.6983
   25     -23.4176      -28.9145       5.4969       -29.8990       6.4814
   26     -29.5661      -27.6970      -1.8691       -36.9613       7.3952
   27      -0.3320       -1.3485       1.0166        -1.4878       1.1558
   28       1.0888       -0.7139       1.8027        -0.0699       1.1587
   29      -0.8482       -1.4049       0.5567        -1.9764       1.1282
   30       0.8912       -0.8479       1.7391        -0.2689       1.1601
   31      -0.1225       -1.1919       1.0694        -1.2745       1.1521
   32      -0.9282       -1.5739       0.6458        -2.0939       1.1657
   33       0.4897       -0.4475       0.9372        -0.5990       1.0888
   34       0.9543       -0.0485       1.0028        -0.1045       1.0588
   35       0.3048       -1.6306       1.9355        -1.0050       1.3098
   57     203.5696        0.0368     203.5327         0.0648     203.5048
 Sum      124.7841     -115.8149     240.5990      -118.2065     242.9906

 Contributions to Isotropic shielding for atom   10 (   154.8171 ppm):
                         Standard Origin              Atomic Origin
 NLMO      Total    Paramagnetic  Diamagnetic   Paramagnetic  Diamagnetic
   21       0.8670       -0.2302       1.0971        -0.1606       1.0276
   23      -1.0963       -1.2463       0.1500        -2.2710       1.1747
   24     -14.1676      -23.6041       9.4365       -20.5336       6.3660
   25      -1.1919       -1.2886       0.0968        -1.5997       0.4078
   26      -1.7996       -1.6446      -0.1550        -2.5812       0.7816
   27      -7.5515      -17.2290       9.6775       -19.0913      11.5399
   28     -16.4808      -17.4807       0.9998       -27.7963      11.3155
   29      -3.1481      -22.3367      19.1886       -15.1164      11.9683
   30      -0.4308       -1.1342       0.7034        -1.1488       0.7179
   31      -0.5636       -1.0632       0.4996        -1.0108       0.4472
   33      -0.3354       -1.3844       1.0490        -1.0801       0.7448
   34      -0.6661       -1.5219       0.8558        -1.0054       0.3394
   35      -0.4276       -1.7790       1.3514        -1.2694       0.8418
   58     203.6058        0.0100     203.5958         0.0108     203.5950
 Sum      156.6136      -91.9328     248.5464       -94.6539     251.2675

 Contributions to Isotropic shielding for atom   11 (   154.6923 ppm):
                         Standard Origin              Atomic Origin
 NLMO      Total    Paramagnetic  Diamagnetic   Paramagnetic  Diamagnetic
   21       0.6360       -0.3499       0.9859        -0.3972       1.0331
   23      -1.4634       -1.4409      -0.0225        -2.5954       1.1320
   24      -1.1752       -1.2656       0.0903        -1.5923       0.4170
   25     -14.6133      -24.7748      10.1615       -21.2030       6.5897
   26      -2.0288       -1.7236      -0.3051        -2.7692       0.7405
   27      -0.6398       -1.1259       0.4861        -1.0893       0.4495
   30     -16.7442      -18.3209       1.5767       -28.0167      11.2725
   31      -7.7993      -16.1594       8.3601       -19.5100      11.7106
   32      -2.1445      -21.4924      19.3479       -14.1251      11.9806
   33      -0.6636       -1.5950       0.9314        -1.0368       0.3732
   34      -0.4076       -1.4472       1.0396        -1.1490       0.7414
   35      -0.1899       -1.4096       1.2197        -0.9899       0.8000
   59     203.6077        0.0110     203.5967         0.0120     203.5957
 Sum      156.3741      -91.0942     247.4683       -94.4618     250.8360

 Contributions to Isotropic shielding for atom   12 (   151.2778 ppm):
                         Standard Origin              Atomic Origin
 NLMO      Total    Paramagnetic  Diamagnetic   Paramagnetic  Diamagnetic
   19      -1.0232       -0.1075      -0.9157        -2.2361       1.2129
   20      -1.1378       -1.4209       0.2832        -1.6285       0.4908
   21      -2.1885       -1.5901      -0.5984        -3.1237       0.9352
   24      -2.4316       -1.9363      -0.4953        -3.0683       0.6367
   25      -2.5607       -2.0457      -0.5150        -3.1652       0.6045
   26     -17.8719      -30.9097      13.0378       -23.9102       6.0384
   29      -0.4494       -1.2669       0.8175        -0.8303       0.3809
   31      -0.3248       -0.7499       0.4250        -1.1815       0.8567
   32      -0.4459       -1.3278       0.8820        -0.8460       0.4002
   33      -8.4117      -17.8497       9.4380       -19.9632      11.5515
   34      -9.9695      -17.5705       7.6010       -21.5403      11.5708
   35      -5.9846       -9.8538       3.8692       -18.2194      12.2348
   60     203.6208        0.0180     203.6028         0.0226     203.5982
 Sum      150.8214      -86.6107     237.4321       -99.6902     250.5116

 Contributions to Isotropic shielding for atom   13 (   -14.4598 ppm):
                         Standard Origin              Atomic Origin
 NLMO      Total    Paramagnetic  Diamagnetic   Paramagnetic  Diamagnetic
    7      -0.7273       -1.0541       0.3269        -1.0975       0.3703
   15     -52.8305      -57.4544       4.6239       -58.8059       5.9754
   16      -1.1316       -2.4389       1.3073        -2.0673       0.9357
   17       4.4324        0.9107       3.5218         1.4214       3.0110
   18      -1.3934       -1.7448       0.3514        -1.7400       0.3466
   20      -1.3936       -1.7452       0.3516        -1.7403       0.3467
   21      -0.7205       -1.0499       0.3294        -1.0910       0.3705
   22     -52.8211      -57.4477       4.6266       -58.7979       5.9767
   23       0.4896       -9.4091       9.8987        -9.4821       9.9717
   36     -99.0751     -107.1948       8.1196      -103.3510       4.2758
   61     203.6368       -0.0247     203.6615        -0.0276     203.6644
   72      -0.0728       -5.2722       5.1993        -5.6258       5.5530
   74      -4.5539       -4.6278       0.0739        -4.6405       0.0866
   75      -0.7974       -1.4286       0.6312        -1.5308       0.7335
   77      -1.2764       -1.8046       0.5281        -1.9450       0.6686
 Sum       -8.2348     -251.7860     243.5512      -250.5214     242.2866

 Contributions to Isotropic shielding for atom   14 ( -4050.5344 ppm):
                         Standard Origin              Atomic Origin
 NLMO      Total    Paramagnetic  Diamagnetic   Paramagnetic  Diamagnetic
    3     -13.6670      -13.7061       0.0391       -13.4615      -0.2055
   10      -3.4155       -3.4561       0.0406        -3.3527      -0.0628
   14      -1.0191       -0.9684      -0.0508        -0.9038      -0.1153
   15      -5.2461       -5.4031       0.1570        -5.5991       0.3529
   17      -2.4849       -3.2359       0.7511        -3.5483       1.0635
   19      -1.0257       -0.9748      -0.0509        -0.9103      -0.1154
   22      -5.2398       -5.3969       0.1572        -5.5929       0.3532
   23      -4.6741       -5.3078       0.6338        -5.5932       0.9191
   29     -13.5266      -13.5639       0.0373       -13.3203      -0.2062
   32      -3.0816       -3.1188       0.0373        -3.0150      -0.0665
   36       1.4757       -2.4354       3.9111        -2.4797       3.9554
   37      -9.7048      -10.9560       1.2512       -11.5819       1.8771
   38     -10.4321      -11.6064       1.1742       -12.2671       1.8350
   39      -9.0663      -10.0998       1.0335       -10.6213       1.5550
   40      -6.5154       -6.5534       0.0380        -6.6749       0.1595
   41      -2.5192       -2.9575       0.4382        -3.0577       0.5384
   42      -5.1313       -5.5277       0.3963        -5.5711       0.4397
   43      -6.5319       -6.5702       0.0383        -6.6915       0.1596
   44      -2.5184       -2.9563       0.4379        -3.0567       0.5383
   45      -5.1341       -5.5303       0.3962        -5.5740       0.4399
   46      -7.9114       -7.9631       0.0517        -7.9863       0.0749
   47      -5.8046       -6.3036       0.4991        -6.3372       0.5326
   48      -3.2936       -3.8508       0.5572        -3.8424       0.5488
   62      53.7383        0.1691      53.5692         0.1787      53.5596
   63      44.5810      -11.5694      56.1504       -10.3685      54.9495
   64      39.2258      -12.8975      52.1233       -14.2072      53.4330
   65      46.1481      -10.4313      56.5794        -9.5568      55.7049
   72      -3.6059       -3.8185       0.2126        -3.8171       0.2113
   73   -1094.4317    -1137.3362      42.9045     -1137.9884      43.5567
   74   -1183.4357    -1225.8051      42.3694     -1226.0858      42.6501
   75    -924.0938     -960.6390      36.5452      -962.3772      38.2834
   76    -538.8892     -576.3210      37.4318      -577.1655      38.2762
   77    -360.0429     -399.5036      39.4607      -397.2345      37.1915
   78      -0.7552       -1.4180       0.6628        -1.3760       0.6207
   79      -0.7393       -1.4022       0.6628        -1.3601       0.6208
   80      -1.3968       -2.0330       0.6362        -2.0287       0.6319
 Sum    -4050.1651    -4481.4479     431.2829     -4484.4259     434.2608

 Contributions to Isotropic shielding for atom   15 (   -25.6411 ppm):
                         Standard Origin              Atomic Origin
 NLMO      Total    Paramagnetic  Diamagnetic   Paramagnetic  Diamagnetic
   36      -2.1386       -2.8757       0.7372        -2.8166       0.6781
   37     -75.9527      -92.1154      16.1627       -91.5702      15.6175
   38      -1.2291       -1.8491       0.6200        -0.8764      -0.3527
   39      -1.5859       -2.0707       0.4848        -1.1938      -0.3922
   40     -89.0064      -92.7084       3.7020       -93.5064       4.5000
   41      11.2166        0.0680      11.1487        -0.4437      11.6604
   42       5.0372       -6.3126      11.3498        -6.0449      11.0821
   66     204.1755       -0.0155     204.1910        -0.0168     204.1923
   73      -6.6808       -8.3231       1.6424        -7.5036       0.8228
   74      -3.1023       -3.8805       0.7782        -4.0098       0.9074
   75      -9.5185      -10.3850       0.8665       -10.7000       1.1814
   76      -7.0988       -8.1718       1.0730        -9.0824       1.9836
   77     -14.6527      -16.1423       1.4896       -16.4752       1.8225
   78     -32.1924      -35.5099       3.3175       -35.5132       3.3208
 Sum      -22.7290     -280.2921     257.5631      -279.7529     257.0239

 Contributions to Isotropic shielding for atom   16 (   -61.1735 ppm):
                         Standard Origin              Atomic Origin
 NLMO      Total    Paramagnetic  Diamagnetic   Paramagnetic  Diamagnetic
   10      -1.9930       -1.4574      -0.5356        -1.8498      -0.1433
   36      -2.8898       -3.2023       0.3124        -3.1998       0.3100
   37     -39.1775      -42.6820       3.5045       -42.3010       3.1235
   40    -149.4103     -166.2481      16.8378      -168.7532      19.3429
   41      -7.6493      -38.6769      31.0276       -39.3826      31.7333
   42      -4.5593      -38.1881      33.6289       -35.8422      31.2829
   67     276.5795        0.0248     276.5547         0.0248     276.5547
   73       1.4782        1.1222       0.3560         1.1737       0.3045
   77     -11.9813      -11.9606      -0.0207       -12.5825       0.6012
   78    -122.1816     -152.7210      30.5395      -152.8577      30.6762
 Sum      -61.7844     -453.9895     392.2051      -455.5704     393.7860

 Contributions to Isotropic shielding for atom   17 (   -25.6194 ppm):
                         Standard Origin              Atomic Origin
 NLMO      Total    Paramagnetic  Diamagnetic   Paramagnetic  Diamagnetic
   36      -2.1384       -2.8742       0.7359        -2.8159       0.6776
   37      -1.4375       -2.0054       0.5679        -1.0709      -0.3666
   38     -75.5336      -91.7445      16.2109       -91.1582      15.6245
   39      -1.5838       -2.0690       0.4852        -1.1919      -0.3919
   43     -89.0068      -92.7140       3.7072       -93.5056       4.4988
   44      11.2160        0.0679      11.1481        -0.4454      11.6614
   45       5.0572       -6.2878      11.3450        -6.0266      11.0838
   68     204.1755       -0.0155     204.1910        -0.0168     204.1923
   73      -6.8042       -8.4515       1.6472        -7.6214       0.8172
   74      -3.0428       -3.8122       0.7694        -3.9530       0.9102
   75      -9.2098      -10.0363       0.8265       -10.3727       1.1630
   76      -7.5083       -8.6303       1.1220        -9.5177       2.0094
   77     -14.6849      -16.1734       1.4885       -16.5050       1.8201
   79     -32.2015      -35.5209       3.3194       -35.5235       3.3220
 Sum      -22.7027     -280.2670     257.5643      -279.7244     257.0217

 Contributions to Isotropic shielding for atom   18 (   -61.1254 ppm):
                         Standard Origin              Atomic Origin
 NLMO      Total    Paramagnetic  Diamagnetic   Paramagnetic  Diamagnetic
   32      -1.9830       -1.4481      -0.5349        -1.8418      -0.1412
   36      -2.8871       -3.1996       0.3124        -3.1977       0.3106
   38     -38.9690      -42.5018       3.5328       -42.0957       3.1267
   43    -149.3172     -166.1766      16.8595      -168.6616      19.3444
   44      -7.6240      -38.6550      31.0310       -39.3591      31.7351
   45      -4.6086      -38.2161      33.6075       -35.8925      31.2839
   69     276.5794        0.0248     276.5547         0.0247     276.5547
   73       1.4309        1.0727       0.3582         1.1288       0.3020
   75       1.5956        1.3031       0.2924         0.9959       0.5996
   76      -0.6539       -0.6604       0.0065        -1.2214       0.5675
   77     -12.0249      -12.0044      -0.0205       -12.6265       0.6016
   79    -122.2110     -152.7425      30.5315      -152.8812      30.6702
 Sum      -60.6727     -453.2039     392.5311      -455.6280     394.9552

 Contributions to Isotropic shielding for atom   19 (   -27.6546 ppm):
                         Standard Origin              Atomic Origin
 NLMO      Total    Paramagnetic  Diamagnetic   Paramagnetic  Diamagnetic
   36      -2.5404       -2.7226       0.1822        -3.5761       1.0357
   37      -1.6591       -2.0611       0.4020        -1.2471      -0.4120
   38      -1.7483       -2.1338       0.3854        -1.3013      -0.4470
   39     -78.7272      -94.4602      15.7330       -94.4875      15.7602
   46     -95.7982      -99.8799       4.0816      -100.0308       4.2326
   47      11.3346        0.0731      11.2615        -0.2776      11.6122
   48      12.2104        0.7510      11.4594         0.5484      11.6620
   70     204.1767       -0.0194     204.1962        -0.0201     204.1968
   73       0.1156       -0.4051       0.5207        -0.8926       1.0083
   74      -9.9051      -12.7684       2.8633       -11.2670       1.3619
   75     -15.7429      -17.5435       1.8005       -17.8533       2.1103
   76      -3.1480       -3.8133       0.6653        -4.1967       1.0488
   77     -12.5675      -11.8749      -0.6926       -13.9515       1.3840
   80     -31.1810      -34.4974       3.3164       -34.4913       3.3103
 Sum      -25.1804     -281.3555     256.1751      -283.0446     257.8642

 Contributions to Isotropic shielding for atom   20 (   -62.1345 ppm):
                         Standard Origin              Atomic Origin
 NLMO      Total    Paramagnetic  Diamagnetic   Paramagnetic  Diamagnetic
   36      -2.7976       -3.0141       0.2166        -3.2354       0.4379
   38      -1.0322       -1.1177       0.0855        -0.6393      -0.3929
   39     -38.9223      -42.3063       3.3840       -42.2972       3.3749
   46    -156.1984     -174.1493      17.9509      -174.6299      18.4315
   47      -3.5073      -35.7845      32.2772       -35.3457      31.8384
   48      -3.9535      -35.6408      31.6872       -35.7367      31.7831
   71     276.5991        0.0325     276.5666         0.0327     276.5664
   75     -10.3580      -10.6180       0.2599       -10.7829       0.4249
   77      -1.3585       -0.9767      -0.3818        -2.0458       0.6874
   80    -122.1223     -152.7528      30.6305      -152.8500      30.7277
 Sum      -63.6511     -456.3277     392.6766      -457.5303     393.8793

 Contributions to Isotropic shielding for atom   21 (    30.0745 ppm):
                         Standard Origin              Atomic Origin
 NLMO      Total    Paramagnetic  Diamagnetic   Paramagnetic  Diamagnetic
    1       1.3949        0.4694       0.9255         0.7520       0.6430
    2      25.3066        1.1928      24.1138         1.3690      23.9376
    3       2.6454       -0.5560       3.2015         0.6555       1.9899
    4       0.9512        1.5522      -0.6010        -0.9277       1.8789
    6      -0.2854       -0.0982      -0.1872        -1.2112       0.9258
    7       0.1733       -0.0923       0.2656        -0.8946       1.0679
   11      -0.0152       -1.1325       1.1173        -0.5539       0.5387
 Sum       30.1709        1.3355      28.8354        -0.8109      30.9817

 Contributions to Isotropic shielding for atom   22 (    27.3267 ppm):
                         Standard Origin              Atomic Origin
 NLMO      Total    Paramagnetic  Diamagnetic   Paramagnetic  Diamagnetic
    1       2.8363        0.5541       2.2822         2.0519       0.7844
    2       1.9738       -0.2557       2.2296        -0.1978       2.1716
    3      24.1079        0.8593      23.2485         0.5426      23.5652
    4       1.1415        0.8744       0.2671        -0.8307       1.9722
    7       0.5549       -0.4469       1.0017        -0.6080       1.1629
   15      -0.0976       -0.2086       0.1110        -1.0194       0.9218
   72      -0.2607       -0.3167       0.0560        -1.1726       0.9120
 Sum       30.2561        1.0599      29.1962        -1.2340      31.4901

 Contributions to Isotropic shielding for atom   23 (    29.9917 ppm):
                         Standard Origin              Atomic Origin
 NLMO      Total    Paramagnetic  Diamagnetic   Paramagnetic  Diamagnetic
    1      -0.4544       -0.0463      -0.4080        -1.2414       0.7870
    2       1.6574        1.3039       0.3535        -0.3532       2.0106
    3       2.2470       -0.1313       2.3783         0.2129       2.0340
    4      25.5747        1.0844      24.4904         1.6467      23.9280
    5      -0.3609        0.0820      -0.4429        -1.0891       0.7281
    6      -0.4947        0.1139      -0.6087        -1.4804       0.9857
   12       0.0690       -1.4136       1.4826        -0.5371       0.6061
   49       1.5702        0.9123       0.6578         1.7024      -0.1322
 Sum       29.8082        1.9053      27.9029        -1.1391      30.9472

 Contributions to Isotropic shielding for atom   24 (    30.0431 ppm):
                         Standard Origin              Atomic Origin
 NLMO      Total    Paramagnetic  Diamagnetic   Paramagnetic  Diamagnetic
    5       1.1398        0.2763       0.8635         0.4249       0.7149
    6      -0.4281       -0.0437      -0.3844        -1.3832       0.9550
    7       0.1334       -0.0267       0.1601        -0.9037       1.0372
    8      25.3183        1.1849      24.1334         1.4245      23.8938
    9       0.9712        1.6051      -0.6339        -0.9186       1.8898
   10       2.5263       -0.5142       3.0406         0.4337       2.0927
   13       0.0358       -1.1330       1.1688        -0.4578       0.4937
 Sum       29.6968        1.3487      28.3481        -1.3802      31.0770

 Contributions to Isotropic shielding for atom   25 (    29.9647 ppm):
                         Standard Origin              Atomic Origin
 NLMO      Total    Paramagnetic  Diamagnetic   Paramagnetic  Diamagnetic
    1      -0.4124        0.0709      -0.4833        -1.1870       0.7747
    5      -0.2785       -0.1313      -0.1471        -1.1022       0.8237
    6      -0.5259        0.1612      -0.6871        -1.4387       0.9129
    8       1.5229        1.4583       0.0646        -0.5592       2.0821
    9      25.5663        1.1511      24.4152         1.6614      23.9049
   10       2.2623       -0.1694       2.4316         0.2012       2.0611
   12       0.1041       -1.1542       1.2583        -0.5124       0.6165
   40       0.1043        0.0194       0.0849        -0.8998       1.0041
   51       1.4635        0.8419       0.6216         1.5980      -0.1346
 Sum       29.8066        2.2479      27.5588        -2.2387      32.0454

 Contributions to Isotropic shielding for atom   26 (    28.1356 ppm):
                         Standard Origin              Atomic Origin
 NLMO      Total    Paramagnetic  Diamagnetic   Paramagnetic  Diamagnetic
    5       2.9901        0.4308       2.5593         2.1763       0.8138
    7       0.5384       -0.4069       0.9452        -0.6703       1.2087
    8       1.8830       -0.1194       2.0024        -0.3113       2.1943
    9       1.1062        0.7429       0.3634        -0.8265       1.9327
   10      24.5607        1.1566      23.4041         0.8505      23.7102
   37      -0.6403        0.0108      -0.6511         0.5067      -1.1470
   40      -0.0540       -0.0762       0.0221        -1.0232       0.9692
   41       0.2423       -0.2735       0.5158        -1.0225       1.2649
   42      -0.0306       -0.3773       0.3467        -1.0537       1.0231
   72      -0.4333       -0.2738      -0.1596        -1.2553       0.8219
 Sum       30.1624        0.8140      29.3484        -2.6292      32.7916

 Contributions to Isotropic shielding for atom   27 (    29.4167 ppm):
                         Standard Origin              Atomic Origin
 NLMO      Total    Paramagnetic  Diamagnetic   Paramagnetic  Diamagnetic
    1      -0.5538        0.1901      -0.7440        -1.3290       0.7752
    6       1.8470       -0.3013       2.1482         1.3530       0.4940
    7      -0.5794        0.1586      -0.7380        -1.5530       0.9736
   11      25.2047        1.2399      23.9648         1.4334      23.7712
   12       1.4297        1.6742      -0.2445        -0.8196       2.2493
   13       1.6014        1.0354       0.5659        -0.3093       1.9106
   14      -0.4727        0.2498      -0.7224        -1.6435       1.1708
 Sum       28.4768        4.2467      24.2301        -2.8680      31.3448

 Contributions to Isotropic shielding for atom   28 (    29.6701 ppm):
                         Standard Origin              Atomic Origin
 NLMO      Total    Paramagnetic  Diamagnetic   Paramagnetic  Diamagnetic
    1      -0.8417        0.3943      -1.2360        -1.7123       0.8705
    5      -0.7546        0.4436      -1.1982        -1.5790       0.8244
   11       1.7448        1.2980       0.4468        -0.2595       2.0043
   12      24.9302        0.8649      24.0653         1.2131      23.7170
   13       1.5519        1.5129       0.0390        -0.4518       2.0037
   14      -0.3022        0.1723      -0.4745        -1.1195       0.8173
   52       1.5259        0.8606       0.6652         1.6686      -0.1427
 Sum       27.8543        5.5467      22.3076        -2.2403      30.0946

 Contributions to Isotropic shielding for atom   29 (    29.3713 ppm):
                         Standard Origin              Atomic Origin
 NLMO      Total    Paramagnetic  Diamagnetic   Paramagnetic  Diamagnetic
    5      -0.5932        0.2612      -0.8545        -1.3872       0.7940
    6       1.4677       -0.4360       1.9036         0.9578       0.5098
    7      -0.5919        0.1393      -0.7312        -1.5461       0.9542
   11       1.7163        0.8798       0.8365        -0.2114       1.9277
   12       1.3854        1.8082      -0.4228        -0.8928       2.2783
   13      25.2972        1.0990      24.1982         1.4908      23.8063
   14      -0.4980        0.2143      -0.7123        -1.6752       1.1772
 Sum       28.1834        3.9658      24.2176        -3.2640      31.4474

 Contributions to Isotropic shielding for atom   30 (    23.5291 ppm):
                         Standard Origin              Atomic Origin
 NLMO      Total    Paramagnetic  Diamagnetic   Paramagnetic  Diamagnetic
    7      -0.7434        0.1681      -0.9115        -1.4717       0.7283
   13      -0.2971       -1.3106       1.0135        -0.8913       0.5942
   14      -1.3381       -2.6857       1.3476        -2.0658       0.7278
   16      -2.8266       -2.7688      -0.0578        -3.0872       0.2605
   17       0.6880       -0.0492       0.7372        -2.6757       3.3636
   18      25.7243        2.4951      23.2292         3.2756      22.4487
   22      -0.2223       -0.0036      -0.2187        -1.0868       0.8645
   23       0.0850       -0.0862       0.1712        -1.4111       1.4961
   54       1.2363        0.6891       0.5472         1.2871      -0.0508
   72       1.3359        0.4484       0.8874         0.8147       0.5211
 Sum       23.6420       -3.1034      26.7455        -7.3121      30.9541

 Contributions to Isotropic shielding for atom   31 (    23.5292 ppm):
                         Standard Origin              Atomic Origin
 NLMO      Total    Paramagnetic  Diamagnetic   Paramagnetic  Diamagnetic
   15      -0.2221       -0.0035      -0.2185        -1.0865       0.8644
   16      -2.8263       -2.7689      -0.0574        -3.0868       0.2605
   17       0.6688       -0.0614       0.7302        -2.7314       3.4002
   19      -1.3379       -2.6867       1.3488        -2.0655       0.7276
   20      25.7236        2.4948      23.2288         3.2753      22.4483
   21      -0.7430        0.1684      -0.9114        -1.4710       0.7280
   34      -0.2984       -1.3094       1.0109        -0.8956       0.5972
   55       1.2362        0.6890       0.5472         1.2871      -0.0508
   72       0.7235        0.0827       0.6408        -0.5301       1.2536
 Sum       22.9244       -3.3949      26.3193        -7.3045      30.2289

 Contributions to Isotropic shielding for atom   32 (    30.0749 ppm):
                         Standard Origin              Atomic Origin
 NLMO      Total    Paramagnetic  Diamagnetic   Paramagnetic  Diamagnetic
   21       0.1858       -0.0882       0.2740        -0.8823       1.0681
   24       1.3922        0.4688       0.9234         0.7471       0.6451
   26      -0.2861       -0.0982      -0.1879        -1.2124       0.9263
   27      25.3065        1.1923      24.1141         1.3692      23.9372
   28       0.9526        1.5540      -0.6013        -0.9263       1.8789
   29       2.6448       -0.5563       3.2011         0.6552       1.9897
   33      -0.0133       -1.1327       1.1194        -0.5543       0.5410
 Sum       30.1826        1.3397      28.8429        -0.8038      30.9863

 Contributions to Isotropic shielding for atom   33 (    29.9918 ppm):
                         Standard Origin              Atomic Origin
 NLMO      Total    Paramagnetic  Diamagnetic   Paramagnetic  Diamagnetic
   24      -0.4518       -0.0455      -0.4063        -1.2383       0.7865
   25      -0.3616        0.0810      -0.4426        -1.0911       0.7295
   26      -0.4947        0.1140      -0.6087        -1.4799       0.9851
   27       1.6567        1.3050       0.3517        -0.3544       2.0111
   28      25.5723        1.0833      24.4890         1.6448      23.9275
   29       2.2483       -0.1321       2.3804         0.2149       2.0334
   35       0.0690       -1.4116       1.4806        -0.5375       0.6065
   58       1.5689        0.9116       0.6573         1.7012      -0.1322
 Sum       29.8071        1.9057      27.9014        -1.1404      30.9475

 Contributions to Isotropic shielding for atom   34 (    27.3286 ppm):
                         Standard Origin              Atomic Origin
 NLMO      Total    Paramagnetic  Diamagnetic   Paramagnetic  Diamagnetic
   21       0.5601       -0.4463       1.0063        -0.6032       1.1633
   22      -0.0961       -0.2079       0.1118        -1.0181       0.9220
   23       0.0766       -0.1924       0.2689        -1.1984       1.2750
   24       2.8427        0.5558       2.2869         2.0556       0.7871
   27       1.9738       -0.2550       2.2287        -0.1983       2.1721
   28       1.1435        0.8752       0.2683        -0.8284       1.9719
   29      24.1082        0.8599      23.2483         0.5431      23.5651
   38      -0.4016        0.2419      -0.6434         0.5998      -1.0013
 Sum       30.2073        1.4314      28.7759        -0.6480      30.8552

 Contributions to Isotropic shielding for atom   35 (    29.9650 ppm):
                         Standard Origin              Atomic Origin
 NLMO      Total    Paramagnetic  Diamagnetic   Paramagnetic  Diamagnetic
   24      -0.4130        0.0698      -0.4829        -1.1891       0.7760
   25      -0.2775       -0.1293      -0.1482        -1.1008       0.8233
   26      -0.5255        0.1609      -0.6865        -1.4385       0.9129
   30      25.5681        1.1520      24.4161         1.6624      23.9057
   31       1.5233        1.4580       0.0653        -0.5586       2.0819
   32       2.2619       -0.1722       2.4341         0.2018       2.0601
   35       0.1040       -1.1554       1.2594        -0.5126       0.6166
   43       0.1042        0.0196       0.0846        -0.9001       1.0043
   59       1.4634        0.8420       0.6214         1.5979      -0.1345
 Sum       29.8089        2.2455      27.5633        -2.2374      32.0463

 Contributions to Isotropic shielding for atom   36 (    30.0433 ppm):
                         Standard Origin              Atomic Origin
 NLMO      Total    Paramagnetic  Diamagnetic   Paramagnetic  Diamagnetic
   21       0.1183       -0.0320       0.1503        -0.9193       1.0376
   25       1.1374        0.2767       0.8607         0.4206       0.7168
   26      -0.4276       -0.0440      -0.3836        -1.3829       0.9553
   30       0.9712        1.6041      -0.6329        -0.9183       1.8895
   31      25.3183        1.1846      24.1337         1.4243      23.8941
   32       2.5276       -0.5160       3.0435         0.4360       2.0916
   34       0.0370       -1.1326       1.1697        -0.4591       0.4961
 Sum       29.6823        1.3409      28.3413        -1.3987      31.0810

 Contributions to Isotropic shielding for atom   37 (    28.1291 ppm):
                         Standard Origin              Atomic Origin
 NLMO      Total    Paramagnetic  Diamagnetic   Paramagnetic  Diamagnetic
   21       0.5312       -0.4081       0.9393        -0.6780       1.2092
   23      -0.1340       -0.1750       0.0409        -1.3140       1.1800
   25       2.9949        0.4341       2.5608         2.1785       0.8164
   30       1.1048        0.7410       0.3638        -0.8276       1.9324
   31       1.8834       -0.1197       2.0031        -0.3107       2.1940
   32      24.5597        1.1570      23.4027         0.8492      23.7105
   38      -0.6554        0.0094      -0.6647         0.5090      -1.1644
   43      -0.0554       -0.0764       0.0211        -1.0227       0.9673
   44       0.2402       -0.2728       0.5129        -1.0215       1.2616
   45      -0.0285       -0.3756       0.3470        -1.0520       1.0234
 Sum       30.4408        0.9139      29.5269        -2.6897      33.1305

 Contributions to Isotropic shielding for atom   38 (    29.4168 ppm):
                         Standard Origin              Atomic Origin
 NLMO      Total    Paramagnetic  Diamagnetic   Paramagnetic  Diamagnetic
   19      -0.4698        0.2498      -0.7196        -1.6413       1.1715
   21      -0.5710        0.1615      -0.7325        -1.5456       0.9746
   24      -0.5595        0.1883      -0.7477        -1.3384       0.7790
   26       1.8449       -0.3021       2.1470         1.3511       0.4938
   33      25.2041        1.2372      23.9669         1.4302      23.7738
   34       1.6022        1.0357       0.5665        -0.3091       1.9113
   35       1.4300        1.6746      -0.2446        -0.8196       2.2496
 Sum       28.4809        4.2450      24.2359        -2.8727      31.3536

 Contributions to Isotropic shielding for atom   39 (    29.3718 ppm):
                         Standard Origin              Atomic Origin
 NLMO      Total    Paramagnetic  Diamagnetic   Paramagnetic  Diamagnetic
   19      -0.5002        0.2144      -0.7146        -1.6770       1.1768
   21      -0.5990        0.1374      -0.7365        -1.5538       0.9548
   25      -0.5982        0.2582      -0.8564        -1.3950       0.7969
   26       1.4693       -0.4354       1.9047         0.9599       0.5095
   33       1.7159        0.8815       0.8344        -0.2128       1.9287
   34      25.2955        1.0981      24.1974         1.4875      23.8080
   35       1.3867        1.8078      -0.4212        -0.8913       2.2780
 Sum       28.1701        3.9621      24.2080        -3.2825      31.4526

 Contributions to Isotropic shielding for atom   40 (    29.6697 ppm):
                         Standard Origin              Atomic Origin
 NLMO      Total    Paramagnetic  Diamagnetic   Paramagnetic  Diamagnetic
   19      -0.3022        0.1724      -0.4745        -1.1196       0.8174
   24      -0.8447        0.3925      -1.2372        -1.7168       0.8721
   25      -0.7586        0.4417      -1.2002        -1.5849       0.8263
   33       1.7454        1.2993       0.4461        -0.2586       2.0041
   34       1.5538        1.5118       0.0420        -0.4496       2.0034
   35      24.9297        0.8652      24.0645         1.2125      23.7172
   60       1.5258        0.8606       0.6652         1.6685      -0.1427
 Sum       27.8493        5.5435      22.3058        -2.2485      30.0978
 
 Leave Link  607 at Wed Jul  9 17:15:10 2025, MaxMem=  6291456000 cpu:             196.2 elap:              64.5
 (Enter /share/apps/chem/gaussian-16-bin.c.02/g16/l9999.exe)
 Unable to Open any file for archive entry.
 1\1\GINC-COMPUTE-1-4\SP\RPBE1PBE\GenECP\C14H20N2Ni1O3\FERNANDO.FUENTES
 \09-Jul-2025\0\\#P PBE1PBE GenECP geom=allcheck SCRF=(solvent=tetrahyd
 rofuran,SMD) pop=NBO nmr=giao prop\\Gaussian input prepared by ASE\\0,
 1\C,0,17.438946709,13.6101741891,12.1059923299\C,0,17.0438418887,14.47
 9632037,13.311025186\C,0,17.2964263558,13.7908938375,14.6647142437\C,0
 ,17.9050354679,15.7566724641,13.2597623352\N,0,15.5783837809,14.838863
 7457,13.2278352036\C,0,15.160525715,16.1622954201,13.2502308906\C,0,13
 .7992559426,16.153069086,13.2464531284\N,0,13.3995730611,14.8240746087
 ,13.2217141951\C,0,11.9387258816,14.4448307191,13.2963378974\C,0,11.56
 24310126,13.5713998417,12.0881404185\C,0,11.6879489139,13.7513584544,1
 4.6479550033\C,0,11.0605603074,15.7100863173,13.2414743727\C,0,14.4948
 57786,13.9704069015,13.2065161856\Ni,0,14.5094681683,11.9272420798,12.
 9356330311\C,0,15.8969851746,11.0056717318,13.6284840641\O,0,16.698731
 7726,10.2498107044,14.0021529038\C,0,13.1290201598,10.986214956,13.616
 4542141\O,0,12.3346557497,10.2188922003,13.9824389549\C,0,14.517164440
 5,11.7582368847,11.1483382994\O,0,14.5219384013,11.6220823918,9.994014
 423\H,0,17.2697209109,14.1627423513,11.1597700928\H,0,16.8513618746,12
 .6772791853,12.0692924355\H,0,18.5138662897,13.3498085665,12.169885401
 3\H,0,17.105500442,14.4991961069,15.4963487455\H,0,18.3490782746,13.45
 14366814,14.7315740723\H,0,16.6372332963,12.9161205612,14.800494876\H,
 0,17.7654482784,16.3222553229,12.3168560622\H,0,18.9678014477,15.45051
 30855,13.305944767\H,0,17.7232666858,16.4311096626,14.119904377\H,0,15
 .8406064245,17.0137893842,13.2650869657\H,0,13.1075869818,16.995240335
 5,13.2575954315\H,0,11.7287833727,14.1276260651,11.1435478888\H,0,10.4
 910317313,13.2955738463,12.1459323001\H,0,12.1635460196,12.6470806828,
 12.0534166274\H,0,10.6397100363,13.3974051979,14.708578703\H,0,11.8644
 406604,14.4614623186,15.4812486404\H,0,12.3584061337,12.8856462087,14.
 7866879831\H,0,11.1973323567,16.278226762,12.2996904205\H,0,11.2287641
 634,16.3862888388,14.1029951623\H,0,10.0018182996,15.3895177647,13.281
 9090597\\Version=ES64L-G16RevC.02\State=1-A\HF=-1050.9338365\RMSD=1.58
 8e-09\Dipole=-0.0227105,3.2396174,0.3541609\Quadrupole=9.3373988,-1.87
 61647,-7.4612341,0.0703188,0.0358354,1.2156245\PG=C01 [X(C14H20N2Ni1O3
 )]\\@
 The archive entry for this job was punched.


 THE POLHOLDE ROLLS WITHOUT SLIPPING ON THE HERPOLHOLDE LYING IN
 THE INVARIABLE PLANE.
 H.GOLDSTEIN, "CLASSICAL MECHANICS", PG 161
 Job cpu time:       0 days  4 hours  0 minutes 31.3 seconds.
 Elapsed time:       0 days  0 hours 21 minutes 42.6 seconds.
 File lengths (MBytes):  RWF=    502 Int=      0 D2E=      0 Chk=     52 Scr=      1
 Normal termination of Gaussian 16 at Wed Jul  9 17:15:12 2025.
