 Entering Gaussian System, Link 0=g16
 Input=singlepoint.com
 Output=singlepoint.log
 Initial command:
 /share/apps/chem/gaussian-16-bin.c.02/g16/l1.exe "/scratch/Fernando.Fuentes/Gau-163802.inp" -scrdir="/scratch/Fernando.Fuentes/"
 Entering Link 1 = /share/apps/chem/gaussian-16-bin.c.02/g16/l1.exe PID=    163803.
  
 Copyright (c) 1988-2021, Gaussian, Inc.  All Rights Reserved.
  
 This is part of the Gaussian(R) 16 program.  It is based on
 the Gaussian(R) 09 system (copyright 2009, Gaussian, Inc.),
 the Gaussian(R) 03 system (copyright 2003, Gaussian, Inc.),
 the Gaussian(R) 98 system (copyright 1998, Gaussian, Inc.),
 the Gaussian(R) 94 system (copyright 1995, Gaussian, Inc.),
 the Gaussian 92(TM) system (copyright 1992, Gaussian, Inc.),
 the Gaussian 90(TM) system (copyright 1990, Gaussian, Inc.),
 the Gaussian 88(TM) system (copyright 1988, Gaussian, Inc.),
 the Gaussian 86(TM) system (copyright 1986, Carnegie Mellon
 University), and the Gaussian 82(TM) system (copyright 1983,
 Carnegie Mellon University). Gaussian is a federally registered
 trademark of Gaussian, Inc.
  
 This software contains proprietary and confidential information,
 including trade secrets, belonging to Gaussian, Inc.
  
 This software is provided under written license and may be
 used, copied, transmitted, or stored only in accord with that
 written license.
  
 The following legend is applicable only to US Government
 contracts under FAR:
  
                    RESTRICTED RIGHTS LEGEND
  
 Use, reproduction and disclosure by the US Government is
 subject to restrictions as set forth in subparagraphs (a)
 and (c) of the Commercial Computer Software - Restricted
 Rights clause in FAR 52.227-19.
  
 Gaussian, Inc.
 340 Quinnipiac St., Bldg. 40, Wallingford CT 06492
  
  
 ---------------------------------------------------------------
 Warning -- This program may not be used in any manner that
 competes with the business of Gaussian, Inc. or will provide
 assistance to any competitor of Gaussian, Inc.  The licensee
 of this program is prohibited from giving any competitor of
 Gaussian, Inc. access to this program.  By using this program,
 the user acknowledges that Gaussian, Inc. is engaged in the
 business of creating and licensing software in the field of
 computational chemistry and represents and warrants to the
 licensee that it is not a competitor of Gaussian, Inc. and that
 it will not use this program in any manner prohibited above.
 ---------------------------------------------------------------
  

 Cite this work as:
 Gaussian 16, Revision C.02,
 M. J. Frisch, G. W. Trucks, H. B. Schlegel, G. E. Scuseria, 
 M. A. Robb, J. R. Cheeseman, G. Scalmani, V. Barone, 
 G. A. Petersson, H. Nakatsuji, X. Li, M. Caricato, A. V. Marenich, 
 J. Bloino, B. G. Janesko, R. Gomperts, B. Mennucci, H. P. Hratchian, 
 J. V. Ortiz, A. F. Izmaylov, J. L. Sonnenberg, D. Williams-Young, 
 F. Ding, F. Lipparini, F. Egidi, J. Goings, B. Peng, A. Petrone, 
 T. Henderson, D. Ranasinghe, V. G. Zakrzewski, J. Gao, N. Rega, 
 G. Zheng, W. Liang, M. Hada, M. Ehara, K. Toyota, R. Fukuda, 
 J. Hasegawa, M. Ishida, T. Nakajima, Y. Honda, O. Kitao, H. Nakai, 
 T. Vreven, K. Throssell, J. A. Montgomery, Jr., J. E. Peralta, 
 F. Ogliaro, M. J. Bearpark, J. J. Heyd, E. N. Brothers, K. N. Kudin, 
 V. N. Staroverov, T. A. Keith, R. Kobayashi, J. Normand, 
 K. Raghavachari, A. P. Rendell, J. C. Burant, S. S. Iyengar, 
 J. Tomasi, M. Cossi, J. M. Millam, M. Klene, C. Adamo, R. Cammi, 
 J. W. Ochterski, R. L. Martin, K. Morokuma, O. Farkas, 
 J. B. Foresman, and D. J. Fox, Gaussian, Inc., Wallingford CT, 2019.
 
 ******************************************
 Gaussian 16:  ES64L-G16RevC.02  7-Dec-2021
                11-Jul-2025 
 ******************************************
 %mem=48000MB
 %chk=ligand.chk
 %nprocshared=12
 Will use up to   12 processors via shared memory.
 ----------------------------------------------------------------------
 #P PBE1PBE GenECP geom=allcheck SCRF=(solvent=tetrahydrofuran,SMD) pop
 =NBO nmr=giao prop
 ----------------------------------------------------------------------
 1/29=7,38=1,172=1/1;
 2/12=2,40=1/2;
 3/5=7,11=2,14=-4,16=1,17=8,25=1,30=1,70=32201,72=20,74=-13/1,2,3,8;
 4//1;
 5/5=2,38=5,53=20/2;
 8/6=1,10=90,11=11/1;
 10/13=100,45=16/2;
 6/7=2,8=2,9=2,10=2,28=1,40=1,64=1/1,2,7;
 99/9=1/99;
 Leave Link    1 at Fri Jul 11 10:35:27 2025, MaxMem=  6291456000 cpu:               0.2 elap:               0.1
 (Enter /share/apps/chem/gaussian-16-bin.c.02/g16/l101.exe)
 Structure from the checkpoint file:  "ligand.chk"
 ------------------------------
 Gaussian input prepared by ASE
 ------------------------------
 Charge =  0 Multiplicity = 1
 Redundant internal coordinates found in file.  (old form).
 C,0,10.5410860565,12.7940166914,12.1558941737
 C,0,12.0006940554,12.3184560221,12.0940337755
 C,0,12.7171704026,12.9619543746,10.8969601411
 C,0,12.749415322,12.6063316,13.4247426907
 C,0,12.05795942,12.069169721,14.7152186561
 C,0,11.7260299792,10.5682708676,14.7149255661
 C,0,12.8379796146,12.4485026776,15.9821432092
 N,0,14.1612236091,12.1910033571,13.3354980587
 C,0,14.5622074807,10.8891710619,13.0616005168
 C,0,15.9297540584,10.8893233979,13.0615509898
 N,0,16.3304680871,12.1912462015,13.3354159637
 C,0,17.7421900188,12.6068900271,13.4245372355
 C,0,18.4338547521,12.0699507316,14.7149915943
 C,0,17.6538573323,12.4492214674,15.9819495211
 C,0,18.7660770065,10.5691169635,14.7147732058
 C,0,18.490872586,12.3191095066,12.0937869468
 C,0,17.7741272135,12.9623423907,10.8967319223
 C,0,19.9503658485,12.7950445872,12.1554877024
 C,0,15.2457582414,13.0287944782,13.4951557566
 Ni,0,15.2455211059,15.0281392241,13.6396329599
 C,0,15.2452876914,15.5819087532,11.9310881854
 O,0,15.2451784633,15.9556789337,10.8301622727
 C,0,13.8202752443,15.6883996626,14.5106075406
 O,0,12.9471788939,16.2167846009,15.0707610994
 C,0,16.6707953972,15.6887836764,14.5102747037
 O,0,17.5438908158,16.2174400815,15.0701738244
 H,0,10.0490765264,12.6519556206,11.1725725897
 H,0,10.485881956,13.8763924733,12.3996691625
 H,0,9.9391285184,12.2462273146,12.9071490406
 H,0,11.9892527019,11.2162665873,11.9305375708
 H,0,13.7674072251,12.6225845455,10.803200126
 H,0,12.7332001192,14.0674520294,10.9892286889
 H,0,12.1961834567,12.7101242238,9.9512289291
 H,0,12.8101931195,13.7082761223,13.5316150885
 H,0,11.0921775312,12.618186329,14.7533246154
 H,0,12.6388527804,9.944155218,14.8046531298
 H,0,11.1762217943,10.246853295,13.8071331524
 H,0,11.0876432023,10.3226417688,15.5879666195
 H,0,13.8277545394,11.9475150413,16.0147632756
 H,0,12.277425813,12.1389252354,16.8875196654
 H,0,13.0146435686,13.5391039109,16.0481956721
 H,0,13.8571469282,10.0763464488,12.8730010662
 H,0,16.6349822926,10.0766564125,12.8728993465
 H,0,17.6811777548,13.7088255622,13.5313579198
 H,0,19.3995314363,12.6191599281,14.7529845255
 H,0,18.2145483481,12.1398347074,16.887306244
 H,0,16.6641898319,11.948029181,16.0146899213
 H,0,17.476968498,13.5397916347,16.0479261701
 H,0,17.8533826719,9.9448294386,14.804613492
 H,0,19.4045801458,10.3236698969,15.5877803666
 H,0,19.3158756234,10.2477464085,13.8069581791
 H,0,18.502576183,11.2169114581,11.9303665205
 H,0,16.7239683811,12.6226985333,10.8030876656
 H,0,18.2950950174,12.7105789643,9.9509722985
 H,0,17.7578234679,14.0678423733,10.9889259595
 H,0,20.0053151537,13.8774509414,12.3991844024
 H,0,20.4423256216,12.6530417869,11.1721329078
 H,0,20.5525284621,12.2474596765,12.9067271153
 Recover connectivity data from disk.
 ITRead=  0  0  0  0  0  0  0  0  0  0  0  0  0  0  0  0  0  0  0  0
 ITRead=  0  0  0  0  0  0  0  0  0  0  0  0  0  0  0  0  0  0  0  0
 ITRead=  0  0  0  0  0  0  0  0  0  0  0  0  0  0  0  0  0  0
 MicOpt= -1 -1 -1 -1 -1 -1 -1 -1 -1 -1 -1 -1 -1 -1 -1 -1 -1 -1 -1 -1
 MicOpt= -1 -1 -1 -1 -1 -1 -1 -1 -1 -1 -1 -1 -1 -1 -1 -1 -1 -1 -1 -1
 MicOpt= -1 -1 -1 -1 -1 -1 -1 -1 -1 -1 -1 -1 -1 -1 -1 -1 -1 -1
                           ----------------------------
                           !    Current Parameters    !
                           ! (Angstroms and Degrees)  !
 --------------------------                            --------------------------
 ! Name  Definition              Value                                          !
 --------------------------------------------------------------------------------
 ! R1    R(1,2)                  1.5364                                         !
 ! R2    R(1,27)                 1.1087                                         !
 ! R3    R(1,28)                 1.1109                                         !
 ! R4    R(1,29)                 1.1076                                         !
 ! R5    R(2,3)                  1.5364                                         !
 ! R6    R(2,4)                  1.5538                                         !
 ! R7    R(2,30)                 1.1143                                         !
 ! R8    R(3,31)                 1.1077                                         !
 ! R9    R(3,32)                 1.1095                                         !
 ! R10   R(3,33)                 1.1087                                         !
 ! R11   R(4,5)                  1.5595                                         !
 ! R12   R(4,8)                  1.4743                                         !
 ! R13   R(4,34)                 1.1088                                         !
 ! R14   R(5,6)                  1.5372                                         !
 ! R15   R(5,7)                  1.5354                                         !
 ! R16   R(5,35)                 1.1116                                         !
 ! R17   R(6,36)                 1.1094                                         !
 ! R18   R(6,37)                 1.1089                                         !
 ! R19   R(6,38)                 1.1091                                         !
 ! R20   R(7,39)                 1.1098                                         !
 ! R21   R(7,40)                 1.1089                                         !
 ! R22   R(7,41)                 1.1068                                         !
 ! R23   R(8,9)                  1.3895                                         !
 ! R24   R(8,19)                 1.3797                                         !
 ! R25   R(9,10)                 1.3675                                         !
 ! R26   R(9,42)                 1.0924                                         !
 ! R27   R(10,11)                1.3895                                         !
 ! R28   R(10,43)                1.0924                                         !
 ! R29   R(11,12)                1.4743                                         !
 ! R30   R(11,19)                1.3797                                         !
 ! R31   R(12,13)                1.5595                                         !
 ! R32   R(12,16)                1.5538                                         !
 ! R33   R(12,44)                1.1088                                         !
 ! R34   R(13,14)                1.5354                                         !
 ! R35   R(13,15)                1.5372                                         !
 ! R36   R(13,45)                1.1116                                         !
 ! R37   R(14,46)                1.1089                                         !
 ! R38   R(14,47)                1.1098                                         !
 ! R39   R(14,48)                1.1068                                         !
 ! R40   R(15,49)                1.1094                                         !
 ! R41   R(15,50)                1.1091                                         !
 ! R42   R(15,51)                1.1089                                         !
 ! R43   R(16,17)                1.5364                                         !
 ! R44   R(16,18)                1.5364                                         !
 ! R45   R(16,52)                1.1143                                         !
 ! R46   R(17,53)                1.1077                                         !
 ! R47   R(17,54)                1.1087                                         !
 ! R48   R(17,55)                1.1095                                         !
 ! R49   R(18,56)                1.1109                                         !
 ! R50   R(18,57)                1.1087                                         !
 ! R51   R(18,58)                1.1076                                         !
 ! R52   R(19,20)                2.0046                                         !
 ! R53   R(20,21)                1.796                                          !
 ! R54   R(20,23)                1.7961                                         !
 ! R55   R(20,25)                1.7961                                         !
 ! R56   R(21,22)                1.1626                                         !
 ! R57   R(23,24)                1.1642                                         !
 ! R58   R(25,26)                1.1642                                         !
 ! A1    A(2,1,27)             110.257                                          !
 ! A2    A(2,1,28)             110.9557                                         !
 ! A3    A(2,1,29)             112.9882                                         !
 ! A4    A(27,1,28)            107.3033                                         !
 ! A5    A(27,1,29)            107.2786                                         !
 ! A6    A(28,1,29)            107.8204                                         !
 ! A7    A(1,2,3)              110.1677                                         !
 ! A8    A(1,2,4)              111.4668                                         !
 ! A9    A(1,2,30)             107.5971                                         !
 ! A10   A(3,2,4)              111.4063                                         !
 ! A11   A(3,2,30)             107.7435                                         !
 ! A12   A(4,2,30)             108.2924                                         !
 ! A13   A(2,3,31)             112.3205                                         !
 ! A14   A(2,3,32)             111.0565                                         !
 ! A15   A(2,3,33)             110.5087                                         !
 ! A16   A(31,3,32)            107.3751                                         !
 ! A17   A(31,3,33)            107.6823                                         !
 ! A18   A(32,3,33)            107.7013                                         !
 ! A19   A(2,4,5)              115.5455                                         !
 ! A20   A(2,4,8)              110.9406                                         !
 ! A21   A(2,4,34)             107.0433                                         !
 ! A22   A(5,4,8)              112.1877                                         !
 ! A23   A(5,4,34)             106.6706                                         !
 ! A24   A(8,4,34)             103.4922                                         !
 ! A25   A(4,5,6)              115.5887                                         !
 ! A26   A(4,5,7)              111.8674                                         !
 ! A27   A(4,5,35)             104.0917                                         !
 ! A28   A(6,5,7)              110.554                                          !
 ! A29   A(6,5,35)             107.1364                                         !
 ! A30   A(7,5,35)             106.9228                                         !
 ! A31   A(5,6,36)             111.8144                                         !
 ! A32   A(5,6,37)             112.9688                                         !
 ! A33   A(5,6,38)             109.9005                                         !
 ! A34   A(36,6,37)            108.1255                                         !
 ! A35   A(36,6,38)            106.5793                                         !
 ! A36   A(37,6,38)            107.1471                                         !
 ! A37   A(5,7,39)             111.4569                                         !
 ! A38   A(5,7,40)             110.3593                                         !
 ! A39   A(5,7,41)             111.949                                          !
 ! A40   A(39,7,40)            107.5051                                         !
 ! A41   A(39,7,41)            107.4998                                         !
 ! A42   A(40,7,41)            107.881                                          !
 ! A43   A(4,8,9)              123.5198                                         !
 ! A44   A(4,8,19)             125.0758                                         !
 ! A45   A(9,8,19)             111.4009                                         !
 ! A46   A(8,9,10)             106.7678                                         !
 ! A47   A(8,9,42)             123.0188                                         !
 ! A48   A(10,9,42)            130.2026                                         !
 ! A49   A(9,10,11)            106.7678                                         !
 ! A50   A(9,10,43)            130.2027                                         !
 ! A51   A(11,10,43)           123.0188                                         !
 ! A52   A(10,11,12)           123.5197                                         !
 ! A53   A(10,11,19)           111.4009                                         !
 ! A54   A(12,11,19)           125.076                                          !
 ! A55   A(11,12,13)           112.1876                                         !
 ! A56   A(11,12,16)           110.9403                                         !
 ! A57   A(11,12,44)           103.4922                                         !
 ! A58   A(13,12,16)           115.5458                                         !
 ! A59   A(13,12,44)           106.6704                                         !
 ! A60   A(16,12,44)           107.0434                                         !
 ! A61   A(12,13,14)           111.8671                                         !
 ! A62   A(12,13,15)           115.5888                                         !
 ! A63   A(12,13,45)           104.0918                                         !
 ! A64   A(14,13,15)           110.5542                                         !
 ! A65   A(14,13,45)           106.9227                                         !
 ! A66   A(15,13,45)           107.1365                                         !
 ! A67   A(13,14,46)           110.3593                                         !
 ! A68   A(13,14,47)           111.457                                          !
 ! A69   A(13,14,48)           111.9489                                         !
 ! A70   A(46,14,47)           107.5051                                         !
 ! A71   A(46,14,48)           107.8811                                         !
 ! A72   A(47,14,48)           107.4997                                         !
 ! A73   A(13,15,49)           111.8144                                         !
 ! A74   A(13,15,50)           109.9005                                         !
 ! A75   A(13,15,51)           112.9688                                         !
 ! A76   A(49,15,50)           106.5793                                         !
 ! A77   A(49,15,51)           108.1254                                         !
 ! A78   A(50,15,51)           107.1472                                         !
 ! A79   A(12,16,17)           111.406                                          !
 ! A80   A(12,16,18)           111.4669                                         !
 ! A81   A(12,16,52)           108.2924                                         !
 ! A82   A(17,16,18)           110.1678                                         !
 ! A83   A(17,16,52)           107.7434                                         !
 ! A84   A(18,16,52)           107.5972                                         !
 ! A85   A(16,17,53)           112.3205                                         !
 ! A86   A(16,17,54)           110.5087                                         !
 ! A87   A(16,17,55)           111.0565                                         !
 ! A88   A(53,17,54)           107.6823                                         !
 ! A89   A(53,17,55)           107.375                                          !
 ! A90   A(54,17,55)           107.7014                                         !
 ! A91   A(16,18,56)           110.9556                                         !
 ! A92   A(16,18,57)           110.257                                          !
 ! A93   A(16,18,58)           112.9883                                         !
 ! A94   A(56,18,57)           107.3033                                         !
 ! A95   A(56,18,58)           107.8204                                         !
 ! A96   A(57,18,58)           107.2786                                         !
 ! A97   A(8,19,11)            103.6494                                         !
 ! A98   A(8,19,20)            127.8714                                         !
 ! A99   A(11,19,20)           127.8724                                         !
 ! A100  A(19,20,21)           103.8253                                         !
 ! A101  A(19,20,23)           113.6847                                         !
 ! A102  A(19,20,25)           113.6854                                         !
 ! A103  A(21,20,23)           110.3564                                         !
 ! A104  A(21,20,25)           110.3542                                         !
 ! A105  A(23,20,25)           105.0358                                         !
 ! A106  L(20,21,22,1,-1)      180.3832                                         !
 ! A107  L(20,23,24,1,-1)      184.4298                                         !
 ! A108  L(20,25,26,12,-1)     185.3569                                         !
 ! A109  L(20,21,22,1,-2)      179.2901                                         !
 ! A110  L(20,23,24,1,-2)      183.3359                                         !
 ! A111  L(20,25,26,12,-2)     178.5087                                         !
 ! D1    D(27,1,2,3)            51.3667                                         !
 ! D2    D(27,1,2,4)           175.5771                                         !
 ! D3    D(27,1,2,30)          -65.8329                                         !
 ! D4    D(28,1,2,3)           -67.3733                                         !
 ! D5    D(28,1,2,4)            56.8371                                         !
 ! D6    D(28,1,2,30)          175.4272                                         !
 ! D7    D(29,1,2,3)           171.3983                                         !
 ! D8    D(29,1,2,4)           -64.3912                                         !
 ! D9    D(29,1,2,30)           54.1988                                         !
 ! D10   D(1,2,3,31)          -178.5299                                         !
 ! D11   D(1,2,3,32)            61.2072                                         !
 ! D12   D(1,2,3,33)           -58.2563                                         !
 ! D13   D(4,2,3,31)            57.2248                                         !
 ! D14   D(4,2,3,32)           -63.0382                                         !
 ! D15   D(4,2,3,33)           177.4983                                         !
 ! D16   D(30,2,3,31)          -61.4213                                         !
 ! D17   D(30,2,3,32)          178.3157                                         !
 ! D18   D(30,2,3,33)           58.8522                                         !
 ! D19   D(1,2,4,5)             52.9633                                         !
 ! D20   D(1,2,4,8)           -177.9085                                         !
 ! D21   D(1,2,4,34)           -65.6616                                         !
 ! D22   D(3,2,4,5)            176.473                                          !
 ! D23   D(3,2,4,8)            -54.3989                                         !
 ! D24   D(3,2,4,34)            57.848                                          !
 ! D25   D(30,2,4,5)           -65.21                                           !
 ! D26   D(30,2,4,8)            63.9182                                         !
 ! D27   D(30,2,4,34)          176.1651                                         !
 ! D28   D(2,4,5,6)             54.6017                                         !
 ! D29   D(2,4,5,7)           -177.69                                           !
 ! D30   D(2,4,5,35)           -62.5945                                         !
 ! D31   D(8,4,5,6)            -73.9139                                         !
 ! D32   D(8,4,5,7)             53.7944                                         !
 ! D33   D(8,4,5,35)           168.8899                                         !
 ! D34   D(34,4,5,6)           173.4327                                         !
 ! D35   D(34,4,5,7)           -58.859                                          !
 ! D36   D(34,4,5,35)           56.2365                                         !
 ! D37   D(2,4,8,9)            -59.0264                                         !
 ! D38   D(2,4,8,19)           120.2456                                         !
 ! D39   D(5,4,8,9)             71.8719                                         !
 ! D40   D(5,4,8,19)          -108.8562                                         !
 ! D41   D(34,4,8,9)          -173.517                                          !
 ! D42   D(34,4,8,19)            5.7549                                         !
 ! D43   D(4,5,6,36)            71.5776                                         !
 ! D44   D(4,5,6,37)           -50.671                                          !
 ! D45   D(4,5,6,38)          -170.2734                                         !
 ! D46   D(7,5,6,36)           -56.7824                                         !
 ! D47   D(7,5,6,37)          -179.031                                          !
 ! D48   D(7,5,6,38)            61.3666                                         !
 ! D49   D(35,5,6,36)         -172.9454                                         !
 ! D50   D(35,5,6,37)           64.806                                          !
 ! D51   D(35,5,6,38)          -54.7964                                         !
 ! D52   D(4,5,7,39)           -65.9598                                         !
 ! D53   D(4,5,7,40)           174.6616                                         !
 ! D54   D(4,5,7,41)            54.487                                          !
 ! D55   D(6,5,7,39)            64.3951                                         !
 ! D56   D(6,5,7,40)           -54.9836                                         !
 ! D57   D(6,5,7,41)          -175.1582                                         !
 ! D58   D(35,5,7,39)         -179.3091                                         !
 ! D59   D(35,5,7,40)           61.3123                                         !
 ! D60   D(35,5,7,41)          -58.8623                                         !
 ! D61   D(4,8,9,10)          -179.9186                                         !
 ! D62   D(4,8,9,42)             1.1615                                         !
 ! D63   D(19,8,9,10)            0.7214                                         !
 ! D64   D(19,8,9,42)         -178.1985                                         !
 ! D65   D(4,8,19,11)          179.5345                                         !
 ! D66   D(4,8,19,20)           -8.9147                                         !
 ! D67   D(9,8,19,11)           -1.1175                                         !
 ! D68   D(9,8,19,20)          170.4333                                         !
 ! D69   D(8,9,10,11)           -0.0002                                         !
 ! D70   D(8,9,10,43)         -178.8142                                         !
 ! D71   D(42,9,10,11)         178.8141                                         !
 ! D72   D(42,9,10,43)           0.0001                                         !
 ! D73   D(9,10,11,12)         179.9195                                         !
 ! D74   D(9,10,11,19)          -0.7212                                         !
 ! D75   D(43,10,11,12)         -1.1608                                         !
 ! D76   D(43,10,11,19)        178.1986                                         !
 ! D77   D(10,11,12,13)        -71.8752                                         !
 ! D78   D(10,11,12,16)         59.0232                                         !
 ! D79   D(10,11,12,44)        173.5139                                         !
 ! D80   D(19,11,12,13)        108.8536                                         !
 ! D81   D(19,11,12,16)       -120.248                                          !
 ! D82   D(19,11,12,44)         -5.7573                                         !
 ! D83   D(10,11,19,8)           1.1174                                         !
 ! D84   D(10,11,19,20)       -170.4333                                         !
 ! D85   D(12,11,19,8)        -179.5352                                         !
 ! D86   D(12,11,19,20)          8.9141                                         !
 ! D87   D(11,12,13,14)        -53.7961                                         !
 ! D88   D(11,12,13,15)         73.9122                                         !
 ! D89   D(11,12,13,45)       -168.8915                                         !
 ! D90   D(16,12,13,14)        177.6883                                         !
 ! D91   D(16,12,13,15)        -54.6033                                         !
 ! D92   D(16,12,13,45)         62.593                                          !
 ! D93   D(44,12,13,14)         58.8572                                         !
 ! D94   D(44,12,13,15)       -173.4345                                         !
 ! D95   D(44,12,13,45)        -56.2381                                         !
 ! D96   D(11,12,16,17)         54.3965                                         !
 ! D97   D(11,12,16,18)        177.9062                                         !
 ! D98   D(11,12,16,52)        -63.9203                                         !
 ! D99   D(13,12,16,17)       -176.4753                                         !
 ! D100  D(13,12,16,18)        -52.9656                                         !
 ! D101  D(13,12,16,52)         65.2079                                         !
 ! D102  D(44,12,16,17)        -57.8504                                         !
 ! D103  D(44,12,16,18)         65.6593                                         !
 ! D104  D(44,12,16,52)       -176.1671                                         !
 ! D105  D(12,13,14,46)       -174.6605                                         !
 ! D106  D(12,13,14,47)         65.9608                                         !
 ! D107  D(12,13,14,48)        -54.4858                                         !
 ! D108  D(15,13,14,46)         54.9847                                         !
 ! D109  D(15,13,14,47)        -64.394                                          !
 ! D110  D(15,13,14,48)        175.1595                                         !
 ! D111  D(45,13,14,46)        -61.3114                                         !
 ! D112  D(45,13,14,47)        179.31                                           !
 ! D113  D(45,13,14,48)         58.8634                                         !
 ! D114  D(12,13,15,49)        -71.5774                                         !
 ! D115  D(12,13,15,50)        170.2736                                         !
 ! D116  D(12,13,15,51)         50.6711                                         !
 ! D117  D(14,13,15,49)         56.7823                                         !
 ! D118  D(14,13,15,50)        -61.3667                                         !
 ! D119  D(14,13,15,51)        179.0308                                         !
 ! D120  D(45,13,15,49)        172.9455                                         !
 ! D121  D(45,13,15,50)         54.7965                                         !
 ! D122  D(45,13,15,51)        -64.806                                          !
 ! D123  D(12,16,17,53)        -57.2248                                         !
 ! D124  D(12,16,17,54)       -177.4983                                         !
 ! D125  D(12,16,17,55)         63.0381                                         !
 ! D126  D(18,16,17,53)        178.5298                                         !
 ! D127  D(18,16,17,54)         58.2563                                         !
 ! D128  D(18,16,17,55)        -61.2072                                         !
 ! D129  D(52,16,17,53)         61.4211                                         !
 ! D130  D(52,16,17,54)        -58.8524                                         !
 ! D131  D(52,16,17,55)       -178.316                                          !
 ! D132  D(12,16,18,56)        -56.8369                                         !
 ! D133  D(12,16,18,57)       -175.5768                                         !
 ! D134  D(12,16,18,58)         64.3915                                         !
 ! D135  D(17,16,18,56)         67.3733                                         !
 ! D136  D(17,16,18,57)        -51.3666                                         !
 ! D137  D(17,16,18,58)       -171.3983                                         !
 ! D138  D(52,16,18,56)       -175.4271                                         !
 ! D139  D(52,16,18,57)         65.833                                          !
 ! D140  D(52,16,18,58)        -54.1987                                         !
 ! D141  D(8,19,20,21)         -84.7862                                         !
 ! D142  D(8,19,20,23)          35.1567                                         !
 ! D143  D(8,19,20,25)         155.2733                                         !
 ! D144  D(11,19,20,21)         84.7928                                         !
 ! D145  D(11,19,20,23)       -155.2643                                         !
 ! D146  D(11,19,20,25)        -35.1477                                         !
 --------------------------------------------------------------------------------
 NAtoms=     58 NQM=       58 NQMF=       0 NMMI=      0 NMMIF=      0
                NMic=       0 NMicF=      0.
                    Isotopes and Nuclear Properties:
 (Nuclear quadrupole moments (NQMom) in fm**2, nuclear magnetic moments (NMagM)
  in nuclear magnetons)

  Atom         1           2           3           4           5           6           7           8           9          10
 IAtWgt=          12          12          12          12          12          12          12          14          12          12
 AtmWgt=  12.0000000  12.0000000  12.0000000  12.0000000  12.0000000  12.0000000  12.0000000  14.0030740  12.0000000  12.0000000
 NucSpn=           0           0           0           0           0           0           0           2           0           0
 AtZEff=   3.6000000   3.6000000   3.6000000   3.6000000   3.6000000   3.6000000   3.6000000   4.5500000   3.6000000   3.6000000
 NQMom=    0.0000000   0.0000000   0.0000000   0.0000000   0.0000000   0.0000000   0.0000000   2.0440000   0.0000000   0.0000000
 NMagM=    0.0000000   0.0000000   0.0000000   0.0000000   0.0000000   0.0000000   0.0000000   0.4037610   0.0000000   0.0000000
 AtZNuc=   6.0000000   6.0000000   6.0000000   6.0000000   6.0000000   6.0000000   6.0000000   7.0000000   6.0000000   6.0000000

  Atom        11          12          13          14          15          16          17          18          19          20
 IAtWgt=          14          12          12          12          12          12          12          12          12          58
 AtmWgt=  14.0030740  12.0000000  12.0000000  12.0000000  12.0000000  12.0000000  12.0000000  12.0000000  12.0000000  57.9353471
 NucSpn=           2           0           0           0           0           0           0           0           0           0
 AtZEff=   4.5500000   3.6000000   3.6000000   3.6000000   3.6000000   3.6000000   3.6000000   3.6000000   3.6000000  16.3800000
 NQMom=    2.0440000   0.0000000   0.0000000   0.0000000   0.0000000   0.0000000   0.0000000   0.0000000   0.0000000   0.0000000
 NMagM=    0.4037610   0.0000000   0.0000000   0.0000000   0.0000000   0.0000000   0.0000000   0.0000000   0.0000000   0.0000000
 AtZNuc=   7.0000000   6.0000000   6.0000000   6.0000000   6.0000000   6.0000000   6.0000000   6.0000000   6.0000000  28.0000000

  Atom        21          22          23          24          25          26          27          28          29          30
 IAtWgt=          12          16          12          16          12          16           1           1           1           1
 AtmWgt=  12.0000000  15.9949146  12.0000000  15.9949146  12.0000000  15.9949146   1.0078250   1.0078250   1.0078250   1.0078250
 NucSpn=           0           0           0           0           0           0           1           1           1           1
 AtZEff=   3.6000000   5.6000000   3.6000000   5.6000000   3.6000000   5.6000000   1.0000000   1.0000000   1.0000000   1.0000000
 NQMom=    0.0000000   0.0000000   0.0000000   0.0000000   0.0000000   0.0000000   0.0000000   0.0000000   0.0000000   0.0000000
 NMagM=    0.0000000   0.0000000   0.0000000   0.0000000   0.0000000   0.0000000   2.7928460   2.7928460   2.7928460   2.7928460
 AtZNuc=   6.0000000   8.0000000   6.0000000   8.0000000   6.0000000   8.0000000   1.0000000   1.0000000   1.0000000   1.0000000

  Atom        31          32          33          34          35          36          37          38          39          40
 IAtWgt=           1           1           1           1           1           1           1           1           1           1
 AtmWgt=   1.0078250   1.0078250   1.0078250   1.0078250   1.0078250   1.0078250   1.0078250   1.0078250   1.0078250   1.0078250
 NucSpn=           1           1           1           1           1           1           1           1           1           1
 AtZEff=   1.0000000   1.0000000   1.0000000   1.0000000   1.0000000   1.0000000   1.0000000   1.0000000   1.0000000   1.0000000
 NQMom=    0.0000000   0.0000000   0.0000000   0.0000000   0.0000000   0.0000000   0.0000000   0.0000000   0.0000000   0.0000000
 NMagM=    2.7928460   2.7928460   2.7928460   2.7928460   2.7928460   2.7928460   2.7928460   2.7928460   2.7928460   2.7928460
 AtZNuc=   1.0000000   1.0000000   1.0000000   1.0000000   1.0000000   1.0000000   1.0000000   1.0000000   1.0000000   1.0000000

  Atom        41          42          43          44          45          46          47          48          49          50
 IAtWgt=           1           1           1           1           1           1           1           1           1           1
 AtmWgt=   1.0078250   1.0078250   1.0078250   1.0078250   1.0078250   1.0078250   1.0078250   1.0078250   1.0078250   1.0078250
 NucSpn=           1           1           1           1           1           1           1           1           1           1
 AtZEff=   1.0000000   1.0000000   1.0000000   1.0000000   1.0000000   1.0000000   1.0000000   1.0000000   1.0000000   1.0000000
 NQMom=    0.0000000   0.0000000   0.0000000   0.0000000   0.0000000   0.0000000   0.0000000   0.0000000   0.0000000   0.0000000
 NMagM=    2.7928460   2.7928460   2.7928460   2.7928460   2.7928460   2.7928460   2.7928460   2.7928460   2.7928460   2.7928460
 AtZNuc=   1.0000000   1.0000000   1.0000000   1.0000000   1.0000000   1.0000000   1.0000000   1.0000000   1.0000000   1.0000000

  Atom        51          52          53          54          55          56          57          58
 IAtWgt=           1           1           1           1           1           1           1           1
 AtmWgt=   1.0078250   1.0078250   1.0078250   1.0078250   1.0078250   1.0078250   1.0078250   1.0078250
 NucSpn=           1           1           1           1           1           1           1           1
 AtZEff=   1.0000000   1.0000000   1.0000000   1.0000000   1.0000000   1.0000000   1.0000000   1.0000000
 NQMom=    0.0000000   0.0000000   0.0000000   0.0000000   0.0000000   0.0000000   0.0000000   0.0000000
 NMagM=    2.7928460   2.7928460   2.7928460   2.7928460   2.7928460   2.7928460   2.7928460   2.7928460
 AtZNuc=   1.0000000   1.0000000   1.0000000   1.0000000   1.0000000   1.0000000   1.0000000   1.0000000
 Leave Link  101 at Fri Jul 11 10:35:27 2025, MaxMem=  6291456000 cpu:               0.4 elap:               0.3
 (Enter /share/apps/chem/gaussian-16-bin.c.02/g16/l202.exe)
 Stoichiometry    C20H32N2NiO3
 Framework group  C1[X(C20H32N2NiO3)]
 Deg. of freedom   168
 Full point group                 C1      NOp   1
 RotChk:  IX=0 Diff= 2.55D-16
 Largest Abelian subgroup         C1      NOp   1
 Largest concise Abelian subgroup C1      NOp   1
                         Standard orientation:                         
 ---------------------------------------------------------------------
 Center     Atomic      Atomic             Coordinates (Angstroms)
 Number     Number       Type             X           Y           Z
 ---------------------------------------------------------------------
      1          6           0        4.704638   -0.302647    1.354511
      2          6           0        3.245084   -0.769083    1.466665
      3          6           0        2.528483   -0.001752    2.588316
      4          6           0        2.496382   -0.624765    0.112833
      5          6           0        3.187953   -1.296324   -1.113022
      6          6           0        3.520059   -2.788602   -0.952755
      7          6           0        2.407940   -1.054275   -2.413182
      8          7           0        1.084619   -1.028387    0.245796
      9          6           0        0.683777   -2.293661    0.656873
     10          6           0       -0.683769   -2.293670    0.656868
     11          7           0       -1.084625   -1.028400    0.245792
     12          6           0       -2.496393   -0.624793    0.112840
     13          6           0       -3.187942   -1.296295   -1.113056
     14          6           0       -2.407938   -1.054124   -2.413198
     15          6           0       -3.519988   -2.788598   -0.952888
     16          6           0       -3.245095   -0.769193    1.466662
     17          6           0       -2.528473   -0.001954    2.588362
     18          6           0       -4.704642   -0.302722    1.354547
     19          6           0       -0.000008   -0.212516   -0.002274
     20         28           0        0.000000    1.760042   -0.359020
     21          6           0        0.000100    2.492755    1.280772
     22          8           0        0.000121    2.981734    2.335591
     23          6           0        1.425204    2.323886   -1.295365
     24          8           0        2.298261    2.789665   -1.908620
     25          6           0       -1.425316    2.323957   -1.295154
     26          8           0       -2.298451    2.789822   -1.908232
     27          1           0        5.196625   -0.339036    2.347387
     28          1           0        4.759725    0.747589    0.996766
     29          1           0        5.306690   -0.927312    0.665936
     30          1           0        3.256648   -1.847567    1.746702
     31          1           0        1.478283   -0.329323    2.717683
     32          1           0        2.512327    1.087613    2.378748
     33          1           0        3.049462   -0.151288    3.555515
     34          1           0        2.435479    0.459505   -0.110878
     35          1           0        4.153672   -0.754378   -1.209399
     36          1           0        2.607313   -3.418836   -0.975478
     37          1           0        4.069868   -3.011369   -0.015861
     38          1           0        4.158510   -3.125804   -1.794627
     39          1           0        1.418225   -1.556006   -2.392248
     40          1           0        2.968566   -1.458517   -3.280391
     41          1           0        2.231150    0.023053   -2.595100
     42          1           0        1.388926   -3.081669    0.931049
     43          1           0       -1.388910   -3.081687    0.931040
     44          1           0       -2.435506    0.459488   -0.110815
     45          1           0       -4.153682   -0.754381   -1.209394
     46          1           0       -2.968556   -1.458310   -3.280439
     47          1           0       -1.418211   -1.555831   -2.392308
     48          1           0       -2.231175    0.023224   -2.595028
     49          1           0       -2.607217   -3.418794   -0.975654
     50          1           0       -4.158427   -3.125770   -1.794780
     51          1           0       -4.069785   -3.011449   -0.016007
     52          1           0       -3.256676   -1.847697    1.746624
     53          1           0       -1.478278   -0.329556    2.717701
     54          1           0       -3.049450   -0.151547    3.555553
     55          1           0       -2.512296    1.087425    2.378869
     56          1           0       -4.759708    0.747539    0.996873
     57          1           0       -5.196624   -0.339169    2.347422
     58          1           0       -5.306710   -0.927328    0.665932
 ---------------------------------------------------------------------
 Rotational constants (GHZ):           0.2324587           0.1545805           0.1358424
 Leave Link  202 at Fri Jul 11 10:35:27 2025, MaxMem=  6291456000 cpu:               0.1 elap:               0.0
 (Enter /share/apps/chem/gaussian-16-bin.c.02/g16/l301.exe)
 General basis read from cards:  (5D, 7F)
 Centers:       8     11     27     28     29     30     31     32     33     34
 Centers:      35     36     37     38     39     40     41     42     43     44
 Centers:      45     46     47     48     49     50     51     52     53     54
 Centers:      55     56     57     58     22     24     26      1      2      3
 Centers:       4      5      6      7      9     10     12     13     14     15
 Centers:      16     17     18     19     21     23     25
 def2tzvp
 ****
 Centers:      20
 SDD
 ****
 ======================================================================================================
                                       Pseudopotential Parameters
 ======================================================================================================
  Center     Atomic      Valence      Angular      Power
  Number     Number     Electrons     Momentum     of R      Exponent        Coefficient   SO-Coeffient
 ======================================================================================================
    1          6
                                   No pseudopotential on this center.
    2          6
                                   No pseudopotential on this center.
    3          6
                                   No pseudopotential on this center.
    4          6
                                   No pseudopotential on this center.
    5          6
                                   No pseudopotential on this center.
    6          6
                                   No pseudopotential on this center.
    7          6
                                   No pseudopotential on this center.
    8          7
                                   No pseudopotential on this center.
    9          6
                                   No pseudopotential on this center.
   10          6
                                   No pseudopotential on this center.
   11          7
                                   No pseudopotential on this center.
   12          6
                                   No pseudopotential on this center.
   13          6
                                   No pseudopotential on this center.
   14          6
                                   No pseudopotential on this center.
   15          6
                                   No pseudopotential on this center.
   16          6
                                   No pseudopotential on this center.
   17          6
                                   No pseudopotential on this center.
   18          6
                                   No pseudopotential on this center.
   19          6
                                   No pseudopotential on this center.
   20         28           18
                                      F and up 
                                                     2        1.0000000        0.00000000    0.00000000
                                      S - F
                                                     2       26.7400000      317.68227200    0.00000000
                                                     2       11.8600000       58.25539100    0.00000000
                                      P - F
                                                     2       28.8000000      252.47436600    0.00000000
                                                     2       11.7900000       36.08150300    0.00000000
                                      D - F
                                                     2       33.7000000      -18.52295500    0.00000000
                                                     2       11.6600000       -4.55766800    0.00000000
   21          6
                                   No pseudopotential on this center.
   22          8
                                   No pseudopotential on this center.
   23          6
                                   No pseudopotential on this center.
   24          8
                                   No pseudopotential on this center.
   25          6
                                   No pseudopotential on this center.
   26          8
                                   No pseudopotential on this center.
   27          1
                                   No pseudopotential on this center.
   28          1
                                   No pseudopotential on this center.
   29          1
                                   No pseudopotential on this center.
   30          1
                                   No pseudopotential on this center.
   31          1
                                   No pseudopotential on this center.
   32          1
                                   No pseudopotential on this center.
   33          1
                                   No pseudopotential on this center.
   34          1
                                   No pseudopotential on this center.
   35          1
                                   No pseudopotential on this center.
   36          1
                                   No pseudopotential on this center.
   37          1
                                   No pseudopotential on this center.
   38          1
                                   No pseudopotential on this center.
   39          1
                                   No pseudopotential on this center.
   40          1
                                   No pseudopotential on this center.
   41          1
                                   No pseudopotential on this center.
   42          1
                                   No pseudopotential on this center.
   43          1
                                   No pseudopotential on this center.
   44          1
                                   No pseudopotential on this center.
   45          1
                                   No pseudopotential on this center.
   46          1
                                   No pseudopotential on this center.
   47          1
                                   No pseudopotential on this center.
   48          1
                                   No pseudopotential on this center.
   49          1
                                   No pseudopotential on this center.
   50          1
                                   No pseudopotential on this center.
   51          1
                                   No pseudopotential on this center.
   52          1
                                   No pseudopotential on this center.
   53          1
                                   No pseudopotential on this center.
   54          1
                                   No pseudopotential on this center.
   55          1
                                   No pseudopotential on this center.
   56          1
                                   No pseudopotential on this center.
   57          1
                                   No pseudopotential on this center.
   58          1
                                   No pseudopotential on this center.
 ======================================================================================================
 Ernie: Thresh=  0.10000D-02 Tol=  0.10000D-05 Strict=F.
 There are  1141 symmetry adapted cartesian basis functions of A   symmetry.
 There are  1010 symmetry adapted basis functions of A   symmetry.
  1010 basis functions,  1606 primitive gaussians,  1141 cartesian basis functions
   104 alpha electrons      104 beta electrons
       nuclear repulsion energy      2880.6458104019 Hartrees.
 IExCor= 1009 DFT=T Ex+Corr=PBE1PBE ExCW=0 ScaHFX=  0.250000
 ScaDFX=  0.750000  0.750000  1.000000  1.000000 ScalE2=  1.000000  1.000000
 IRadAn=      5 IRanWt=     -1 IRanGd=            0 ICorTp=0 IEmpDi=  4
 NAtoms=   58 NActive=   58 NUniq=   58 SFac= 1.00D+00 NAtFMM=   60 NAOKFM=F Big=F
 Integral buffers will be    131072 words long.
 Raffenetti 2 integral format.
 Two-electron integral symmetry is turned on.
 ------------------------------------------------------------------------------
 Polarizable Continuum Model (PCM)
 =================================
 Model                : PCM.
 Atomic radii         : SMD-Coulomb.
 Polarization charges : Total charges.
 Charge compensation  : None.
 Solution method      : On-the-fly selection.
 Cavity type          : VdW (van der Waals Surface) (Alpha=1.000).
 Cavity algorithm     : GePol (No added spheres)
                        Default sphere list used, NSphG=   58.
                        Lebedev-Laikov grids with approx.  5.0 points / Ang**2.
                        Smoothing algorithm: York/Karplus (Gamma=1.0000).
                        Polarization charges: spherical gaussians, with
                                              point-specific exponents (IZeta= 3).
                        Self-potential: point-specific (ISelfS= 7).
                        Self-field    : sphere-specific E.n sum rule (ISelfD= 2).
 Solvent              : TetraHydroFuran, Eps=   7.425700 Eps(inf)=   1.974025
 ------------------------------------------------------------------------------
 GePol: Number of generator spheres                  =      58
 GePol: Total number of spheres                      =      58
 GePol: Number of exposed spheres                    =      58 (100.00%)
 GePol: Number of points                             =    4407
 GePol: Average weight of points                     =       0.11
 GePol: Minimum weight of points                     =   0.35D-09
 GePol: Maximum weight of points                     =    0.17992
 GePol: Number of points with low weight             =     262
 GePol: Fraction of low-weight points (<1% of avg)   =       5.95%
 GePol: Cavity surface area                          =    492.486 Ang**2
 GePol: Cavity volume                                =    479.849 Ang**3
 ------------------------------------------------------------------------------
 Atomic radii for non-electrostatic terms: SMD-CDS.
 ------------------------------------------------------------------------------
 PCM non-electrostatic energy =        -0.0038567430 Hartrees.
 Nuclear repulsion after PCM non-electrostatic terms =     2880.6419536589 Hartrees.
 Leave Link  301 at Fri Jul 11 10:35:27 2025, MaxMem=  6291456000 cpu:               0.2 elap:               0.1
 (Enter /share/apps/chem/gaussian-16-bin.c.02/g16/l302.exe)
 NPDir=0 NMtPBC=     1 NCelOv=     1 NCel=       1 NClECP=     1 NCelD=      1
         NCelK=      1 NCelE2=     1 NClLst=     1 CellRange=     0.0.
 One-electron integrals computed using PRISM.
 One-electron integral symmetry used in STVInt
   1 Symmetry operations used in ECPInt.
 ECPInt:  NShTT=   87571 NPrTT=  255912 LenC2=   76449 LenP2D=  157199.
 LDataN:  DoStor=T MaxTD1= 6 Len=  172
 NBasis=  1010 RedAO= T EigKep=  3.16D-05  NBF=  1010
 NBsUse=  1010 1.00D-06 EigRej= -1.00D+00 NBFU=  1010
 Precomputing XC quadrature grid using
 IXCGrd= 4 IRadAn=           5 IRanWt=          -1 IRanGd=           0 AccXCQ= 0.00D+00.
 Generated NRdTot=       0 NPtTot=           0 NUsed=           0 NTot=          32
 NSgBfM=  1130  1130  1130  1130  1130 MxSgAt=    58 MxSgA2=    58.
 Leave Link  302 at Fri Jul 11 10:35:29 2025, MaxMem=  6291456000 cpu:              13.9 elap:               2.0
 (Enter /share/apps/chem/gaussian-16-bin.c.02/g16/l303.exe)
 DipDrv:  MaxL=1.
 Leave Link  303 at Fri Jul 11 10:35:30 2025, MaxMem=  6291456000 cpu:               0.4 elap:               0.2
 (Enter /share/apps/chem/gaussian-16-bin.c.02/g16/l308.exe)
 Leave Link  308 at Fri Jul 11 10:35:30 2025, MaxMem=  6291456000 cpu:               0.9 elap:               0.4
 (Enter /share/apps/chem/gaussian-16-bin.c.02/g16/l401.exe)
 ExpMin= 1.00D-02 ExpMax= 2.70D+04 ExpMxC= 9.22D+02 IAcc=3 IRadAn=         5 AccDes= 0.00D+00
 Harris functional with IExCor= 1009 and IRadAn=       5 diagonalized for initial guess.
 HarFok:  IExCor= 1009 AccDes= 0.00D+00 IRadAn=         5 IDoV= 1 UseB2=F ITyADJ=14
 ICtDFT=  3500011 ScaDFX=  1.000000  1.000000  1.000000  1.000000
 FoFCou: FMM=F IPFlag=           0 FMFlag=      100000 FMFlg1=           0
         NFxFlg=           0 DoJE=T BraDBF=F KetDBF=T FulRan=T
         wScrn=  0.000000 ICntrl=       500 IOpCl=  0 I1Cent=   200000004 NGrid=           0
         NMat0=    1 NMatS0=      1 NMatT0=    0 NMatD0=    1 NMtDS0=    0 NMtDT0=    0
 Petite list used in FoFCou.
 Harris En= -1287.14181271120    
 JPrj=0 DoOrth=F DoCkMO=F.
 Leave Link  401 at Fri Jul 11 10:35:36 2025, MaxMem=  6291456000 cpu:              71.6 elap:               6.5
 (Enter /share/apps/chem/gaussian-16-bin.c.02/g16/l502.exe)
 Integral symmetry usage will be decided dynamically.
 Closed shell SCF:
 Using DIIS extrapolation, IDIIS=  1040.
 NGot=  6291456000 LenX=  6288826974 LenY=  6287523952
 Requested convergence on RMS density matrix=1.00D-08 within 128 cycles.
 Requested convergence on MAX density matrix=1.00D-06.
 Requested convergence on             energy=1.00D-06.
 No special actions if energy rises.
 Fock matrices will be formed incrementally for  20 cycles.

 Cycle   1  Pass 1  IDiag  1:
 FoFJK:  IHMeth= 1 ICntrl=       0 DoSepK=F KAlg= 0 I1Cent=           0 FoldK=F
 IRaf= 800000000 NMat=       1 IRICut=       1 DoRegI=T DoRafI=F ISym2E= 0 IDoP0=0 IntGTp=1.
 FoFCou: FMM=F IPFlag=           0 FMFlag=      100000 FMFlg1=           0
         NFxFlg=           0 DoJE=F BraDBF=F KetDBF=F FulRan=T
         wScrn=  0.000000 ICntrl=         0 IOpCl=  0 I1Cent=           0 NGrid=           0
         NMat0=    1 NMatS0=      1 NMatT0=    0 NMatD0=    1 NMtDS0=    0 NMtDT0=    0
 Symmetry not used in FoFCou.
 Inv3:  Mode=1 IEnd=    58264947.
 Iteration    1 A*A^-1 deviation from unit magnitude is 4.00D-15 for   4194.
 Iteration    1 A*A^-1 deviation from orthogonality  is 2.00D-15 for   3023    283.
 Iteration    1 A^-1*A deviation from unit magnitude is 4.11D-15 for   4194.
 Iteration    1 A^-1*A deviation from orthogonality  is 2.13D-15 for   1737    209.
 E= -1285.89872163539    
 DIIS: error= 2.12D-02 at cycle   1 NSaved=   1.
 NSaved= 1 IEnMin= 1 EnMin= -1285.89872163539     IErMin= 1 ErrMin= 2.12D-02
 ErrMax= 2.12D-02  0.00D+00 EMaxC= 1.00D-01 BMatC= 9.22D-01 BMatP= 9.22D-01
 IDIUse=3 WtCom= 7.88D-01 WtEn= 2.12D-01
 Coeff-Com:  0.100D+01
 Coeff-En:   0.100D+01
 Coeff:      0.100D+01
 Gap=     0.286 Goal=   None    Shift=    0.000
 GapD=    0.286 DampG=1.000 DampE=0.250 DampFc=0.2500 IDamp=-1.
 Damping current iteration by 2.50D-01
 RMSDP=1.52D-03 MaxDP=2.40D-01              OVMax= 2.50D-01

 Cycle   2  Pass 1  IDiag  1:
 RMSU=  3.78D-04    CP:  9.91D-01
 E= -1286.13309193526     Delta-E=       -0.234370299868 Rises=F Damp=T
 DIIS: error= 8.85D-03 at cycle   2 NSaved=   2.
 NSaved= 2 IEnMin= 2 EnMin= -1286.13309193526     IErMin= 2 ErrMin= 8.85D-03
 ErrMax= 8.85D-03  0.00D+00 EMaxC= 1.00D-01 BMatC= 2.17D-01 BMatP= 9.22D-01
 IDIUse=3 WtCom= 9.12D-01 WtEn= 8.85D-02
 Coeff-Com: -0.171D+00 0.117D+01
 Coeff-En:   0.000D+00 0.100D+01
 Coeff:     -0.156D+00 0.116D+01
 Gap=     0.230 Goal=   None    Shift=    0.000
 RMSDP=1.26D-03 MaxDP=2.39D-01 DE=-2.34D-01 OVMax= 5.16D-01

 Cycle   3  Pass 1  IDiag  1:
 RMSU=  1.23D-03    CP:  9.40D-01  9.93D-01
 E= -1284.32959265898     Delta-E=        1.803499276279 Rises=F Damp=F
 DIIS: error= 1.01D-01 at cycle   3 NSaved=   3.
 NSaved= 3 IEnMin= 2 EnMin= -1286.13309193526     IErMin= 2 ErrMin= 8.85D-03
 ErrMax= 1.01D-01  0.00D+00 EMaxC= 1.00D-01 BMatC= 5.48D+00 BMatP= 2.17D-01
 IDIUse=2 WtCom= 0.00D+00 WtEn= 1.00D+00
 Coeff-En:   0.000D+00 0.869D+00 0.131D+00
 Coeff:      0.000D+00 0.869D+00 0.131D+00
 Gap=     0.284 Goal=   None    Shift=    0.000
 RMSDP=1.26D-03 MaxDP=3.32D-01 DE= 1.80D+00 OVMax= 3.34D-01

 Cycle   4  Pass 1  IDiag  1:
 RMSU=  2.86D-04    CP:  9.70D-01  2.49D+00  1.27D-01
 E= -1286.06908847810     Delta-E=       -1.739495819119 Rises=F Damp=F
 DIIS: error= 4.22D-02 at cycle   4 NSaved=   4.
 NSaved= 4 IEnMin= 2 EnMin= -1286.13309193526     IErMin= 2 ErrMin= 8.85D-03
 ErrMax= 4.22D-02  0.00D+00 EMaxC= 1.00D-01 BMatC= 1.10D+00 BMatP= 2.17D-01
 IDIUse=2 WtCom= 0.00D+00 WtEn= 1.00D+00
 EnCoef did     4 forward-backward iterations
 Coeff-En:   0.111D+00 0.000D+00 0.243D+00 0.646D+00
 Coeff:      0.111D+00 0.000D+00 0.243D+00 0.646D+00
 Gap=     0.225 Goal=   None    Shift=    0.000
 RMSDP=7.25D-04 MaxDP=1.69D-01 DE=-1.74D+00 OVMax= 2.01D-01

 Cycle   5  Pass 1  IDiag  1:
 RMSU=  1.42D-04    CP:  9.68D-01  9.19D-01  4.44D-01  1.09D+00
 E= -1286.45861864767     Delta-E=       -0.389530169569 Rises=F Damp=F
 DIIS: error= 2.40D-02 at cycle   5 NSaved=   5.
 NSaved= 5 IEnMin= 5 EnMin= -1286.45861864767     IErMin= 2 ErrMin= 8.85D-03
 ErrMax= 2.40D-02  0.00D+00 EMaxC= 1.00D-01 BMatC= 3.40D-01 BMatP= 2.17D-01
 IDIUse=2 WtCom= 0.00D+00 WtEn= 1.00D+00
 Coeff-En:   0.000D+00 0.000D+00 0.000D+00 0.310D+00 0.690D+00
 Coeff:      0.000D+00 0.000D+00 0.000D+00 0.310D+00 0.690D+00
 Gap=     0.217 Goal=   None    Shift=    0.000
 RMSDP=3.56D-04 MaxDP=8.57D-02 DE=-3.90D-01 OVMax= 9.34D-02

 Cycle   6  Pass 1  IDiag  1:
 RMSU=  7.30D-05    CP:  9.69D-01  1.67D+00  2.92D-01  1.18D+00  5.20D-01
 E= -1286.57441032241     Delta-E=       -0.115791674742 Rises=F Damp=F
 DIIS: error= 1.28D-02 at cycle   6 NSaved=   6.
 NSaved= 6 IEnMin= 6 EnMin= -1286.57441032241     IErMin= 2 ErrMin= 8.85D-03
 ErrMax= 1.28D-02  0.00D+00 EMaxC= 1.00D-01 BMatC= 8.59D-02 BMatP= 2.17D-01
 IDIUse=3 WtCom= 8.72D-01 WtEn= 1.28D-01
 Coeff-Com: -0.284D+00 0.355D+00-0.411D-02-0.116D+00 0.446D+00 0.602D+00
 Coeff-En:   0.000D+00 0.000D+00 0.000D+00 0.000D+00 0.294D+00 0.706D+00
 Coeff:     -0.247D+00 0.310D+00-0.358D-02-0.101D+00 0.427D+00 0.615D+00
 Gap=     0.208 Goal=   None    Shift=    0.000
 RMSDP=1.30D-04 MaxDP=3.16D-02 DE=-1.16D-01 OVMax= 3.50D-02

 Cycle   7  Pass 1  IDiag  1:
 RMSU=  3.07D-05    CP:  9.67D-01  1.46D+00  3.67D-01  1.17D+00  6.79D-01
                    CP:  7.76D-01
 E= -1286.61321009594     Delta-E=       -0.038799773528 Rises=F Damp=F
 DIIS: error= 4.05D-04 at cycle   7 NSaved=   7.
 NSaved= 7 IEnMin= 7 EnMin= -1286.61321009594     IErMin= 7 ErrMin= 4.05D-04
 ErrMax= 4.05D-04  0.00D+00 EMaxC= 1.00D-01 BMatC= 3.38D-04 BMatP= 8.59D-02
 IDIUse=3 WtCom= 9.96D-01 WtEn= 4.05D-03
 Coeff-Com: -0.167D+00 0.218D+00-0.197D-02-0.730D-01 0.230D+00 0.305D+00
 Coeff-Com:  0.489D+00
 Coeff-En:   0.000D+00 0.000D+00 0.000D+00 0.000D+00 0.000D+00 0.000D+00
 Coeff-En:   0.100D+01
 Coeff:     -0.167D+00 0.217D+00-0.196D-02-0.727D-01 0.229D+00 0.303D+00
 Coeff:      0.491D+00
 Gap=     0.208 Goal=   None    Shift=    0.000
 RMSDP=1.94D-05 MaxDP=3.58D-03 DE=-3.88D-02 OVMax= 4.57D-03

 Cycle   8  Pass 1  IDiag  1:
 RMSU=  1.03D-05    CP:  9.68D-01  1.47D+00  3.56D-01  1.19D+00  6.88D-01
                    CP:  8.12D-01  7.45D-01
 E= -1286.61290575727     Delta-E=        0.000304338676 Rises=F Damp=F
 DIIS: error= 1.66D-03 at cycle   8 NSaved=   8.
 NSaved= 8 IEnMin= 7 EnMin= -1286.61321009594     IErMin= 7 ErrMin= 4.05D-04
 ErrMax= 1.66D-03  0.00D+00 EMaxC= 1.00D-01 BMatC= 1.34D-03 BMatP= 3.38D-04
 IDIUse=3 WtCom= 9.96D-01 WtEn= 4.05D-03
 Coeff-Com: -0.348D-01 0.451D-01 0.551D-02-0.315D-01 0.277D-01 0.296D-01
 Coeff-Com:  0.189D+00 0.770D+00
 Coeff-En:   0.000D+00 0.000D+00 0.000D+00 0.000D+00 0.000D+00 0.000D+00
 Coeff-En:   0.726D+00 0.274D+00
 Coeff:     -0.347D-01 0.450D-01 0.549D-02-0.314D-01 0.276D-01 0.295D-01
 Coeff:      0.191D+00 0.768D+00
 Gap=     0.207 Goal=   None    Shift=    0.000
 RMSDP=1.12D-05 MaxDP=2.66D-03 DE= 3.04D-04 OVMax= 3.17D-03

 Cycle   9  Pass 1  IDiag  1:
 RMSU=  4.36D-06    CP:  9.68D-01  1.46D+00  3.63D-01  1.18D+00  6.95D-01
                    CP:  8.62D-01  8.17D-01  9.88D-01
 E= -1286.61341155049     Delta-E=       -0.000505793221 Rises=F Damp=F
 DIIS: error= 6.37D-04 at cycle   9 NSaved=   9.
 NSaved= 9 IEnMin= 9 EnMin= -1286.61341155049     IErMin= 7 ErrMin= 4.05D-04
 ErrMax= 6.37D-04  0.00D+00 EMaxC= 1.00D-01 BMatC= 2.02D-04 BMatP= 3.38D-04
 IDIUse=3 WtCom= 9.96D-01 WtEn= 4.05D-03
 Coeff-Com:  0.231D-02-0.368D-02 0.444D-02-0.111D-01-0.166D-01-0.284D-01
 Coeff-Com:  0.337D-01 0.323D+00 0.696D+00
 Coeff-En:   0.000D+00 0.000D+00 0.000D+00 0.000D+00 0.000D+00 0.000D+00
 Coeff-En:   0.489D-01 0.000D+00 0.951D+00
 Coeff:      0.230D-02-0.366D-02 0.442D-02-0.111D-01-0.166D-01-0.283D-01
 Coeff:      0.337D-01 0.322D+00 0.697D+00
 Gap=     0.207 Goal=   None    Shift=    0.000
 RMSDP=4.81D-06 MaxDP=1.17D-03 DE=-5.06D-04 OVMax= 1.56D-03

 Cycle  10  Pass 1  IDiag  1:
 RMSU=  2.00D-06    CP:  9.67D-01  1.45D+00  3.66D-01  1.19D+00  6.96D-01
                    CP:  8.65D-01  8.43D-01  1.08D+00  1.02D+00
 E= -1286.61349179836     Delta-E=       -0.000080247873 Rises=F Damp=F
 DIIS: error= 1.94D-04 at cycle  10 NSaved=  10.
 NSaved=10 IEnMin=10 EnMin= -1286.61349179836     IErMin=10 ErrMin= 1.94D-04
 ErrMax= 1.94D-04  0.00D+00 EMaxC= 1.00D-01 BMatC= 1.99D-05 BMatP= 2.02D-04
 IDIUse=3 WtCom= 9.98D-01 WtEn= 1.94D-03
 Coeff-Com: -0.248D-02 0.338D-02 0.903D-03-0.232D-02-0.236D-02-0.169D-01
 Coeff-Com: -0.375D-02-0.223D-01 0.261D+00 0.784D+00
 Coeff-En:   0.000D+00 0.000D+00 0.000D+00 0.000D+00 0.000D+00 0.000D+00
 Coeff-En:   0.000D+00 0.000D+00 0.000D+00 0.100D+01
 Coeff:     -0.247D-02 0.337D-02 0.901D-03-0.232D-02-0.236D-02-0.168D-01
 Coeff:     -0.374D-02-0.223D-01 0.261D+00 0.785D+00
 Gap=     0.207 Goal=   None    Shift=    0.000
 RMSDP=1.15D-06 MaxDP=2.78D-04 DE=-8.02D-05 OVMax= 3.10D-04

 Cycle  11  Pass 1  IDiag  1:
 RMSU=  8.51D-07    CP:  9.67D-01  1.45D+00  3.66D-01  1.18D+00  6.97D-01
                    CP:  8.63D-01  8.50D-01  1.07D+00  1.08D+00  8.71D-01
 E= -1286.61349750825     Delta-E=       -0.000005709893 Rises=F Damp=F
 DIIS: error= 1.14D-04 at cycle  11 NSaved=  11.
 NSaved=11 IEnMin=11 EnMin= -1286.61349750825     IErMin=11 ErrMin= 1.14D-04
 ErrMax= 1.14D-04  0.00D+00 EMaxC= 1.00D-01 BMatC= 6.31D-06 BMatP= 1.99D-05
 IDIUse=3 WtCom= 9.99D-01 WtEn= 1.14D-03
 Coeff-Com: -0.234D-02 0.325D-02 0.246D-03-0.646D-03 0.218D-03-0.955D-02
 Coeff-Com: -0.675D-02-0.550D-01 0.837D-01 0.499D+00 0.488D+00
 Coeff-En:   0.000D+00 0.000D+00 0.000D+00 0.000D+00 0.000D+00 0.000D+00
 Coeff-En:   0.000D+00 0.000D+00 0.000D+00 0.000D+00 0.100D+01
 Coeff:     -0.233D-02 0.325D-02 0.246D-03-0.645D-03 0.217D-03-0.954D-02
 Coeff:     -0.674D-02-0.550D-01 0.836D-01 0.498D+00 0.488D+00
 Gap=     0.207 Goal=   None    Shift=    0.000
 RMSDP=6.41D-07 MaxDP=1.59D-04 DE=-5.71D-06 OVMax= 2.42D-04

 Cycle  12  Pass 1  IDiag  1:
 RMSU=  3.28D-07    CP:  9.67D-01  1.45D+00  3.66D-01  1.18D+00  6.97D-01
                    CP:  8.64D-01  8.54D-01  1.08D+00  1.09D+00  9.60D-01
                    CP:  8.24D-01
 E= -1286.61349971946     Delta-E=       -0.000002211204 Rises=F Damp=F
 DIIS: error= 5.69D-05 at cycle  12 NSaved=  12.
 NSaved=12 IEnMin=12 EnMin= -1286.61349971946     IErMin=12 ErrMin= 5.69D-05
 ErrMax= 5.69D-05  0.00D+00 EMaxC= 1.00D-01 BMatC= 1.57D-06 BMatP= 6.31D-06
 IDIUse=1 WtCom= 1.00D+00 WtEn= 0.00D+00
 Coeff-Com: -0.524D-03 0.751D-03 0.405D-04 0.922D-04 0.717D-04-0.289D-02
 Coeff-Com: -0.511D-02-0.375D-01-0.119D-01 0.134D+00 0.277D+00 0.646D+00
 Coeff:     -0.524D-03 0.751D-03 0.405D-04 0.922D-04 0.717D-04-0.289D-02
 Coeff:     -0.511D-02-0.375D-01-0.119D-01 0.134D+00 0.277D+00 0.646D+00
 Gap=     0.207 Goal=   None    Shift=    0.000
 RMSDP=5.33D-07 MaxDP=1.44D-04 DE=-2.21D-06 OVMax= 1.97D-04

 Cycle  13  Pass 1  IDiag  1:
 RMSU=  1.29D-07    CP:  9.67D-01  1.45D+00  3.67D-01  1.18D+00  6.98D-01
                    CP:  8.65D-01  8.56D-01  1.08D+00  1.11D+00  1.00D+00
                    CP:  8.66D-01  9.55D-01
 E= -1286.61350043545     Delta-E=       -0.000000715989 Rises=F Damp=F
 DIIS: error= 4.53D-06 at cycle  13 NSaved=  13.
 NSaved=13 IEnMin=13 EnMin= -1286.61350043545     IErMin=13 ErrMin= 4.53D-06
 ErrMax= 4.53D-06  0.00D+00 EMaxC= 1.00D-01 BMatC= 1.42D-08 BMatP= 1.57D-06
 IDIUse=1 WtCom= 1.00D+00 WtEn= 0.00D+00
 Coeff-Com:  0.893D-04-0.117D-03-0.306D-05 0.147D-03-0.601D-04-0.417D-03
 Coeff-Com: -0.227D-02-0.158D-01-0.166D-01 0.172D-01 0.964D-01 0.346D+00
 Coeff-Com:  0.575D+00
 Coeff:      0.893D-04-0.117D-03-0.306D-05 0.147D-03-0.601D-04-0.417D-03
 Coeff:     -0.227D-02-0.158D-01-0.166D-01 0.172D-01 0.964D-01 0.346D+00
 Coeff:      0.575D+00
 Gap=     0.207 Goal=   None    Shift=    0.000
 RMSDP=1.22D-07 MaxDP=3.08D-05 DE=-7.16D-07 OVMax= 3.65D-05

 Cycle  14  Pass 1  IDiag  1:
 RMSU=  4.88D-08    CP:  9.67D-01  1.45D+00  3.67D-01  1.18D+00  6.98D-01
                    CP:  8.65D-01  8.57D-01  1.08D+00  1.11D+00  1.01D+00
                    CP:  9.09D-01  9.77D-01  8.61D-01
 E= -1286.61350043602     Delta-E=       -0.000000000570 Rises=F Damp=F
 DIIS: error= 6.00D-06 at cycle  14 NSaved=  14.
 NSaved=14 IEnMin=14 EnMin= -1286.61350043602     IErMin=13 ErrMin= 4.53D-06
 ErrMax= 6.00D-06  0.00D+00 EMaxC= 1.00D-01 BMatC= 1.75D-08 BMatP= 1.42D-08
 IDIUse=1 WtCom= 1.00D+00 WtEn= 0.00D+00
 Coeff-Com:  0.449D-04-0.621D-04-0.124D-04 0.598D-04 0.266D-04 0.106D-03
 Coeff-Com: -0.413D-03-0.272D-02-0.536D-02-0.466D-02 0.189D-01 0.102D+00
 Coeff-Com:  0.279D+00 0.613D+00
 Coeff:      0.449D-04-0.621D-04-0.124D-04 0.598D-04 0.266D-04 0.106D-03
 Coeff:     -0.413D-03-0.272D-02-0.536D-02-0.466D-02 0.189D-01 0.102D+00
 Coeff:      0.279D+00 0.613D+00
 Gap=     0.207 Goal=   None    Shift=    0.000
 RMSDP=3.57D-08 MaxDP=7.14D-06 DE=-5.70D-10 OVMax= 1.07D-05

 Cycle  15  Pass 1  IDiag  1:
 RMSU=  1.31D-08    CP:  9.67D-01  1.45D+00  3.67D-01  1.18D+00  6.98D-01
                    CP:  8.65D-01  8.57D-01  1.08D+00  1.11D+00  1.01D+00
                    CP:  9.14D-01  1.00D+00  9.19D-01  9.06D-01
 E= -1286.61350044187     Delta-E=       -0.000000005858 Rises=F Damp=F
 DIIS: error= 3.04D-06 at cycle  15 NSaved=  15.
 NSaved=15 IEnMin=15 EnMin= -1286.61350044187     IErMin=15 ErrMin= 3.04D-06
 ErrMax= 3.04D-06  0.00D+00 EMaxC= 1.00D-01 BMatC= 4.30D-09 BMatP= 1.42D-08
 IDIUse=1 WtCom= 1.00D+00 WtEn= 0.00D+00
 Coeff-Com: -0.657D-05 0.895D-05-0.970D-05 0.112D-04 0.433D-04 0.121D-03
 Coeff-Com:  0.209D-03 0.162D-02 0.520D-03-0.477D-02-0.537D-02-0.328D-02
 Coeff-Com:  0.434D-01 0.275D+00 0.692D+00
 Coeff:     -0.657D-05 0.895D-05-0.970D-05 0.112D-04 0.433D-04 0.121D-03
 Coeff:      0.209D-03 0.162D-02 0.520D-03-0.477D-02-0.537D-02-0.328D-02
 Coeff:      0.434D-01 0.275D+00 0.692D+00
 Gap=     0.207 Goal=   None    Shift=    0.000
 RMSDP=2.68D-08 MaxDP=5.50D-06 DE=-5.86D-09 OVMax= 7.76D-06

 Cycle  16  Pass 1  IDiag  1:
 RMSU=  6.69D-09    CP:  9.67D-01  1.45D+00  3.67D-01  1.18D+00  6.98D-01
                    CP:  8.65D-01  8.57D-01  1.08D+00  1.11D+00  1.01D+00
                    CP:  9.20D-01  1.01D+00  9.36D-01  9.84D-01  9.39D-01
 E= -1286.61350044379     Delta-E=       -0.000000001913 Rises=F Damp=F
 DIIS: error= 4.84D-07 at cycle  16 NSaved=  16.
 NSaved=16 IEnMin=16 EnMin= -1286.61350044379     IErMin=16 ErrMin= 4.84D-07
 ErrMax= 4.84D-07  0.00D+00 EMaxC= 1.00D-01 BMatC= 1.11D-10 BMatP= 4.30D-09
 IDIUse=1 WtCom= 1.00D+00 WtEn= 0.00D+00
 Coeff-Com:  0.348D-05-0.493D-05-0.249D-05 0.960D-06 0.511D-05 0.390D-04
 Coeff-Com:  0.107D-03 0.861D-03 0.934D-03-0.491D-03-0.442D-02-0.187D-01
 Coeff-Com: -0.427D-01-0.472D-01 0.207D+00 0.905D+00
 Coeff:      0.348D-05-0.493D-05-0.249D-05 0.960D-06 0.511D-05 0.390D-04
 Coeff:      0.107D-03 0.861D-03 0.934D-03-0.491D-03-0.442D-02-0.187D-01
 Coeff:     -0.427D-01-0.472D-01 0.207D+00 0.905D+00
 Gap=     0.207 Goal=   None    Shift=    0.000
 RMSDP=7.72D-09 MaxDP=1.98D-06 DE=-1.91D-09 OVMax= 2.73D-06

 Cycle  17  Pass 1  IDiag  1:
 RMSU=  2.62D-09    CP:  9.67D-01  1.45D+00  3.67D-01  1.18D+00  6.98D-01
                    CP:  8.65D-01  8.57D-01  1.08D+00  1.11D+00  1.01D+00
                    CP:  9.23D-01  1.02D+00  9.53D-01  1.01D+00  1.12D+00
                    CP:  1.10D+00
 E= -1286.61350044391     Delta-E=       -0.000000000125 Rises=F Damp=F
 DIIS: error= 4.42D-08 at cycle  17 NSaved=  17.
 NSaved=17 IEnMin=17 EnMin= -1286.61350044391     IErMin=17 ErrMin= 4.42D-08
 ErrMax= 4.42D-08  0.00D+00 EMaxC= 1.00D-01 BMatC= 1.64D-12 BMatP= 1.11D-10
 IDIUse=1 WtCom= 1.00D+00 WtEn= 0.00D+00
 Coeff-Com:  0.132D-05-0.185D-05-0.257D-06-0.710D-06-0.163D-05 0.696D-05
 Coeff-Com:  0.150D-04 0.148D-03 0.230D-03 0.198D-03-0.131D-02-0.783D-02
 Coeff-Com: -0.253D-01-0.602D-01-0.134D-01 0.406D+00 0.701D+00
 Coeff:      0.132D-05-0.185D-05-0.257D-06-0.710D-06-0.163D-05 0.696D-05
 Coeff:      0.150D-04 0.148D-03 0.230D-03 0.198D-03-0.131D-02-0.783D-02
 Coeff:     -0.253D-01-0.602D-01-0.134D-01 0.406D+00 0.701D+00
 Gap=     0.207 Goal=   None    Shift=    0.000
 RMSDP=2.71D-09 MaxDP=5.27D-07 DE=-1.25D-10 OVMax= 7.92D-07

 Error on total polarization charges =  0.05493
 SCF Done:  E(RPBE1PBE) =  -1286.61350044     A.U. after   17 cycles
            NFock= 17  Conv=0.27D-08     -V/T= 2.0575
 KE= 1.216693733317D+03 PE=-8.770220072283D+03 EE= 3.386270884862D+03
 SMD-CDS (non-electrostatic) energy       (kcal/mol) =      -2.42
 (included in total energy above)
 Leave Link  502 at Fri Jul 11 10:59:49 2025, MaxMem=  6291456000 cpu:           17185.4 elap:            1452.7
 (Enter /share/apps/chem/gaussian-16-bin.c.02/g16/l801.exe)
 DoSCS=F DFT=T ScalE2(SS,OS)=  1.000000  1.000000
 Range of M.O.s used for correlation:     1  1010
 NBasis=  1010 NAE=   104 NBE=   104 NFC=     0 NFV=     0
 NROrb=   1010 NOA=   104 NOB=   104 NVA=   906 NVB=   906

 **** Warning!!: The largest alpha MO coefficient is  0.18786045D+02

 Leave Link  801 at Fri Jul 11 10:59:49 2025, MaxMem=  6291456000 cpu:               0.1 elap:               0.1
 (Enter /share/apps/chem/gaussian-16-bin.c.02/g16/l1002.exe)
 Minotr:  Closed shell wavefunction.
 NEqPCM:  Using equilibrium solvation (IEInf=0, Eps=   7.4257, EpsInf=   1.9740)
          Direct CPHF calculation.
          Differentiating once with respect to magnetic field using GIAOs.
          Electric field/nuclear overlap derivatives assumed to be zero.
          Requested convergence is 1.0D-08 RMS, and 1.0D-07 maximum.
          Secondary convergence is 1.0D-12 RMS, and 1.0D-12 maximum.
          NewPWx=T KeepS1=F KeepF1=F KeepIn=T MapXYZ=F SortEE=F KeepMc=T.
        18349 words used for storage of precomputed grid.
 Two-electron integral symmetry used by symmetrizing perturbed Fock matrices.
          MDV=    6291456000 using IRadAn=       1.
          Solving linear equations simultaneously, MaxMat=     384.
   1 Symmetry operations used in ECPInt.
 ECPInt:  NShTT=   87571 NPrTT=  255912 LenC2=   87572 LenP2D=  255912.
 LDataN:  DoStor=T MaxTD1= 7 Len=  274
 FoFJK:  IHMeth= 1 ICntrl=    6127 DoSepK=F KAlg= 0 I1Cent=           0 FoldK=F
 IRaf=         1 NMat=       1 IRICut=       1 DoRegI=T DoRafI=F ISym2E= 0 IDoP0=0 IntGTp=1.
          There are     3 degrees of freedom in the 1st order CPHF.  IDoFFX=0 NUNeed=     3.
      3 vectors produced by pass  0 Test12= 3.14D-12 3.33D-08 XBig12= 6.38D+01 1.38D+00.
 AX will form     3 AO Fock derivatives at one time.
      3 vectors produced by pass  1 Test12= 3.14D-12 3.33D-08 XBig12= 2.56D-01 2.51D-01.
      3 vectors produced by pass  2 Test12= 3.14D-12 3.33D-08 XBig12= 6.10D-03 3.49D-02.
      3 vectors produced by pass  3 Test12= 3.14D-12 3.33D-08 XBig12= 6.79D-05 2.68D-03.
      3 vectors produced by pass  4 Test12= 3.14D-12 3.33D-08 XBig12= 6.13D-07 3.31D-04.
      3 vectors produced by pass  5 Test12= 3.14D-12 3.33D-08 XBig12= 1.58D-08 5.33D-05.
      3 vectors produced by pass  6 Test12= 3.14D-12 3.33D-08 XBig12= 1.25D-10 3.79D-06.
      3 vectors produced by pass  7 Test12= 3.14D-12 3.33D-08 XBig12= 1.25D-12 4.00D-07.
      1 vectors produced by pass  8 Test12= 3.14D-12 3.33D-08 XBig12= 9.99D-15 4.43D-08.
 InvSVY:  IOpt=1 It=  1 EMax= 3.55D-15
 Solved reduced A of dimension    25 with     3 vectors.
 Calculating GIAO nuclear magnetic shielding tensors.
 SCF GIAO Magnetic shielding tensor (ppm):
      1  C    Isotropic =   164.9735   Anisotropy =    31.0538
   XX=   183.4097   YX=     5.4640   ZX=    -3.5366
   XY=    10.6888   YY=   155.4404   ZY=    -0.5402
   XZ=    -0.0643   YZ=     0.5732   ZZ=   156.0702
   Eigenvalues:   153.1924   156.0520   185.6760
      2  C    Isotropic =   150.2003   Anisotropy =    18.3148
   XX=   156.1971   YX=     1.2439   ZX=     3.5661
   XY=     4.5265   YY=   140.4433   ZY=     0.1451
   XZ=    10.2623   YZ=     1.3266   ZZ=   153.9605
   Eigenvalues:   139.9107   148.2801   162.4101
      3  C    Isotropic =   163.9159   Anisotropy =    29.7861
   XX=   162.5274   YX=    -6.3901   ZX=    -9.1753
   XY=   -10.8791   YY=   159.1728   ZY=    11.9832
   XZ=    -8.8158   YZ=     9.6298   ZZ=   170.0477
   Eigenvalues:   151.2428   156.7318   183.7733
      4  C    Isotropic =   111.5302   Anisotropy =    26.7825
   XX=   123.1838   YX=    12.6783   ZX=     1.3629
   XY=    12.3007   YY=    98.8815   ZY=     2.5891
   XZ=     4.2139   YZ=     4.4539   ZZ=   112.5252
   Eigenvalues:    93.3584   111.8469   129.3852
      5  C    Isotropic =   151.5094   Anisotropy =    13.6172
   XX=   150.0000   YX=    -3.6145   ZX=    -2.4247
   XY=    -9.7111   YY=   149.3953   ZY=     2.7512
   XZ=    -8.4757   YZ=    -0.9991   ZZ=   155.1328
   Eigenvalues:   142.1751   151.7656   160.5875
      6  C    Isotropic =   169.0829   Anisotropy =    26.3491
   XX=   162.7483   YX=    -6.8522   ZX=     0.3261
   XY=    -9.0357   YY=   182.7014   ZY=    -8.5371
   XZ=     1.8164   YZ=    -2.1384   ZZ=   161.7990
   Eigenvalues:   159.4967   161.1031   186.6489
      7  C    Isotropic =   164.5032   Anisotropy =    29.8662
   XX=   156.6626   YX=    -8.9036   ZX=    12.3382
   XY=    -6.5044   YY=   161.6554   ZY=    -3.8974
   XZ=     9.8024   YZ=    -9.8667   ZZ=   175.1916
   Eigenvalues:   149.6643   159.4313   184.4140
      8  N    Isotropic =    33.0150   Anisotropy =   175.7808
   XX=   -62.3357   YX=   -76.2353   ZX=    23.9433
   XY=   -43.0763   YY=    19.9940   ZY=    40.4978
   XZ=     7.5666   YZ=    27.2615   ZZ=   141.3866
   Eigenvalues:   -97.3984    46.2411   150.2022
      9  C    Isotropic =    58.7287   Anisotropy =   120.8432
   XX=    52.2208   YX=    13.5756   ZX=    -8.2327
   XY=    24.6856   YY=     3.0625   ZY=    47.5154
   XZ=   -13.6138   YZ=    52.0847   ZZ=   120.9028
   Eigenvalues:   -21.5648    58.4600   139.2908
     10  C    Isotropic =    58.7285   Anisotropy =   120.8436
   XX=    52.2205   YX=   -13.5753   ZX=     8.2313
   XY=   -24.6853   YY=     3.0618   ZY=    47.5150
   XZ=    13.6131   YZ=    52.0846   ZZ=   120.9032
   Eigenvalues:   -21.5648    58.4594   139.2909
     11  N    Isotropic =    33.0155   Anisotropy =   175.7820
   XX=   -62.3368   YX=    76.2338   ZX=   -23.9432
   XY=    43.0757   YY=    19.9956   ZY=    40.4973
   XZ=    -7.5694   YZ=    27.2625   ZZ=   141.3877
   Eigenvalues:   -97.3983    46.2413   150.2035
     12  C    Isotropic =   111.5300   Anisotropy =    26.7818
   XX=   123.1833   YX=   -12.6779   ZX=    -1.3642
   XY=   -12.3000   YY=    98.8809   ZY=     2.5886
   XZ=    -4.2144   YZ=     4.4533   ZZ=   112.5259
   Eigenvalues:    93.3584   111.8471   129.3846
     13  C    Isotropic =   151.5095   Anisotropy =    13.6167
   XX=   149.9994   YX=     3.6143   ZX=     2.4249
   XY=     9.7109   YY=   149.3962   ZY=     2.7505
   XZ=     8.4764   YZ=    -0.9997   ZZ=   155.1329
   Eigenvalues:   142.1749   151.7663   160.5873
     14  C    Isotropic =   164.5025   Anisotropy =    29.8659
   XX=   156.6613   YX=     8.9042   ZX=   -12.3372
   XY=     6.5049   YY=   161.6570   ZY=    -3.8986
   XZ=    -9.8019   YZ=    -9.8685   ZZ=   175.1893
   Eigenvalues:   149.6636   159.4308   184.4131
     15  C    Isotropic =   169.0833   Anisotropy =    26.3490
   XX=   162.7484   YX=     6.8512   ZX=    -0.3256
   XY=     9.0348   YY=   182.7030   ZY=    -8.5360
   XZ=    -1.8156   YZ=    -2.1375   ZZ=   161.7984
   Eigenvalues:   159.4972   161.1034   186.6493
     16  C    Isotropic =   150.2008   Anisotropy =    18.3144
   XX=   156.1978   YX=    -1.2440   ZX=    -3.5660
   XY=    -4.5261   YY=   140.4431   ZY=     0.1443
   XZ=   -10.2616   YZ=     1.3260   ZZ=   153.9614
   Eigenvalues:   139.9105   148.2814   162.4104
     17  C    Isotropic =   163.9166   Anisotropy =    29.7866
   XX=   162.5283   YX=     6.3891   ZX=     9.1757
   XY=    10.8777   YY=   159.1708   ZY=    11.9832
   XZ=     8.8168   YZ=     9.6294   ZZ=   170.0506
   Eigenvalues:   151.2429   156.7325   183.7743
     18  C    Isotropic =   164.9736   Anisotropy =    31.0541
   XX=   183.4096   YX=    -5.4650   ZX=     3.5358
   XY=   -10.6897   YY=   155.4411   ZY=    -0.5407
   XZ=     0.0634   YZ=     0.5726   ZZ=   156.0700
   Eigenvalues:   153.1928   156.0516   185.6763
     19  C    Isotropic =   -16.4702   Anisotropy =   149.0826
   XX=  -120.3308   YX=    -0.0007   ZX=    -0.0008
   XY=    -0.0012   YY=    -5.1574   ZY=    26.8231
   XZ=    -0.0030   YZ=    22.2679   ZZ=    76.0777
   Eigenvalues:  -120.3308   -11.9979    82.9182
     20  Ni   Isotropic = -3743.9096   Anisotropy =   616.7150
   XX= -3736.8548   YX=    -0.0329   ZX=    -0.0008
   XY=    -0.0375   YY= -4158.6660   ZY=   -21.5725
   XZ=     0.0018   YZ=   128.2025   ZZ= -3336.2079
   Eigenvalues: -4162.1077 -3736.8548 -3332.7662
     21  C    Isotropic =   -29.7591   Anisotropy =   404.7903
   XX=  -162.7555   YX=     0.0043   ZX=     0.0107
   XY=     0.0042   YY=   -96.0355   ZY=   154.9051
   XZ=     0.0096   YZ=   153.1664   ZZ=   169.5137
   Eigenvalues:  -166.6229  -162.7555   240.1011
     22  O    Isotropic =   -71.6402   Anisotropy =   566.9671
   XX=  -252.6716   YX=     0.0070   ZX=     0.0137
   XY=     0.0061   YY=  -168.7398   ZY=   224.4158
   XZ=     0.0111   YZ=   211.1763   ZZ=   206.4908
   Eigenvalues:  -268.5869  -252.6716   306.3379
     23  C    Isotropic =   -31.7085   Anisotropy =   403.4792
   XX=    69.5013   YX=   115.8584   ZX=  -162.9246
   XY=   112.1824   YY=  -106.4007   ZY=   -78.4910
   XZ=  -163.7383   YZ=   -80.7436   ZZ=   -58.2260
   Eigenvalues:  -169.9880  -162.4150   237.2777
     24  O    Isotropic =   -74.4264   Anisotropy =   551.3680
   XX=    63.4163   YX=   163.1906   ZX=  -214.7798
   XY=   165.3353   YY=  -185.4804   ZY=  -111.3952
   XZ=  -215.9010   YZ=  -108.0553   ZZ=  -101.2151
   Eigenvalues:  -267.3537  -249.0777   293.1522
     25  C    Isotropic =   -31.7084   Anisotropy =   403.4798
   XX=    69.5427   YX=  -115.8880   ZX=   162.8940
   XY=  -112.2121   YY=  -106.3803   ZY=   -78.4838
   XZ=   163.7095   YZ=   -80.7356   ZZ=   -58.2875
   Eigenvalues:  -169.9891  -162.4141   237.2782
     26  O    Isotropic =   -74.4258   Anisotropy =   551.3681
   XX=    63.4704   YX=  -163.2321   ZX=   214.7372
   XY=  -165.3770   YY=  -185.4509   ZY=  -111.3832
   XZ=   215.8621   YZ=  -108.0449   ZZ=  -101.2969
   Eigenvalues:  -267.3524  -249.0780   293.1529
     27  H    Isotropic =    30.1338   Anisotropy =    11.1178
   XX=    33.2770   YX=     0.0908   ZX=     5.3229
   XY=     0.2031   YY=    25.4922   ZY=     0.5802
   XZ=     4.7077   YZ=     0.0804   ZZ=    31.6323
   Eigenvalues:    25.4705    27.3853    37.5457
     28  H    Isotropic =    30.4427   Anisotropy =     7.8281
   XX=    30.8832   YX=     3.6942   ZX=     0.1553
   XY=     2.9766   YY=    33.1393   ZY=    -1.4762
   XZ=     0.4851   YZ=    -1.5135   ZZ=    27.3055
   Eigenvalues:    26.5337    29.1329    35.6614
     29  H    Isotropic =    29.7925   Anisotropy =     8.4872
   XX=    34.4862   YX=    -2.3822   ZX=    -1.6455
   XY=    -1.2174   YY=    26.6505   ZY=     2.9340
   XZ=    -0.9400   YZ=     3.1592   ZZ=    28.2409
   Eigenvalues:    24.2548    29.6721    35.4506
     30  H    Isotropic =    28.8508   Anisotropy =     5.2729
   XX=    27.0519   YX=    -0.6598   ZX=     0.2048
   XY=    -0.2041   YY=    32.0858   ZY=    -0.5885
   XZ=     1.7706   YZ=    -1.4131   ZZ=    27.4147
   Eigenvalues:    26.2112    27.9751    32.3661
     31  H    Isotropic =    30.7315   Anisotropy =     6.1820
   XX=    34.6821   YX=     1.1163   ZX=    -1.5295
   XY=     1.2475   YY=    25.5196   ZY=     1.6489
   XZ=     0.6233   YZ=     1.8591   ZZ=    31.9930
   Eigenvalues:    24.9131    32.4287    34.8529
     32  H    Isotropic =    30.5773   Anisotropy =     7.0943
   XX=    28.9764   YX=    -2.5159   ZX=     0.7208
   XY=    -1.4985   YY=    34.3843   ZY=     1.0552
   XZ=     2.0548   YZ=     2.5797   ZZ=    28.3711
   Eigenvalues:    26.3569    30.0681    35.3068
     33  H    Isotropic =    30.3737   Anisotropy =    10.9335
   XX=    28.3416   YX=    -1.0497   ZX=     1.6090
   XY=    -0.2794   YY=    25.8760   ZY=     0.5238
   XZ=     3.7000   YZ=     0.2401   ZZ=    36.9036
   Eigenvalues:    25.5952    27.8633    37.6627
     34  H    Isotropic =    26.5384   Anisotropy =     8.5766
   XX=    26.7811   YX=    -2.5801   ZX=     0.6887
   XY=    -4.3494   YY=    29.4613   ZY=    -1.6693
   XZ=     1.5747   YZ=    -1.4631   ZZ=    23.3729
   Eigenvalues:    22.9513    24.4078    32.2562
     35  H    Isotropic =    28.7852   Anisotropy =     6.3432
   XX=    31.7673   YX=     2.9148   ZX=    -0.1725
   XY=     2.5695   YY=    26.4560   ZY=     0.1943
   XZ=    -1.3240   YZ=     0.0426   ZZ=    28.1322
   Eigenvalues:    25.2378    28.1037    33.0139
     36  H    Isotropic =    30.3903   Anisotropy =     6.5118
   XX=    31.2237   YX=     1.8515   ZX=    -0.8469
   XY=     2.0299   YY=    33.6531   ZY=     0.7206
   XZ=    -2.6484   YZ=     1.5909   ZZ=    26.2941
   Eigenvalues:    25.3768    31.0625    34.7314
     37  H    Isotropic =    29.7273   Anisotropy =     8.0200
   XX=    28.4545   YX=    -3.5690   ZX=     3.3087
   XY=    -4.4331   YY=    30.6641   ZY=    -1.6610
   XZ=     2.6070   YZ=    -0.1843   ZZ=    30.0634
   Eigenvalues:    24.7144    29.3936    35.0740
     38  H    Isotropic =    30.3290   Anisotropy =    11.6551
   XX=    30.4532   YX=    -4.2150   ZX=    -3.9164
   XY=    -4.5604   YY=    30.4244   ZY=     3.3568
   XZ=    -4.2963   YZ=     2.8533   ZZ=    30.1093
   Eigenvalues:    25.7292    27.1587    38.0991
     39  H    Isotropic =    30.9991   Anisotropy =     5.3401
   XX=    34.3955   YX=     1.3721   ZX=     1.0006
   XY=     0.6463   YY=    26.7250   ZY=     1.9293
   XZ=    -0.8759   YZ=     1.4428   ZZ=    31.8767
   Eigenvalues:    26.1132    32.3248    34.5592
     40  H    Isotropic =    30.3167   Anisotropy =    10.9270
   XX=    27.8938   YX=    -1.5565   ZX=    -2.2194
   XY=    -2.2561   YY=    26.8841   ZY=     1.5692
   XZ=    -3.8464   YZ=     1.7035   ZZ=    36.1721
   Eigenvalues:    25.3781    27.9705    37.6013
     41  H    Isotropic =    29.9649   Anisotropy =     8.9227
   XX=    26.4092   YX=    -3.1988   ZX=     0.2604
   XY=    -2.7912   YY=    33.5325   ZY=    -1.9502
   XZ=    -0.8743   YZ=    -4.0917   ZZ=    29.9529
   Eigenvalues:    24.9079    29.0733    35.9133
     42  H    Isotropic =    23.7232   Anisotropy =     6.1082
   XX=    25.7150   YX=     2.0317   ZX=    -1.4987
   XY=     1.7423   YY=    24.5767   ZY=    -1.1977
   XZ=    -1.8018   YZ=    -1.6230   ZZ=    20.8777
   Eigenvalues:    20.1930    23.1812    27.7953
     43  H    Isotropic =    23.7232   Anisotropy =     6.1082
   XX=    25.7149   YX=    -2.0318   ZX=     1.4985
   XY=    -1.7424   YY=    24.5768   ZY=    -1.1976
   XZ=     1.8016   YZ=    -1.6230   ZZ=    20.8778
   Eigenvalues:    20.1931    23.1811    27.7953
     44  H    Isotropic =    26.5384   Anisotropy =     8.5764
   XX=    26.7810   YX=     2.5799   ZX=    -0.6886
   XY=     4.3490   YY=    29.4617   ZY=    -1.6693
   XZ=    -1.5747   YZ=    -1.4629   ZZ=    23.3727
   Eigenvalues:    22.9512    24.4081    32.2560
     45  H    Isotropic =    28.7851   Anisotropy =     6.3433
   XX=    31.7675   YX=    -2.9147   ZX=     0.1723
   XY=    -2.5695   YY=    26.4558   ZY=     0.1942
   XZ=     1.3238   YZ=     0.0426   ZZ=    28.1321
   Eigenvalues:    25.2377    28.1037    33.0140
     46  H    Isotropic =    30.3166   Anisotropy =    10.9270
   XX=    27.8937   YX=     1.5563   ZX=     2.2195
   XY=     2.2558   YY=    26.8839   ZY=     1.5686
   XZ=     3.8465   YZ=     1.7028   ZZ=    36.1723
   Eigenvalues:    25.3781    27.9705    37.6013
     47  H    Isotropic =    30.9990   Anisotropy =     5.3403
   XX=    34.3955   YX=    -1.3718   ZX=    -1.0008
   XY=    -0.6461   YY=    26.7247   ZY=     1.9290
   XZ=     0.8757   YZ=     1.4424   ZZ=    31.8768
   Eigenvalues:    26.1132    32.3247    34.5592
     48  H    Isotropic =    29.9648   Anisotropy =     8.9227
   XX=    26.4090   YX=     3.1987   ZX=    -0.2601
   XY=     2.7912   YY=    33.5330   ZY=    -1.9498
   XZ=     0.8747   YZ=    -4.0914   ZZ=    29.9523
   Eigenvalues:    24.9077    29.0733    35.9132
     49  H    Isotropic =    30.3904   Anisotropy =     6.5117
   XX=    31.2239   YX=    -1.8517   ZX=     0.8467
   XY=    -2.0300   YY=    33.6528   ZY=     0.7212
   XZ=     2.6483   YZ=     1.5915   ZZ=    26.2944
   Eigenvalues:    25.3770    31.0626    34.7315
     50  H    Isotropic =    30.3290   Anisotropy =    11.6551
   XX=    30.4529   YX=     4.2147   ZX=     3.9165
   XY=     4.5601   YY=    30.4244   ZY=     3.3569
   XZ=     4.2966   YZ=     2.8535   ZZ=    30.1097
   Eigenvalues:    25.7292    27.1587    38.0991
     51  H    Isotropic =    29.7274   Anisotropy =     8.0202
   XX=    28.4543   YX=     3.5692   ZX=    -3.3084
   XY=     4.4333   YY=    30.6645   ZY=    -1.6613
   XZ=    -2.6066   YZ=    -0.1845   ZZ=    30.0633
   Eigenvalues:    24.7145    29.3934    35.0742
     52  H    Isotropic =    28.8507   Anisotropy =     5.2730
   XX=    27.0519   YX=     0.6598   ZX=    -0.2048
   XY=     0.2043   YY=    32.0859   ZY=    -0.5882
   XZ=    -1.7706   YZ=    -1.4129   ZZ=    27.4145
   Eigenvalues:    26.2111    27.9751    32.3660
     53  H    Isotropic =    30.7316   Anisotropy =     6.1819
   XX=    34.6821   YX=    -1.1166   ZX=     1.5293
   XY=    -1.2479   YY=    25.5193   ZY=     1.6489
   XZ=    -0.6236   YZ=     1.8585   ZZ=    31.9935
   Eigenvalues:    24.9129    32.4291    34.8529
     54  H    Isotropic =    30.3738   Anisotropy =    10.9337
   XX=    28.3416   YX=     1.0497   ZX=    -1.6089
   XY=     0.2794   YY=    25.8759   ZY=     0.5233
   XZ=    -3.7000   YZ=     0.2394   ZZ=    36.9038
   Eigenvalues:    25.5952    27.8632    37.6629
     55  H    Isotropic =    30.5774   Anisotropy =     7.0941
   XX=    28.9764   YX=     2.5158   ZX=    -0.7206
   XY=     1.4983   YY=    34.3840   ZY=     1.0557
   XZ=    -2.0548   YZ=     2.5801   ZZ=    28.3717
   Eigenvalues:    26.3571    30.0682    35.3067
     56  H    Isotropic =    30.4427   Anisotropy =     7.8281
   XX=    30.8831   YX=    -3.6941   ZX=    -0.1557
   XY=    -2.9765   YY=    33.1396   ZY=    -1.4759
   XZ=    -0.4854   YZ=    -1.5132   ZZ=    27.3053
   Eigenvalues:    26.5336    29.1330    35.6614
     57  H    Isotropic =    30.1338   Anisotropy =    11.1178
   XX=    33.2769   YX=    -0.0906   ZX=    -5.3229
   XY=    -0.2030   YY=    25.4922   ZY=     0.5798
   XZ=    -4.7077   YZ=     0.0800   ZZ=    31.6323
   Eigenvalues:    25.4705    27.3852    37.5457
     58  H    Isotropic =    29.7925   Anisotropy =     8.4873
   XX=    34.4863   YX=     2.3820   ZX=     1.6458
   XY=     1.2173   YY=    26.6500   ZY=     2.9337
   XZ=     0.9402   YZ=     3.1589   ZZ=    28.2413
   Eigenvalues:    24.2549    29.6719    35.4508
 End of Minotr F.D. properties file   721 does not exist.
 End of Minotr F.D. properties file   722 does not exist.
 End of Minotr F.D. properties file   788 does not exist.
 Leave Link 1002 at Fri Jul 11 11:24:17 2025, MaxMem=  6291456000 cpu:           17500.1 elap:            1468.1
 (Enter /share/apps/chem/gaussian-16-bin.c.02/g16/l601.exe)
 Copying SCF densities to generalized density rwf, IOpCl= 0 IROHF=0.

 **********************************************************************

            Population analysis using the SCF Density.

 **********************************************************************

 Orbital symmetries:
       Occupied  (A) (A) (A) (A) (A) (A) (A) (A) (A) (A) (A) (A)
                 (A) (A) (A) (A) (A) (A) (A) (A) (A) (A) (A) (A)
                 (A) (A) (A) (A) (A) (A) (A) (A) (A) (A) (A) (A)
                 (A) (A) (A) (A) (A) (A) (A) (A) (A) (A) (A) (A)
                 (A) (A) (A) (A) (A) (A) (A) (A) (A) (A) (A) (A)
                 (A) (A) (A) (A) (A) (A) (A) (A) (A) (A) (A) (A)
                 (A) (A) (A) (A) (A) (A) (A) (A) (A) (A) (A) (A)
                 (A) (A) (A) (A) (A) (A) (A) (A) (A) (A) (A) (A)
                 (A) (A) (A) (A) (A) (A) (A) (A)
       Virtual   (A) (A) (A) (A) (A) (A) (A) (A) (A) (A) (A) (A)
                 (A) (A) (A) (A) (A) (A) (A) (A) (A) (A) (A) (A)
                 (A) (A) (A) (A) (A) (A) (A) (A) (A) (A) (A) (A)
                 (A) (A) (A) (A) (A) (A) (A) (A) (A) (A) (A) (A)
                 (A) (A) (A) (A) (A) (A) (A) (A) (A) (A) (A) (A)
                 (A) (A) (A) (A) (A) (A) (A) (A) (A) (A) (A) (A)
                 (A) (A) (A) (A) (A) (A) (A) (A) (A) (A) (A) (A)
                 (A) (A) (A) (A) (A) (A) (A) (A) (A) (A) (A) (A)
                 (A) (A) (A) (A) (A) (A) (A) (A) (A) (A) (A) (A)
                 (A) (A) (A) (A) (A) (A) (A) (A) (A) (A) (A) (A)
                 (A) (A) (A) (A) (A) (A) (A) (A) (A) (A) (A) (A)
                 (A) (A) (A) (A) (A) (A) (A) (A) (A) (A) (A) (A)
                 (A) (A) (A) (A) (A) (A) (A) (A) (A) (A) (A) (A)
                 (A) (A) (A) (A) (A) (A) (A) (A) (A) (A) (A) (A)
                 (A) (A) (A) (A) (A) (A) (A) (A) (A) (A) (A) (A)
                 (A) (A) (A) (A) (A) (A) (A) (A) (A) (A) (A) (A)
                 (A) (A) (A) (A) (A) (A) (A) (A) (A) (A) (A) (A)
                 (A) (A) (A) (A) (A) (A) (A) (A) (A) (A) (A) (A)
                 (A) (A) (A) (A) (A) (A) (A) (A) (A) (A) (A) (A)
                 (A) (A) (A) (A) (A) (A) (A) (A) (A) (A) (A) (A)
                 (A) (A) (A) (A) (A) (A) (A) (A) (A) (A) (A) (A)
                 (A) (A) (A) (A) (A) (A) (A) (A) (A) (A) (A) (A)
                 (A) (A) (A) (A) (A) (A) (A) (A) (A) (A) (A) (A)
                 (A) (A) (A) (A) (A) (A) (A) (A) (A) (A) (A) (A)
                 (A) (A) (A) (A) (A) (A) (A) (A) (A) (A) (A) (A)
                 (A) (A) (A) (A) (A) (A) (A) (A) (A) (A) (A) (A)
                 (A) (A) (A) (A) (A) (A) (A) (A) (A) (A) (A) (A)
                 (A) (A) (A) (A) (A) (A) (A) (A) (A) (A) (A) (A)
                 (A) (A) (A) (A) (A) (A) (A) (A) (A) (A) (A) (A)
                 (A) (A) (A) (A) (A) (A) (A) (A) (A) (A) (A) (A)
                 (A) (A) (A) (A) (A) (A) (A) (A) (A) (A) (A) (A)
                 (A) (A) (A) (A) (A) (A) (A) (A) (A) (A) (A) (A)
                 (A) (A) (A) (A) (A) (A) (A) (A) (A) (A) (A) (A)
                 (A) (A) (A) (A) (A) (A) (A) (A) (A) (A) (A) (A)
                 (A) (A) (A) (A) (A) (A) (A) (A) (A) (A) (A) (A)
                 (A) (A) (A) (A) (A) (A) (A) (A) (A) (A) (A) (A)
                 (A) (A) (A) (A) (A) (A) (A) (A) (A) (A) (A) (A)
                 (A) (A) (A) (A) (A) (A) (A) (A) (A) (A) (A) (A)
                 (A) (A) (A) (A) (A) (A) (A) (A) (A) (A) (A) (A)
                 (A) (A) (A) (A) (A) (A) (A) (A) (A) (A) (A) (A)
                 (A) (A) (A) (A) (A) (A) (A) (A) (A) (A) (A) (A)
                 (A) (A) (A) (A) (A) (A) (A) (A) (A) (A) (A) (A)
                 (A) (A) (A) (A) (A) (A) (A) (A) (A) (A) (A) (A)
                 (A) (A) (A) (A) (A) (A) (A) (A) (A) (A) (A) (A)
                 (A) (A) (A) (A) (A) (A) (A) (A) (A) (A) (A) (A)
                 (A) (A) (A) (A) (A) (A) (A) (A) (A) (A) (A) (A)
                 (A) (A) (A) (A) (A) (A) (A) (A) (A) (A) (A) (A)
                 (A) (A) (A) (A) (A) (A) (A) (A) (A) (A) (A) (A)
                 (A) (A) (A) (A) (A) (A) (A) (A) (A) (A) (A) (A)
                 (A) (A) (A) (A) (A) (A) (A) (A) (A) (A) (A) (A)
                 (A) (A) (A) (A) (A) (A) (A) (A) (A) (A) (A) (A)
                 (A) (A) (A) (A) (A) (A) (A) (A) (A) (A) (A) (A)
                 (A) (A) (A) (A) (A) (A) (A) (A) (A) (A) (A) (A)
                 (A) (A) (A) (A) (A) (A) (A) (A) (A) (A) (A) (A)
                 (A) (A) (A) (A) (A) (A) (A) (A) (A) (A) (A) (A)
                 (A) (A) (A) (A) (A) (A) (A) (A) (A) (A) (A) (A)
                 (A) (A) (A) (A) (A) (A) (A) (A) (A) (A) (A) (A)
                 (A) (A) (A) (A) (A) (A) (A) (A) (A) (A) (A) (A)
                 (A) (A) (A) (A) (A) (A) (A) (A) (A) (A) (A) (A)
                 (A) (A) (A) (A) (A) (A) (A) (A) (A) (A) (A) (A)
                 (A) (A) (A) (A) (A) (A) (A) (A) (A) (A) (A) (A)
                 (A) (A) (A) (A) (A) (A) (A) (A) (A) (A) (A) (A)
                 (A) (A) (A) (A) (A) (A) (A) (A) (A) (A) (A) (A)
                 (A) (A) (A) (A) (A) (A) (A) (A) (A) (A) (A) (A)
                 (A) (A) (A) (A) (A) (A) (A) (A) (A) (A) (A) (A)
                 (A) (A) (A) (A) (A) (A) (A) (A) (A) (A) (A) (A)
                 (A) (A) (A) (A) (A) (A) (A) (A) (A) (A) (A) (A)
                 (A) (A) (A) (A) (A) (A) (A) (A) (A) (A) (A) (A)
                 (A) (A) (A) (A) (A) (A) (A) (A) (A) (A) (A) (A)
                 (A) (A) (A) (A) (A) (A) (A) (A) (A) (A) (A) (A)
                 (A) (A) (A) (A) (A) (A) (A) (A) (A) (A) (A) (A)
                 (A) (A) (A) (A) (A) (A) (A) (A) (A) (A) (A) (A)
                 (A) (A) (A) (A) (A) (A) (A) (A) (A) (A) (A) (A)
                 (A) (A) (A) (A) (A) (A) (A) (A) (A) (A) (A) (A)
                 (A) (A) (A) (A) (A) (A) (A) (A) (A) (A) (A) (A)
                 (A) (A) (A) (A) (A) (A)
 The electronic state is 1-A.
 Alpha  occ. eigenvalues --  -19.27123 -19.27028 -19.27027 -14.44126 -14.44124
 Alpha  occ. eigenvalues --  -10.33138 -10.33057 -10.33057 -10.27740 -10.26357
 Alpha  occ. eigenvalues --  -10.26357 -10.25582 -10.25509 -10.23149 -10.23149
 Alpha  occ. eigenvalues --  -10.23013 -10.23013 -10.20922 -10.20922 -10.20848
 Alpha  occ. eigenvalues --  -10.20847 -10.20624 -10.20624 -10.20538 -10.20537
 Alpha  occ. eigenvalues --   -4.21144  -2.68773  -2.68445  -2.67703  -1.14242
 Alpha  occ. eigenvalues --   -1.14143  -1.14115  -1.05387  -0.95040  -0.85218
 Alpha  occ. eigenvalues --   -0.82372  -0.79721  -0.79696  -0.77880  -0.72600
 Alpha  occ. eigenvalues --   -0.69965  -0.69603  -0.69470  -0.69296  -0.68793
 Alpha  occ. eigenvalues --   -0.62854  -0.61440  -0.59290  -0.59282  -0.59178
 Alpha  occ. eigenvalues --   -0.57216  -0.57148  -0.57082  -0.54513  -0.52086
 Alpha  occ. eigenvalues --   -0.49913  -0.49737  -0.48185  -0.47371  -0.46552
 Alpha  occ. eigenvalues --   -0.46255  -0.46230  -0.45919  -0.45864  -0.45656
 Alpha  occ. eigenvalues --   -0.45540  -0.45106  -0.44956  -0.44889  -0.44535
 Alpha  occ. eigenvalues --   -0.44323  -0.44013  -0.43533  -0.42690  -0.41196
 Alpha  occ. eigenvalues --   -0.41135  -0.40391  -0.40111  -0.38872  -0.38826
 Alpha  occ. eigenvalues --   -0.38536  -0.38471  -0.38331  -0.38272  -0.36542
 Alpha  occ. eigenvalues --   -0.36004  -0.35342  -0.35195  -0.34646  -0.34160
 Alpha  occ. eigenvalues --   -0.34137  -0.34045  -0.33370  -0.32919  -0.32368
 Alpha  occ. eigenvalues --   -0.31968  -0.31909  -0.29432  -0.28775  -0.28293
 Alpha  occ. eigenvalues --   -0.26024  -0.23547  -0.23172  -0.22489
 Alpha virt. eigenvalues --   -0.01761  -0.01062  -0.00974   0.00144   0.00326
 Alpha virt. eigenvalues --    0.00925   0.01348   0.02755   0.02760   0.04107
 Alpha virt. eigenvalues --    0.04596   0.04758   0.06105   0.06867   0.06996
 Alpha virt. eigenvalues --    0.07593   0.07810   0.08060   0.08937   0.09576
 Alpha virt. eigenvalues --    0.09866   0.10141   0.10344   0.11364   0.11517
 Alpha virt. eigenvalues --    0.11942   0.12238   0.12513   0.13011   0.13304
 Alpha virt. eigenvalues --    0.13582   0.13688   0.14004   0.14765   0.14862
 Alpha virt. eigenvalues --    0.15145   0.15506   0.15774   0.16560   0.16714
 Alpha virt. eigenvalues --    0.17069   0.17353   0.17462   0.17934   0.18069
 Alpha virt. eigenvalues --    0.18556   0.18943   0.19093   0.19567   0.19650
 Alpha virt. eigenvalues --    0.19791   0.20371   0.20537   0.21162   0.21822
 Alpha virt. eigenvalues --    0.21887   0.22254   0.22350   0.22654   0.23308
 Alpha virt. eigenvalues --    0.23658   0.24027   0.24244   0.24528   0.24834
 Alpha virt. eigenvalues --    0.25841   0.26015   0.26587   0.26928   0.27588
 Alpha virt. eigenvalues --    0.27663   0.28169   0.28435   0.28865   0.29222
 Alpha virt. eigenvalues --    0.29367   0.29742   0.30339   0.30749   0.31447
 Alpha virt. eigenvalues --    0.31708   0.32081   0.32742   0.33088   0.33255
 Alpha virt. eigenvalues --    0.33499   0.34165   0.34374   0.34810   0.35370
 Alpha virt. eigenvalues --    0.35529   0.36595   0.36959   0.37360   0.37383
 Alpha virt. eigenvalues --    0.37922   0.38293   0.38582   0.39170   0.39862
 Alpha virt. eigenvalues --    0.40174   0.40280   0.40411   0.40721   0.40844
 Alpha virt. eigenvalues --    0.41270   0.42122   0.42183   0.42384   0.42793
 Alpha virt. eigenvalues --    0.43136   0.43545   0.43726   0.44091   0.44180
 Alpha virt. eigenvalues --    0.44375   0.44988   0.45361   0.45930   0.46109
 Alpha virt. eigenvalues --    0.46168   0.46397   0.46867   0.47132   0.47274
 Alpha virt. eigenvalues --    0.47723   0.47728   0.47970   0.48239   0.48661
 Alpha virt. eigenvalues --    0.49069   0.49354   0.49370   0.49564   0.50026
 Alpha virt. eigenvalues --    0.50098   0.50123   0.50373   0.50579   0.51129
 Alpha virt. eigenvalues --    0.51150   0.51901   0.52013   0.52205   0.53055
 Alpha virt. eigenvalues --    0.53334   0.53583   0.53962   0.54289   0.54334
 Alpha virt. eigenvalues --    0.54526   0.54901   0.55122   0.55558   0.56698
 Alpha virt. eigenvalues --    0.56826   0.56953   0.57463   0.58110   0.59155
 Alpha virt. eigenvalues --    0.59254   0.59623   0.59629   0.59963   0.60208
 Alpha virt. eigenvalues --    0.61243   0.61949   0.62296   0.63113   0.63133
 Alpha virt. eigenvalues --    0.63599   0.63659   0.64246   0.64569   0.65628
 Alpha virt. eigenvalues --    0.66616   0.66741   0.67667   0.67897   0.68133
 Alpha virt. eigenvalues --    0.70053   0.70091   0.70824   0.71693   0.72076
 Alpha virt. eigenvalues --    0.73134   0.73289   0.73578   0.73982   0.74153
 Alpha virt. eigenvalues --    0.75176   0.75517   0.75989   0.76657   0.77083
 Alpha virt. eigenvalues --    0.77611   0.78480   0.79128   0.79336   0.79542
 Alpha virt. eigenvalues --    0.79962   0.79975   0.80926   0.82023   0.82835
 Alpha virt. eigenvalues --    0.83569   0.84190   0.84608   0.84734   0.85562
 Alpha virt. eigenvalues --    0.85887   0.86177   0.86761   0.87994   0.88181
 Alpha virt. eigenvalues --    0.88529   0.89618   0.89993   0.91040   0.91087
 Alpha virt. eigenvalues --    0.92800   0.93328   0.93373   0.93635   0.95171
 Alpha virt. eigenvalues --    0.95520   0.96018   0.97077   0.97666   0.97755
 Alpha virt. eigenvalues --    0.98348   0.98972   0.99628   1.00249   1.00420
 Alpha virt. eigenvalues --    1.01259   1.01503   1.01588   1.02645   1.02887
 Alpha virt. eigenvalues --    1.03392   1.03784   1.04393   1.05174   1.05196
 Alpha virt. eigenvalues --    1.06206   1.06914   1.07207   1.07744   1.07879
 Alpha virt. eigenvalues --    1.08578   1.09485   1.09556   1.10977   1.11383
 Alpha virt. eigenvalues --    1.11720   1.11935   1.12016   1.13001   1.13255
 Alpha virt. eigenvalues --    1.13809   1.14379   1.14432   1.14949   1.15230
 Alpha virt. eigenvalues --    1.16576   1.16851   1.17596   1.18073   1.18715
 Alpha virt. eigenvalues --    1.20086   1.20373   1.21490   1.21651   1.22819
 Alpha virt. eigenvalues --    1.24006   1.24355   1.24778   1.26557   1.26577
 Alpha virt. eigenvalues --    1.27398   1.27965   1.28003   1.28777   1.29320
 Alpha virt. eigenvalues --    1.29939   1.30795   1.31043   1.31827   1.33509
 Alpha virt. eigenvalues --    1.33706   1.34243   1.34421   1.35590   1.35923
 Alpha virt. eigenvalues --    1.36809   1.37507   1.38370   1.38695   1.40168
 Alpha virt. eigenvalues --    1.40303   1.41903   1.43340   1.43877   1.44626
 Alpha virt. eigenvalues --    1.44784   1.45444   1.47904   1.47939   1.48285
 Alpha virt. eigenvalues --    1.49786   1.49877   1.50713   1.51935   1.51946
 Alpha virt. eigenvalues --    1.52233   1.52700   1.53451   1.53881   1.54673
 Alpha virt. eigenvalues --    1.54692   1.55221   1.55565   1.56752   1.56964
 Alpha virt. eigenvalues --    1.57201   1.57405   1.57783   1.58379   1.58618
 Alpha virt. eigenvalues --    1.59151   1.59517   1.60337   1.60359   1.60964
 Alpha virt. eigenvalues --    1.61293   1.61615   1.62156   1.62199   1.62689
 Alpha virt. eigenvalues --    1.62984   1.63444   1.63642   1.64015   1.64650
 Alpha virt. eigenvalues --    1.64715   1.64818   1.65868   1.66163   1.66301
 Alpha virt. eigenvalues --    1.66947   1.67263   1.67526   1.67797   1.68598
 Alpha virt. eigenvalues --    1.68690   1.69559   1.69669   1.69907   1.70016
 Alpha virt. eigenvalues --    1.71177   1.71364   1.72771   1.73128   1.73376
 Alpha virt. eigenvalues --    1.74448   1.75454   1.75836   1.76001   1.77177
 Alpha virt. eigenvalues --    1.77321   1.78470   1.79402   1.79844   1.79918
 Alpha virt. eigenvalues --    1.81941   1.82662   1.83478   1.84696   1.85418
 Alpha virt. eigenvalues --    1.86227   1.87093   1.87434   1.87887   1.88269
 Alpha virt. eigenvalues --    1.89855   1.90084   1.90144   1.90961   1.92420
 Alpha virt. eigenvalues --    1.93365   1.93748   1.94738   1.95514   1.95529
 Alpha virt. eigenvalues --    1.96138   1.96321   1.98328   1.99011   1.99472
 Alpha virt. eigenvalues --    2.00319   2.00560   2.00999   2.01259   2.01759
 Alpha virt. eigenvalues --    2.02461   2.03392   2.03852   2.04288   2.04485
 Alpha virt. eigenvalues --    2.06045   2.06990   2.07828   2.08018   2.08276
 Alpha virt. eigenvalues --    2.09019   2.10259   2.10628   2.11044   2.11848
 Alpha virt. eigenvalues --    2.12942   2.13388   2.14332   2.14680   2.14781
 Alpha virt. eigenvalues --    2.15243   2.16356   2.16869   2.17273   2.19117
 Alpha virt. eigenvalues --    2.20038   2.20119   2.21098   2.21318   2.23334
 Alpha virt. eigenvalues --    2.23816   2.23972   2.25207   2.27014   2.27338
 Alpha virt. eigenvalues --    2.27715   2.28490   2.28732   2.29704   2.30113
 Alpha virt. eigenvalues --    2.30624   2.30884   2.32504   2.32522   2.33854
 Alpha virt. eigenvalues --    2.33925   2.34783   2.34913   2.35671   2.36137
 Alpha virt. eigenvalues --    2.36377   2.37423   2.38412   2.38802   2.38956
 Alpha virt. eigenvalues --    2.39701   2.40941   2.41237   2.41592   2.41808
 Alpha virt. eigenvalues --    2.42591   2.43447   2.43566   2.43657   2.45110
 Alpha virt. eigenvalues --    2.45864   2.46849   2.47554   2.48245   2.48502
 Alpha virt. eigenvalues --    2.49250   2.49760   2.50202   2.50211   2.51281
 Alpha virt. eigenvalues --    2.51671   2.52376   2.53155   2.53638   2.53969
 Alpha virt. eigenvalues --    2.54218   2.55367   2.55979   2.56326   2.56574
 Alpha virt. eigenvalues --    2.57041   2.57470   2.57798   2.59330   2.59700
 Alpha virt. eigenvalues --    2.59749   2.60220   2.60828   2.61613   2.61991
 Alpha virt. eigenvalues --    2.62370   2.62934   2.63602   2.63854   2.63969
 Alpha virt. eigenvalues --    2.64224   2.65316   2.65856   2.66317   2.66429
 Alpha virt. eigenvalues --    2.66766   2.67015   2.67933   2.68498   2.68726
 Alpha virt. eigenvalues --    2.69183   2.70192   2.70459   2.70978   2.71435
 Alpha virt. eigenvalues --    2.71776   2.72063   2.72684   2.74079   2.74243
 Alpha virt. eigenvalues --    2.74258   2.75299   2.75345   2.76826   2.78429
 Alpha virt. eigenvalues --    2.78703   2.78810   2.79546   2.79632   2.80278
 Alpha virt. eigenvalues --    2.80746   2.81017   2.81247   2.81477   2.81812
 Alpha virt. eigenvalues --    2.82398   2.82875   2.83451   2.83858   2.84084
 Alpha virt. eigenvalues --    2.84362   2.84969   2.85873   2.86936   2.88577
 Alpha virt. eigenvalues --    2.89109   2.89208   2.90019   2.90426   2.90543
 Alpha virt. eigenvalues --    2.90972   2.92862   2.93773   2.93952   2.94919
 Alpha virt. eigenvalues --    2.95587   2.96052   2.96641   2.96958   2.98472
 Alpha virt. eigenvalues --    2.98685   3.00320   3.00668   3.01346   3.02078
 Alpha virt. eigenvalues --    3.02210   3.02995   3.03336   3.03683   3.04656
 Alpha virt. eigenvalues --    3.05343   3.05965   3.06720   3.08354   3.08894
 Alpha virt. eigenvalues --    3.10213   3.10595   3.11083   3.11365   3.11910
 Alpha virt. eigenvalues --    3.12277   3.12545   3.12674   3.13234   3.13539
 Alpha virt. eigenvalues --    3.13946   3.14487   3.14515   3.15378   3.15807
 Alpha virt. eigenvalues --    3.16086   3.16554   3.16993   3.17499   3.17672
 Alpha virt. eigenvalues --    3.18194   3.18862   3.19352   3.20517   3.20841
 Alpha virt. eigenvalues --    3.21165   3.21992   3.22252   3.22552   3.23107
 Alpha virt. eigenvalues --    3.23453   3.24405   3.24936   3.25341   3.25791
 Alpha virt. eigenvalues --    3.25884   3.26471   3.26731   3.27896   3.28354
 Alpha virt. eigenvalues --    3.28674   3.29294   3.29615   3.29657   3.30161
 Alpha virt. eigenvalues --    3.30360   3.30927   3.31116   3.31650   3.31767
 Alpha virt. eigenvalues --    3.32123   3.33026   3.34462   3.34922   3.35392
 Alpha virt. eigenvalues --    3.35681   3.36145   3.36415   3.36743   3.37348
 Alpha virt. eigenvalues --    3.37854   3.38754   3.38871   3.39344   3.40425
 Alpha virt. eigenvalues --    3.40724   3.40927   3.41131   3.42380   3.42780
 Alpha virt. eigenvalues --    3.44330   3.45059   3.46257   3.46330   3.47764
 Alpha virt. eigenvalues --    3.48455   3.49042   3.49854   3.50120   3.50819
 Alpha virt. eigenvalues --    3.51446   3.51541   3.51882   3.52328   3.52772
 Alpha virt. eigenvalues --    3.53288   3.54622   3.54868   3.56261   3.56747
 Alpha virt. eigenvalues --    3.56956   3.58115   3.58840   3.59484   3.60013
 Alpha virt. eigenvalues --    3.60364   3.60614   3.61226   3.61676   3.62130
 Alpha virt. eigenvalues --    3.62456   3.63089   3.64029   3.64401   3.64947
 Alpha virt. eigenvalues --    3.65983   3.66799   3.67095   3.67405   3.68498
 Alpha virt. eigenvalues --    3.68542   3.69183   3.70055   3.70572   3.70877
 Alpha virt. eigenvalues --    3.71524   3.72033   3.72347   3.73447   3.74278
 Alpha virt. eigenvalues --    3.74948   3.75138   3.76055   3.76083   3.77269
 Alpha virt. eigenvalues --    3.77892   3.78998   3.79805   3.80639   3.82783
 Alpha virt. eigenvalues --    3.83311   3.84481   3.85062   3.85711   3.86597
 Alpha virt. eigenvalues --    3.88678   3.89810   3.95324   3.95379   3.96457
 Alpha virt. eigenvalues --    3.97929   3.98515   3.99423   4.01211   4.01652
 Alpha virt. eigenvalues --    4.03373   4.03596   4.04444   4.04974   4.05605
 Alpha virt. eigenvalues --    4.06129   4.06593   4.08328   4.09352   4.10618
 Alpha virt. eigenvalues --    4.10836   4.11922   4.12100   4.12772   4.13419
 Alpha virt. eigenvalues --    4.13862   4.14696   4.15015   4.15138   4.17154
 Alpha virt. eigenvalues --    4.17988   4.20306   4.21413   4.22572   4.24405
 Alpha virt. eigenvalues --    4.25158   4.27899   4.28690   4.30373   4.31077
 Alpha virt. eigenvalues --    4.32311   4.33080   4.35314   4.35482   4.38589
 Alpha virt. eigenvalues --    4.38767   4.39315   4.40091   4.41233   4.41582
 Alpha virt. eigenvalues --    4.42560   4.42657   4.43957   4.44054   4.45379
 Alpha virt. eigenvalues --    4.45754   4.46539   4.47130   4.48717   4.49054
 Alpha virt. eigenvalues --    4.49676   4.50754   4.51802   4.53846   4.55152
 Alpha virt. eigenvalues --    4.56438   4.56918   4.59178   4.59406   4.61697
 Alpha virt. eigenvalues --    4.63084   4.63505   4.63943   4.67000   4.69551
 Alpha virt. eigenvalues --    4.71266   4.73132   4.73565   4.74017   4.79478
 Alpha virt. eigenvalues --    4.81057   4.82511   4.86091   4.87679   4.88399
 Alpha virt. eigenvalues --    4.91525   4.91903   4.92620   4.94402   4.94623
 Alpha virt. eigenvalues --    4.94779   4.98698   5.00004   5.05089   5.11949
 Alpha virt. eigenvalues --    5.12028   5.12040   5.12084   5.12188   5.12258
 Alpha virt. eigenvalues --    5.12569   5.12691   5.13426   5.16384   5.19295
 Alpha virt. eigenvalues --    5.19737   5.21607   5.25860   5.27664   5.29523
 Alpha virt. eigenvalues --    5.35987   5.41833   5.46893   5.47375   5.48020
 Alpha virt. eigenvalues --    5.48101   5.48992   5.49717   5.49830   5.50332
 Alpha virt. eigenvalues --    5.53379   5.63091   5.64017   5.73685   5.82460
 Alpha virt. eigenvalues --    5.85269   5.86736   5.97884   5.99477   6.03555
 Alpha virt. eigenvalues --    6.04279   6.07990   6.14107   6.14884   6.20811
 Alpha virt. eigenvalues --    6.23417   6.29133   6.29307   6.30035   6.30246
 Alpha virt. eigenvalues --    6.30360   6.30723   6.31131   6.31554   6.35553
 Alpha virt. eigenvalues --    6.36016   6.36844   6.38305   6.39328   6.40377
 Alpha virt. eigenvalues --    6.57039   6.60365   6.70570   6.77495   6.77685
 Alpha virt. eigenvalues --    6.79216   6.79628   6.80793   6.80886   7.07677
 Alpha virt. eigenvalues --    7.08864   7.09290  22.39634  22.41019  22.43155
 Alpha virt. eigenvalues --   22.44292  22.44707  22.46224  22.46950  22.51244
 Alpha virt. eigenvalues --   22.54642  22.73656  22.74242  22.74685  22.77363
 Alpha virt. eigenvalues --   22.85334  22.88351  22.90007  22.90252  22.97367
 Alpha virt. eigenvalues --   22.99256  23.02840  33.13263  33.30347  43.91601
 Alpha virt. eigenvalues --   43.94286  43.96005  57.58596  57.78034  57.80067
 Alpha virt. eigenvalues --   70.90437
          Condensed to atoms (all electrons):
 Mulliken charges:
               1
     1  C   -0.450017
     2  C   -0.020839
     3  C   -0.441542
     4  C   -0.045707
     5  C   -0.007470
     6  C   -0.466420
     7  C   -0.424380
     8  N    0.108961
     9  C   -0.188280
    10  C   -0.188291
    11  N    0.108959
    12  C   -0.045711
    13  C   -0.007467
    14  C   -0.424381
    15  C   -0.466421
    16  C   -0.020834
    17  C   -0.441542
    18  C   -0.450016
    19  C    0.071741
    20  Ni  -0.541401
    21  C    0.085688
    22  O   -0.115205
    23  C    0.070201
    24  O   -0.118855
    25  C    0.070208
    26  O   -0.118855
    27  H    0.143839
    28  H    0.139129
    29  H    0.151814
    30  H    0.098390
    31  H    0.151680
    32  H    0.131772
    33  H    0.143754
    34  H    0.114819
    35  H    0.109353
    36  H    0.137951
    37  H    0.148778
    38  H    0.144870
    39  H    0.136460
    40  H    0.141564
    41  H    0.140260
    42  H    0.199511
    43  H    0.199510
    44  H    0.114813
    45  H    0.109351
    46  H    0.141563
    47  H    0.136459
    48  H    0.140262
    49  H    0.137952
    50  H    0.144870
    51  H    0.148777
    52  H    0.098389
    53  H    0.151680
    54  H    0.143753
    55  H    0.131774
    56  H    0.139128
    57  H    0.143840
    58  H    0.151813
 Sum of Mulliken charges =  -0.00000
 Mulliken charges with hydrogens summed into heavy atoms:
               1
     1  C   -0.015235
     2  C    0.077552
     3  C   -0.014338
     4  C    0.069112
     5  C    0.101883
     6  C   -0.034822
     7  C   -0.006097
     8  N    0.108961
     9  C    0.011231
    10  C    0.011219
    11  N    0.108959
    12  C    0.069102
    13  C    0.101884
    14  C   -0.006097
    15  C   -0.034822
    16  C    0.077555
    17  C   -0.014334
    18  C   -0.015235
    19  C    0.071741
    20  Ni  -0.541401
    21  C    0.085688
    22  O   -0.115205
    23  C    0.070201
    24  O   -0.118855
    25  C    0.070208
    26  O   -0.118855
 Electronic spatial extent (au):  <R**2>=           9515.9978
 Charge=             -0.0000 electrons
 Dipole moment (field-independent basis, Debye):
    X=              0.0000    Y=             -7.8880    Z=              1.9236  Tot=              8.1192
 Quadrupole moment (field-independent basis, Debye-Ang):
   XX=           -153.9019   YY=           -174.3370   ZZ=           -175.0166
   XY=              0.0005   XZ=              0.0002   YZ=             -0.4976
 Traceless Quadrupole moment (field-independent basis, Debye-Ang):
   XX=             13.8500   YY=             -6.5852   ZZ=             -7.2648
   XY=              0.0005   XZ=              0.0002   YZ=             -0.4976
 Octapole moment (field-independent basis, Debye-Ang**2):
  XXX=              0.0019  YYY=              9.7744  ZZZ=            -13.2963  XYY=              0.0017
  XXY=            -21.7412  XXZ=             15.7305  XZZ=             -0.0031  YZZ=             -7.9743
  YYZ=              9.7828  XYZ=              0.0004
 Hexadecapole moment (field-independent basis, Debye-Ang**3):
 XXXX=          -6856.4775 YYYY=          -3427.1443 ZZZZ=          -2602.2900 XXXY=              0.0091
 XXXZ=             -0.0023 YYYX=              0.0068 YYYZ=            -57.5629 ZZZX=              0.0074
 ZZZY=            -40.1117 XXYY=          -1747.7939 XXZZ=          -1549.6941 YYZZ=          -1061.8001
 XXYZ=             38.6132 YYXZ=             -0.0043 ZZXY=             -0.0075
 N-N= 2.880641953659D+03 E-N=-8.770220117996D+03  KE= 1.216693733317D+03
 Calculating spin-rotation constants.
 Leave Link  601 at Fri Jul 11 11:25:59 2025, MaxMem=  6291456000 cpu:             111.4 elap:             101.9
 (Enter /share/apps/chem/gaussian-16-bin.c.02/g16/l602.exe)

 **********************************************************************

            Electrostatic Properties Using The SCF Density.

 **********************************************************************

       Atomic Center    1 is at   4.704638 -0.302647  1.354511
       Atomic Center    2 is at   3.245084 -0.769083  1.466665
       Atomic Center    3 is at   2.528483 -0.001752  2.588316
       Atomic Center    4 is at   2.496382 -0.624765  0.112833
       Atomic Center    5 is at   3.187953 -1.296324 -1.113022
       Atomic Center    6 is at   3.520059 -2.788602 -0.952755
       Atomic Center    7 is at   2.407940 -1.054275 -2.413182
       Atomic Center    8 is at   1.084619 -1.028387  0.245796
       Atomic Center    9 is at   0.683777 -2.293661  0.656873
       Atomic Center   10 is at  -0.683769 -2.293670  0.656868
       Atomic Center   11 is at  -1.084625 -1.028400  0.245792
       Atomic Center   12 is at  -2.496393 -0.624793  0.112840
       Atomic Center   13 is at  -3.187942 -1.296295 -1.113056
       Atomic Center   14 is at  -2.407938 -1.054124 -2.413198
       Atomic Center   15 is at  -3.519988 -2.788598 -0.952888
       Atomic Center   16 is at  -3.245095 -0.769193  1.466662
       Atomic Center   17 is at  -2.528473 -0.001954  2.588362
       Atomic Center   18 is at  -4.704642 -0.302722  1.354547
       Atomic Center   19 is at  -0.000008 -0.212516 -0.002274
       Atomic Center   20 is at   0.000000  1.760042 -0.359020
       Atomic Center   21 is at   0.000100  2.492755  1.280772
       Atomic Center   22 is at   0.000121  2.981734  2.335591
       Atomic Center   23 is at   1.425204  2.323886 -1.295365
       Atomic Center   24 is at   2.298261  2.789665 -1.908620
       Atomic Center   25 is at  -1.425316  2.323957 -1.295154
       Atomic Center   26 is at  -2.298451  2.789822 -1.908232
       Atomic Center   27 is at   5.196625 -0.339036  2.347387
       Atomic Center   28 is at   4.759725  0.747589  0.996766
       Atomic Center   29 is at   5.306690 -0.927312  0.665936
       Atomic Center   30 is at   3.256648 -1.847567  1.746702
       Atomic Center   31 is at   1.478283 -0.329323  2.717683
       Atomic Center   32 is at   2.512327  1.087613  2.378748
       Atomic Center   33 is at   3.049462 -0.151288  3.555515
       Atomic Center   34 is at   2.435479  0.459505 -0.110878
       Atomic Center   35 is at   4.153672 -0.754378 -1.209399
       Atomic Center   36 is at   2.607313 -3.418836 -0.975478
       Atomic Center   37 is at   4.069868 -3.011369 -0.015861
       Atomic Center   38 is at   4.158510 -3.125804 -1.794627
       Atomic Center   39 is at   1.418225 -1.556006 -2.392248
       Atomic Center   40 is at   2.968566 -1.458517 -3.280391
       Atomic Center   41 is at   2.231150  0.023053 -2.595100
       Atomic Center   42 is at   1.388926 -3.081669  0.931049
       Atomic Center   43 is at  -1.388910 -3.081687  0.931040
       Atomic Center   44 is at  -2.435506  0.459488 -0.110815
       Atomic Center   45 is at  -4.153682 -0.754381 -1.209394
       Atomic Center   46 is at  -2.968556 -1.458310 -3.280439
       Atomic Center   47 is at  -1.418211 -1.555831 -2.392308
       Atomic Center   48 is at  -2.231175  0.023224 -2.595028
       Atomic Center   49 is at  -2.607217 -3.418794 -0.975654
       Atomic Center   50 is at  -4.158427 -3.125770 -1.794780
       Atomic Center   51 is at  -4.069785 -3.011449 -0.016007
       Atomic Center   52 is at  -3.256676 -1.847697  1.746624
       Atomic Center   53 is at  -1.478278 -0.329556  2.717701
       Atomic Center   54 is at  -3.049450 -0.151547  3.555553
       Atomic Center   55 is at  -2.512296  1.087425  2.378869
       Atomic Center   56 is at  -4.759708  0.747539  0.996873
       Atomic Center   57 is at  -5.196624 -0.339169  2.347422
       Atomic Center   58 is at  -5.306710 -0.927328  0.665932
 -----------------------------------------------------------------

              Electrostatic Properties (Atomic Units)

 -----------------------------------------------------------------
    Center     Electric         -------- Electric Field --------
               Potential          X             Y             Z
 -----------------------------------------------------------------
    1 Atom    -14.760026     -0.000773      0.002508      0.000382
    2 Atom    -14.733719     -0.001185      0.003919      0.000699
    3 Atom    -14.769353     -0.001847      0.002788     -0.001134
    4 Atom    -14.706556      0.008491      0.006932     -0.002399
    5 Atom    -14.737046     -0.002415      0.001886     -0.002356
    6 Atom    -14.755976     -0.001277      0.001882     -0.002539
    7 Atom    -14.772466     -0.002600      0.002190      0.000751
    8 Atom    -18.307113     -0.005059      0.006784     -0.001727
    9 Atom    -14.713915     -0.011964      0.002392     -0.000460
   10 Atom    -14.713915      0.011964      0.002392     -0.000460
   11 Atom    -18.307113      0.005059      0.006784     -0.001727
   12 Atom    -14.706556     -0.008491      0.006932     -0.002399
   13 Atom    -14.737046      0.002415      0.001886     -0.002356
   14 Atom    -14.772466      0.002600      0.002190      0.000751
   15 Atom    -14.755977      0.001277      0.001882     -0.002539
   16 Atom    -14.733719      0.001185      0.003919      0.000699
   17 Atom    -14.769352      0.001847      0.002788     -0.001134
   18 Atom    -14.760026      0.000773      0.002508      0.000382
   19 Atom    -14.714729     -0.000000      0.019364     -0.006186
   20 Atom    -23.825712      0.000001     -0.003117      0.000076
   21 Atom    -14.696759     -0.000001     -0.001393     -0.005609
   22 Atom    -22.308011      0.000000      0.012319      0.023018
   23 Atom    -14.697546     -0.006202     -0.000523      0.002692
   24 Atom    -22.308713      0.017951      0.012644     -0.014009
   25 Atom    -14.697545      0.006203     -0.000523      0.002692
   26 Atom    -22.308712     -0.017953      0.012647     -0.014005
   27 Atom     -1.108386      0.000778      0.001583      0.000756
   28 Atom     -1.110651      0.000907      0.002917      0.000323
   29 Atom     -1.105118      0.001573      0.001558      0.000924
   30 Atom     -1.101065      0.000287      0.004579      0.001854
   31 Atom     -1.118092     -0.001749      0.002428      0.000876
   32 Atom     -1.122110     -0.001951      0.004297      0.000909
   33 Atom     -1.114070     -0.001401      0.002323      0.001049
   34 Atom     -1.106462     -0.002594      0.003385     -0.001478
   35 Atom     -1.110870     -0.000997      0.002193     -0.002211
   36 Atom     -1.101694      0.000125     -0.000008     -0.003640
   37 Atom     -1.097929      0.001576     -0.000553     -0.002309
   38 Atom     -1.105381      0.000567     -0.000069     -0.001717
   39 Atom     -1.120413     -0.001546      0.002502     -0.001525
   40 Atom     -1.116764     -0.001196      0.002071     -0.001549
   41 Atom     -1.126995     -0.001894      0.004559     -0.001584
   42 Atom     -1.040357     -0.004475      0.004311     -0.001429
   43 Atom     -1.040357      0.004475      0.004311     -0.001429
   44 Atom     -1.106462      0.002594      0.003385     -0.001478
   45 Atom     -1.110870      0.000997      0.002193     -0.002211
   46 Atom     -1.116765      0.001196      0.002071     -0.001549
   47 Atom     -1.120414      0.001546      0.002503     -0.001524
   48 Atom     -1.126994      0.001894      0.004558     -0.001583
   49 Atom     -1.101696     -0.000124     -0.000008     -0.003639
   50 Atom     -1.105381     -0.000567     -0.000069     -0.001717
   51 Atom     -1.097930     -0.001577     -0.000553     -0.002309
   52 Atom     -1.101064     -0.000288      0.004580      0.001854
   53 Atom     -1.118090      0.001749      0.002428      0.000876
   54 Atom     -1.114069      0.001401      0.002323      0.001050
   55 Atom     -1.122108      0.001951      0.004297      0.000909
   56 Atom     -1.110651     -0.000907      0.002917      0.000323
   57 Atom     -1.108386     -0.000778      0.001583      0.000756
   58 Atom     -1.105118     -0.001573      0.001558      0.000924
 -----------------------------------------------------------------
 -----------------------------------------------------
    Center         ---- Electric Field Gradient ----
                     XX            YY            ZZ
 -----------------------------------------------------
    1 Atom     -510.885173   -510.836542   -510.813866
    2 Atom     -510.785427   -510.724119   -510.816832
    3 Atom     -510.835453   -510.860771   -510.879727
    4 Atom     -511.304106   -510.849219   -510.882314
    5 Atom     -510.734559   -510.779006   -510.817497
    6 Atom     -510.823888   -510.879158   -510.817643
    7 Atom     -510.845111   -510.825225   -510.887434
    8 Atom     -830.360776   -830.367773   -829.758594
    9 Atom     -511.137488   -511.433768   -511.441674
   10 Atom     -511.137491   -511.433765   -511.441674
   11 Atom     -830.360770   -830.367771   -829.758584
   12 Atom     -511.304114   -510.849217   -510.882317
   13 Atom     -510.734557   -510.779008   -510.817500
   14 Atom     -510.845115   -510.825231   -510.887437
   15 Atom     -510.823884   -510.879155   -510.817641
   16 Atom     -510.785424   -510.724115   -510.816831
   17 Atom     -510.835452   -510.860765   -510.879729
   18 Atom     -510.885171   -510.836542   -510.813864
   19 Atom     -512.564493   -512.060390   -512.712938
   20 Atom       -0.089210      0.370344     -0.427834
   21 Atom     -515.603205   -515.382542   -514.612905
   22 Atom    -1265.561170  -1265.479471  -1265.250980
   23 Atom     -514.929122   -515.379795   -515.268517
   24 Atom    -1265.339825  -1265.447692  -1265.458225
   25 Atom     -514.928998   -515.379725   -515.268707
   26 Atom    -1265.339784  -1265.447684  -1265.458277
   27 Atom       -1.714564     -1.630621     -1.962583
   28 Atom       -1.634705     -1.990141     -1.669343
   29 Atom       -1.758229     -1.768030     -1.795131
   30 Atom       -1.661273     -2.025089     -1.685586
   31 Atom       -2.002283     -1.670829     -1.640789
   32 Atom       -1.631181     -2.024259     -1.650402
   33 Atom       -1.725681     -1.640187     -1.943576
   34 Atom       -1.669217     -2.030044     -1.674556
   35 Atom       -1.958825     -1.756422     -1.667219
   36 Atom       -1.911747     -1.766240     -1.635395
   37 Atom       -1.732441     -1.652452     -1.926299
   38 Atom       -1.765485     -1.671421     -1.868446
   39 Atom       -1.954708     -1.714379     -1.636119
   40 Atom       -1.739772     -1.684845     -1.882432
   41 Atom       -1.644271     -2.028789     -1.651231
   42 Atom       -1.777647     -1.817070     -1.605650
   43 Atom       -1.777643     -1.817075     -1.605649
   44 Atom       -1.669218     -2.030058     -1.674550
   45 Atom       -1.958838     -1.756411     -1.667217
   46 Atom       -1.739769     -1.684831     -1.882450
   47 Atom       -1.954716     -1.714371     -1.636118
   48 Atom       -1.644266     -2.028799     -1.651219
   49 Atom       -1.911760     -1.766224     -1.635394
   50 Atom       -1.765479     -1.671414     -1.868457
   51 Atom       -1.732436     -1.652464     -1.926292
   52 Atom       -1.661274     -2.025102     -1.685573
   53 Atom       -2.002278     -1.670835     -1.640787
   54 Atom       -1.725680     -1.640192     -1.943571
   55 Atom       -1.631179     -2.024268     -1.650390
   56 Atom       -1.634705     -1.990159     -1.669326
   57 Atom       -1.714563     -1.630623     -1.962582
   58 Atom       -1.758235     -1.768004     -1.795149
 -----------------------------------------------------
 -----------------------------------------------------
    Center         ---- Electric Field Gradient ----
                     XY            XZ            YZ
 -----------------------------------------------------
    1 Atom       -0.027832     -0.003244      0.003934
    2 Atom       -0.002358     -0.024309     -0.009654
    3 Atom        0.016436      0.020255     -0.030453
    4 Atom       -0.160043      0.050319     -0.002322
    5 Atom        0.040062      0.021162     -0.021682
    6 Atom        0.012373     -0.000884     -0.003315
    7 Atom        0.001271     -0.029525      0.005969
    8 Atom       -0.018734      0.017960      0.223490
    9 Atom       -0.116435      0.035687      0.002250
   10 Atom        0.116438     -0.035687      0.002251
   11 Atom        0.018733     -0.017959      0.223487
   12 Atom        0.160039     -0.050311     -0.002320
   13 Atom       -0.040058     -0.021163     -0.021680
   14 Atom       -0.001274      0.029525      0.005975
   15 Atom       -0.012370      0.000884     -0.003319
   16 Atom        0.002358      0.024308     -0.009648
   17 Atom       -0.016437     -0.020257     -0.030451
   18 Atom        0.027834      0.003246      0.003932
   19 Atom       -0.000002      0.000001     -0.220680
   20 Atom        0.000045      0.000033      0.019429
   21 Atom        0.000011      0.000021      0.460505
   22 Atom        0.000006      0.000017      0.126761
   23 Atom        0.360772     -0.479640     -0.253096
   24 Atom        0.085516     -0.157902     -0.061714
   25 Atom       -0.360866      0.479549     -0.253069
   26 Atom       -0.085531      0.157881     -0.061708
   27 Atom        0.004232     -0.159830      0.013875
   28 Atom       -0.017706      0.005341      0.123924
   29 Atom        0.122914      0.137206     -0.145962
   30 Atom        0.001499     -0.002666      0.092712
   31 Atom       -0.116290      0.046435      0.010545
   32 Atom        0.005046      0.002372      0.076219
   33 Atom        0.029726     -0.167257      0.047518
   34 Atom        0.011221     -0.002096      0.078419
   35 Atom       -0.165083      0.030460      0.014909
   36 Atom       -0.188152     -0.005012     -0.003687
   37 Atom        0.039874     -0.170793      0.066945
   38 Atom        0.070857      0.180262     -0.090986
   39 Atom       -0.165462      0.005640      0.006663
   40 Atom        0.078434      0.160129     -0.115526
   41 Atom        0.062793     -0.014246      0.063426
   42 Atom        0.193139     -0.067594      0.083066
   43 Atom       -0.193139      0.067592      0.083066
   44 Atom       -0.011216      0.002094      0.078401
   45 Atom        0.165077     -0.030449      0.014901
   46 Atom       -0.078422     -0.160132     -0.115514
   47 Atom        0.165457     -0.005626      0.006656
   48 Atom       -0.062784      0.014240      0.063395
   49 Atom        0.188145      0.005026     -0.003696
   50 Atom       -0.070849     -0.180263     -0.090980
   51 Atom       -0.039888      0.170787      0.066970
   52 Atom       -0.001505      0.002668      0.092689
   53 Atom        0.116300     -0.046425      0.010543
   54 Atom       -0.029736      0.167255      0.047536
   55 Atom       -0.005053     -0.002371      0.076193
   56 Atom        0.017699     -0.005337      0.123902
   57 Atom       -0.004241      0.159828      0.013894
   58 Atom       -0.122906     -0.137218     -0.145957
 -----------------------------------------------------
 -----------------------------------------------------
    Center         ---- Electric Field Gradient ----
                   ----       Eigenvalues       ----
 -----------------------------------------------------
    1 Atom     -510.897836   -510.825909   -510.811836
    2 Atom     -510.830934   -510.772320   -510.723124
    3 Atom     -510.911118   -510.838466   -510.826367
    4 Atom     -511.359460   -510.881256   -510.794923
    5 Atom     -510.840649   -510.779980   -510.710434
    6 Atom     -510.881947   -510.821807   -510.816936
    7 Atom     -510.903044   -510.830398   -510.824328
    8 Atom     -830.447306   -830.354626   -829.685210
    9 Atom     -511.479490   -511.439369   -511.094072
   10 Atom     -511.479492   -511.439367   -511.094072
   11 Atom     -830.447301   -830.354621   -829.685203
   12 Atom     -511.359463   -510.881258   -510.794928
   13 Atom     -510.840647   -510.779981   -510.710435
   14 Atom     -510.903049   -510.830402   -510.824333
   15 Atom     -510.881943   -510.821803   -510.816933
   16 Atom     -510.830931   -510.772318   -510.723121
   17 Atom     -510.911116   -510.838465   -510.826365
   18 Atom     -510.897835   -510.825906   -510.811835
   19 Atom     -512.780561   -512.564493   -511.992768
   20 Atom       -0.428307     -0.089210      0.370817
   21 Atom     -515.603205   -515.597849   -514.397599
   22 Atom    -1265.561170  -1265.535872  -1265.194578
   23 Atom     -515.607663   -515.576576   -514.393194
   24 Atom    -1265.567706  -1265.490399  -1265.187637
   25 Atom     -515.607662   -515.576575   -514.393193
   26 Atom    -1265.567708  -1265.490398  -1265.187638
   27 Atom       -2.041369     -1.637043     -1.629357
   28 Atom       -2.033294     -1.633913     -1.626984
   29 Atom       -2.046058     -1.640657     -1.634675
   30 Atom       -2.048768     -1.663827     -1.659353
   31 Atom       -2.044591     -1.638598     -1.630713
   32 Atom       -2.039250     -1.637241     -1.629351
   33 Atom       -2.042028     -1.637403     -1.630013
   34 Atom       -2.046919     -1.668878     -1.658019
   35 Atom       -2.054220     -1.665993     -1.662253
   36 Atom       -2.040816     -1.637287     -1.635278
   37 Atom       -2.041361     -1.636985     -1.632846
   38 Atom       -2.040464     -1.635842     -1.629046
   39 Atom       -2.039197     -1.637489     -1.628520
   40 Atom       -2.041109     -1.636866     -1.629075
   41 Atom       -2.049357     -1.642621     -1.632314
   42 Atom       -2.019167     -1.604294     -1.576906
   43 Atom       -2.019167     -1.604294     -1.576905
   44 Atom       -2.046925     -1.668880     -1.658022
   45 Atom       -2.054220     -1.665993     -1.662253
   46 Atom       -2.041109     -1.636866     -1.629075
   47 Atom       -2.039197     -1.637489     -1.628519
   48 Atom       -2.049353     -1.642619     -1.632311
   49 Atom       -2.040815     -1.637286     -1.635277
   50 Atom       -2.040463     -1.635841     -1.629045
   51 Atom       -2.041361     -1.636985     -1.632846
   52 Atom       -2.048768     -1.663827     -1.659354
   53 Atom       -2.044590     -1.638598     -1.630713
   54 Atom       -2.042027     -1.637403     -1.630013
   55 Atom       -2.039249     -1.637239     -1.629349
   56 Atom       -2.033293     -1.633912     -1.626983
   57 Atom       -2.041369     -1.637042     -1.629357
   58 Atom       -2.046058     -1.640656     -1.634674
 -----------------------------------------------------
 -----------------------------------------------------
    Center         ---- Electric Field Gradient ----
                       ( tensor representation )
                   3XX-RR        3YY-RR        3ZZ-RR
 -----------------------------------------------------
    1 Atom       -0.039979      0.008651      0.031328
    2 Atom       -0.009967      0.051340     -0.041373
    3 Atom        0.023198     -0.002121     -0.021077
    4 Atom       -0.292227      0.162661      0.129566
    5 Atom        0.042462     -0.001985     -0.040476
    6 Atom        0.016341     -0.038928      0.022587
    7 Atom        0.007479      0.027365     -0.034844
    8 Atom       -0.198395     -0.205392      0.403787
    9 Atom        0.200155     -0.096124     -0.104031
   10 Atom        0.200152     -0.096122     -0.104030
   11 Atom       -0.198395     -0.205396      0.403791
   12 Atom       -0.292231      0.162665      0.129566
   13 Atom        0.042464     -0.001986     -0.040478
   14 Atom        0.007480      0.027363     -0.034843
   15 Atom        0.016343     -0.038928      0.022585
   16 Atom       -0.009967      0.051342     -0.041374
   17 Atom        0.023197     -0.002117     -0.021080
   18 Atom       -0.039979      0.008650      0.031328
   19 Atom       -0.118553      0.385550     -0.266998
   20 Atom       -0.040310      0.419244     -0.378934
   21 Atom       -0.403654     -0.182991      0.586646
   22 Atom       -0.130629     -0.048931      0.179561
   23 Atom        0.263356     -0.187317     -0.076039
   24 Atom        0.075423     -0.032445     -0.042978
   25 Atom        0.263478     -0.187248     -0.076230
   26 Atom        0.075464     -0.032436     -0.043028
   27 Atom        0.054692      0.138635     -0.193327
   28 Atom        0.130025     -0.225412      0.095387
   29 Atom        0.015567      0.005767     -0.021334
   30 Atom        0.129376     -0.234439      0.105063
   31 Atom       -0.230983      0.100472      0.130511
   32 Atom        0.137433     -0.255645      0.118212
   33 Atom        0.044134      0.129628     -0.173761
   34 Atom        0.122055     -0.238772      0.116716
   35 Atom       -0.164670      0.037734      0.126936
   36 Atom       -0.140619      0.004887      0.135732
   37 Atom        0.037957      0.117945     -0.155902
   38 Atom        0.002966      0.097030     -0.099996
   39 Atom       -0.186306      0.054023      0.132283
   40 Atom        0.029244      0.084172     -0.113416
   41 Atom        0.130493     -0.254025      0.123533
   42 Atom       -0.044191     -0.083614      0.127806
   43 Atom       -0.044188     -0.083619      0.127807
   44 Atom        0.122057     -0.238782      0.116725
   45 Atom       -0.164683      0.037744      0.126938
   46 Atom        0.029248      0.084186     -0.113434
   47 Atom       -0.186314      0.054030      0.132284
   48 Atom        0.130496     -0.254038      0.123542
   49 Atom       -0.140634      0.004902      0.135732
   50 Atom        0.002971      0.097036     -0.100007
   51 Atom        0.037961      0.117933     -0.155894
   52 Atom        0.129376     -0.234452      0.105076
   53 Atom       -0.230978      0.100465      0.130513
   54 Atom        0.044134      0.129622     -0.173757
   55 Atom        0.137433     -0.255655      0.118222
   56 Atom        0.130025     -0.225429      0.095404
   57 Atom        0.054693      0.138633     -0.193326
   58 Atom        0.015561      0.005792     -0.021353
 -----------------------------------------------------
 -----------------------------------------------------
    Center         ---- Electric Field Gradient ----
                       ( tensor representation )
                   ----       Eigenvalues       ----
 -----------------------------------------------------
    1 Atom       -0.052642      0.019285      0.033357
    2 Atom       -0.055474      0.003139      0.052335
    3 Atom       -0.052467      0.020184      0.032283
    4 Atom       -0.347580      0.130624      0.216956
    5 Atom       -0.063628     -0.002959      0.066587
    6 Atom       -0.041717      0.018423      0.023294
    7 Atom       -0.050454      0.022192      0.028262
    8 Atom       -0.284926     -0.192245      0.477171
    9 Atom       -0.141847     -0.101725      0.243572
   10 Atom       -0.141848     -0.101723      0.243571
   11 Atom       -0.284926     -0.192246      0.477172
   12 Atom       -0.347580      0.130625      0.216955
   13 Atom       -0.063626     -0.002960      0.066586
   14 Atom       -0.050454      0.022193      0.028261
   15 Atom       -0.041716      0.018423      0.023293
   16 Atom       -0.055474      0.003139      0.052335
   17 Atom       -0.052468      0.020184      0.032284
   18 Atom       -0.052644      0.019286      0.033357
   19 Atom       -0.334620     -0.118553      0.453173
   20 Atom       -0.379407     -0.040310      0.419717
   21 Atom       -0.403654     -0.398298      0.801952
   22 Atom       -0.130629     -0.105332      0.235962
   23 Atom       -0.415185     -0.384099      0.799284
   24 Atom       -0.152459     -0.075151      0.227610
   25 Atom       -0.415186     -0.384098      0.799284
   26 Atom       -0.152460     -0.075150      0.227610
   27 Atom       -0.272113      0.132214      0.139899
   28 Atom       -0.268564      0.130817      0.137746
   29 Atom       -0.272262      0.133140      0.139122
   30 Atom       -0.258119      0.126823      0.131296
   31 Atom       -0.273290      0.132703      0.140588
   32 Atom       -0.270636      0.131373      0.139263
   33 Atom       -0.272213      0.132412      0.139801
   34 Atom       -0.255647      0.122394      0.133253
   35 Atom       -0.260065      0.128162      0.131902
   36 Atom       -0.269689      0.133840      0.135849
   37 Atom       -0.270964      0.133412      0.137552
   38 Atom       -0.272013      0.132609      0.139405
   39 Atom       -0.270795      0.130913      0.139882
   40 Atom       -0.272092      0.132150      0.139942
   41 Atom       -0.274593      0.132143      0.142450
   42 Atom       -0.285711      0.129161      0.156550
   43 Atom       -0.285712      0.129161      0.156550
   44 Atom       -0.255649      0.122395      0.133254
   45 Atom       -0.260065      0.128162      0.131903
   46 Atom       -0.272092      0.132150      0.139942
   47 Atom       -0.270795      0.130913      0.139882
   48 Atom       -0.274592      0.132142      0.142450
   49 Atom       -0.269689      0.133840      0.135849
   50 Atom       -0.272013      0.132609      0.139405
   51 Atom       -0.270964      0.133412      0.137552
   52 Atom       -0.258119      0.126823      0.131296
   53 Atom       -0.273289      0.132702      0.140588
   54 Atom       -0.272213      0.132412      0.139801
   55 Atom       -0.270636      0.131373      0.139263
   56 Atom       -0.268564      0.130817      0.137746
   57 Atom       -0.272113      0.132214      0.139899
   58 Atom       -0.272262      0.133140      0.139122
 -----------------------------------------------------
 Leave Link  602 at Fri Jul 11 11:26:00 2025, MaxMem=  6291456000 cpu:               1.8 elap:               0.3
 (Enter /share/apps/chem/gaussian-16-bin.c.02/g16/l607.exe)
 ******************************Gaussian NBO Version 3.1******************************
             N A T U R A L   A T O M I C   O R B I T A L   A N D
          N A T U R A L   B O N D   O R B I T A L   A N A L Y S I S
 ******************************Gaussian NBO Version 3.1******************************
       /RESON  / : Allow strongly delocalized NBO set
       /NLMO   / : Form Natural Localized Molecular Orbitals
       /NMR /    : Analyze NMR Sheilding Tensor 

 Analyzing the SCF density

 Job title: Gaussian input prepared by ASE                                  

 Storage needed:   3071460 in NPA,   4086837 in NBO,   3068714 in NLMO (6291438600 available)
 GSVD:  LWork=      386170 too small for GESVD, short by      876641 words or      876641 for optimal perf.


 NATURAL POPULATIONS:  Natural atomic orbital occupancies 
                                                          
   NAO  Atom  No  lang   Type(AO)    Occupancy      Energy
 ----------------------------------------------------------
     1    C    1  S      Cor( 1S)     1.99946     -10.06749
     2    C    1  S      Val( 2S)     1.11774      -0.30310
     3    C    1  S      Ryd( 3S)     0.00022       1.53613
     4    C    1  S      Ryd( 4S)     0.00006       3.07591
     5    C    1  S      Ryd( 5S)     0.00000      20.40876
     6    C    1  px     Val( 2p)     1.07727      -0.08657
     7    C    1  px     Ryd( 3p)     0.00052       0.78210
     8    C    1  px     Ryd( 4p)     0.00023       2.04102
     9    C    1  py     Val( 2p)     1.20078      -0.09656
    10    C    1  py     Ryd( 3p)     0.00050       0.81773
    11    C    1  py     Ryd( 4p)     0.00008       1.72726
    12    C    1  pz     Val( 2p)     1.22137      -0.09771
    13    C    1  pz     Ryd( 3p)     0.00109       0.96777
    14    C    1  pz     Ryd( 4p)     0.00018       1.70860
    15    C    1  dxy    Ryd( 3d)     0.00100       1.50985
    16    C    1  dxy    Ryd( 4d)     0.00008       2.97912
    17    C    1  dxz    Ryd( 3d)     0.00104       1.57580
    18    C    1  dxz    Ryd( 4d)     0.00007       3.06831
    19    C    1  dyz    Ryd( 3d)     0.00105       1.50802
    20    C    1  dyz    Ryd( 4d)     0.00003       2.93718
    21    C    1  dx2y2  Ryd( 3d)     0.00210       1.64205
    22    C    1  dx2y2  Ryd( 4d)     0.00005       3.17309
    23    C    1  dz2    Ryd( 3d)     0.00180       1.56463
    24    C    1  dz2    Ryd( 4d)     0.00006       3.03956
    25    C    1  f(0)   Ryd( 4f)     0.00008       3.52146
    26    C    1  f(C1)  Ryd( 4f)     0.00011       3.70692
    27    C    1  f(S1)  Ryd( 4f)     0.00003       3.28141
    28    C    1  f(C2)  Ryd( 4f)     0.00007       3.56483
    29    C    1  f(S2)  Ryd( 4f)     0.00004       3.55405
    30    C    1  f(C3)  Ryd( 4f)     0.00005       3.53632
    31    C    1  f(S3)  Ryd( 4f)     0.00007       3.67279
 
    32    C    2  S      Cor( 1S)     1.99942     -10.08796
    33    C    2  S      Val( 2S)     1.00686      -0.27984
    34    C    2  S      Ryd( 4S)     0.00162       1.90175
    35    C    2  S      Ryd( 3S)     0.00015       1.64448
    36    C    2  S      Ryd( 5S)     0.00000      21.48284
    37    C    2  px     Val( 2p)     1.02714      -0.08602
    38    C    2  px     Ryd( 3p)     0.00149       1.24423
    39    C    2  px     Ryd( 4p)     0.00019       1.79588
    40    C    2  py     Val( 2p)     1.15899      -0.09945
    41    C    2  py     Ryd( 3p)     0.00255       1.27181
    42    C    2  py     Ryd( 4p)     0.00011       1.48802
    43    C    2  pz     Val( 2p)     1.02254      -0.08191
    44    C    2  pz     Ryd( 3p)     0.00123       1.15685
    45    C    2  pz     Ryd( 4p)     0.00028       1.84961
    46    C    2  dxy    Ryd( 3d)     0.00053       1.65790
    47    C    2  dxy    Ryd( 4d)     0.00047       3.08885
    48    C    2  dxz    Ryd( 3d)     0.00106       1.77592
    49    C    2  dxz    Ryd( 4d)     0.00055       3.43331
    50    C    2  dyz    Ryd( 3d)     0.00060       1.70463
    51    C    2  dyz    Ryd( 4d)     0.00039       3.21282
    52    C    2  dx2y2  Ryd( 3d)     0.00151       1.73993
    53    C    2  dx2y2  Ryd( 4d)     0.00033       3.40875
    54    C    2  dz2    Ryd( 3d)     0.00127       1.76522
    55    C    2  dz2    Ryd( 4d)     0.00039       3.44671
    56    C    2  f(0)   Ryd( 4f)     0.00005       3.82181
    57    C    2  f(C1)  Ryd( 4f)     0.00012       3.85843
    58    C    2  f(S1)  Ryd( 4f)     0.00004       3.67450
    59    C    2  f(C2)  Ryd( 4f)     0.00006       3.75047
    60    C    2  f(S2)  Ryd( 4f)     0.00003       3.69212
    61    C    2  f(C3)  Ryd( 4f)     0.00003       3.56486
    62    C    2  f(S3)  Ryd( 4f)     0.00008       3.80284
 
    63    C    3  S      Cor( 1S)     1.99946     -10.06445
    64    C    3  S      Val( 2S)     1.11712      -0.30014
    65    C    3  S      Ryd( 4S)     0.00033       2.45336
    66    C    3  S      Ryd( 3S)     0.00022       1.25912
    67    C    3  S      Ryd( 5S)     0.00000      21.34541
    68    C    3  px     Val( 2p)     1.18746      -0.09147
    69    C    3  px     Ryd( 3p)     0.00117       0.89241
    70    C    3  px     Ryd( 4p)     0.00008       1.97889
    71    C    3  py     Val( 2p)     1.17489      -0.09174
    72    C    3  py     Ryd( 3p)     0.00051       0.77866
    73    C    3  py     Ryd( 4p)     0.00027       1.58485
    74    C    3  pz     Val( 2p)     1.13467      -0.08993
    75    C    3  pz     Ryd( 3p)     0.00074       0.89042
    76    C    3  pz     Ryd( 4p)     0.00032       2.14458
    77    C    3  dxy    Ryd( 3d)     0.00090       1.44337
    78    C    3  dxy    Ryd( 4d)     0.00005       2.93659
    79    C    3  dxz    Ryd( 3d)     0.00181       1.56112
    80    C    3  dxz    Ryd( 4d)     0.00007       3.17234
    81    C    3  dyz    Ryd( 3d)     0.00114       1.51917
    82    C    3  dyz    Ryd( 4d)     0.00008       3.05892
    83    C    3  dx2y2  Ryd( 3d)     0.00212       1.59775
    84    C    3  dx2y2  Ryd( 4d)     0.00004       3.16845
    85    C    3  dz2    Ryd( 3d)     0.00116       1.57585
    86    C    3  dz2    Ryd( 4d)     0.00011       3.14790
    87    C    3  f(0)   Ryd( 4f)     0.00003       3.53520
    88    C    3  f(C1)  Ryd( 4f)     0.00015       3.80489
    89    C    3  f(S1)  Ryd( 4f)     0.00005       3.54489
    90    C    3  f(C2)  Ryd( 4f)     0.00006       3.52462
    91    C    3  f(S2)  Ryd( 4f)     0.00004       3.41296
    92    C    3  f(C3)  Ryd( 4f)     0.00002       3.39482
    93    C    3  f(S3)  Ryd( 4f)     0.00011       3.70445
 
    94    C    4  S      Cor( 1S)     1.99921     -10.12527
    95    C    4  S      Val( 2S)     0.97938      -0.25732
    96    C    4  S      Ryd( 3S)     0.00169       1.54830
    97    C    4  S      Ryd( 4S)     0.00068       2.40589
    98    C    4  S      Ryd( 5S)     0.00000      21.65365
    99    C    4  px     Val( 2p)     0.83128      -0.06187
   100    C    4  px     Ryd( 3p)     0.00257       1.13470
   101    C    4  px     Ryd( 4p)     0.00089       1.74412
   102    C    4  py     Val( 2p)     1.16950      -0.10816
   103    C    4  py     Ryd( 3p)     0.00443       1.14456
   104    C    4  py     Ryd( 4p)     0.00089       1.83627
   105    C    4  pz     Val( 2p)     1.03039      -0.08808
   106    C    4  pz     Ryd( 3p)     0.00235       1.04510
   107    C    4  pz     Ryd( 4p)     0.00080       1.75922
   108    C    4  dxy    Ryd( 3d)     0.00027       1.85056
   109    C    4  dxy    Ryd( 4d)     0.00054       3.36787
   110    C    4  dxz    Ryd( 3d)     0.00068       1.84209
   111    C    4  dxz    Ryd( 4d)     0.00056       3.61309
   112    C    4  dyz    Ryd( 3d)     0.00062       1.72224
   113    C    4  dyz    Ryd( 4d)     0.00038       3.27434
   114    C    4  dx2y2  Ryd( 3d)     0.00087       2.12105
   115    C    4  dx2y2  Ryd( 4d)     0.00042       3.75795
   116    C    4  dz2    Ryd( 3d)     0.00082       2.00532
   117    C    4  dz2    Ryd( 4d)     0.00049       3.68902
   118    C    4  f(0)   Ryd( 4f)     0.00005       3.86393
   119    C    4  f(C1)  Ryd( 4f)     0.00016       4.00915
   120    C    4  f(S1)  Ryd( 4f)     0.00007       3.78643
   121    C    4  f(C2)  Ryd( 4f)     0.00005       3.77873
   122    C    4  f(S2)  Ryd( 4f)     0.00003       3.71145
   123    C    4  f(C3)  Ryd( 4f)     0.00006       3.80454
   124    C    4  f(S3)  Ryd( 4f)     0.00007       3.99292
 
   125    C    5  S      Cor( 1S)     1.99942     -10.08711
   126    C    5  S      Val( 2S)     1.00692      -0.27981
   127    C    5  S      Ryd( 4S)     0.00164       1.85367
   128    C    5  S      Ryd( 3S)     0.00015       1.74500
   129    C    5  S      Ryd( 5S)     0.00000      21.51692
   130    C    5  px     Val( 2p)     1.13201      -0.09428
   131    C    5  px     Ryd( 3p)     0.00245       1.22972
   132    C    5  px     Ryd( 4p)     0.00013       1.71232
   133    C    5  py     Val( 2p)     1.05619      -0.08558
   134    C    5  py     Ryd( 3p)     0.00177       1.25701
   135    C    5  py     Ryd( 4p)     0.00022       1.73049
   136    C    5  pz     Val( 2p)     1.01831      -0.08121
   137    C    5  pz     Ryd( 3p)     0.00142       1.23981
   138    C    5  pz     Ryd( 4p)     0.00028       1.85514
   139    C    5  dxy    Ryd( 3d)     0.00118       1.70763
   140    C    5  dxy    Ryd( 4d)     0.00048       3.26169
   141    C    5  dxz    Ryd( 3d)     0.00094       1.79182
   142    C    5  dxz    Ryd( 4d)     0.00021       3.37826
   143    C    5  dyz    Ryd( 3d)     0.00070       1.61625
   144    C    5  dyz    Ryd( 4d)     0.00092       3.19429
   145    C    5  dx2y2  Ryd( 3d)     0.00095       1.67219
   146    C    5  dx2y2  Ryd( 4d)     0.00025       3.27864
   147    C    5  dz2    Ryd( 3d)     0.00119       1.73870
   148    C    5  dz2    Ryd( 4d)     0.00037       3.51022
   149    C    5  f(0)   Ryd( 4f)     0.00004       3.77324
   150    C    5  f(C1)  Ryd( 4f)     0.00013       3.85012
   151    C    5  f(S1)  Ryd( 4f)     0.00006       3.80195
   152    C    5  f(C2)  Ryd( 4f)     0.00005       3.73095
   153    C    5  f(S2)  Ryd( 4f)     0.00004       3.62226
   154    C    5  f(C3)  Ryd( 4f)     0.00003       3.54444
   155    C    5  f(S3)  Ryd( 4f)     0.00009       3.82648
 
   156    C    6  S      Cor( 1S)     1.99945     -10.06669
   157    C    6  S      Val( 2S)     1.11861      -0.30322
   158    C    6  S      Ryd( 3S)     0.00021       1.53276
   159    C    6  S      Ryd( 4S)     0.00010       2.83602
   160    C    6  S      Ryd( 5S)     0.00000      20.68106
   161    C    6  px     Val( 2p)     1.21204      -0.09895
   162    C    6  px     Ryd( 3p)     0.00069       0.83880
   163    C    6  px     Ryd( 4p)     0.00017       1.74788
   164    C    6  py     Val( 2p)     1.07718      -0.08541
   165    C    6  py     Ryd( 3p)     0.00034       0.69722
   166    C    6  py     Ryd( 4p)     0.00020       2.06337
   167    C    6  pz     Val( 2p)     1.22023      -0.09724
   168    C    6  pz     Ryd( 3p)     0.00109       0.91260
   169    C    6  pz     Ryd( 4p)     0.00009       1.80615
   170    C    6  dxy    Ryd( 3d)     0.00145       1.56249
   171    C    6  dxy    Ryd( 4d)     0.00005       3.10420
   172    C    6  dxz    Ryd( 3d)     0.00167       1.57547
   173    C    6  dxz    Ryd( 4d)     0.00005       3.10975
   174    C    6  dyz    Ryd( 3d)     0.00050       1.44474
   175    C    6  dyz    Ryd( 4d)     0.00006       2.95132
   176    C    6  dx2y2  Ryd( 3d)     0.00171       1.52350
   177    C    6  dx2y2  Ryd( 4d)     0.00008       3.12359
   178    C    6  dz2    Ryd( 3d)     0.00184       1.55600
   179    C    6  dz2    Ryd( 4d)     0.00004       3.10456
   180    C    6  f(0)   Ryd( 4f)     0.00002       3.32750
   181    C    6  f(C1)  Ryd( 4f)     0.00022       3.72787
   182    C    6  f(S1)  Ryd( 4f)     0.00005       3.57201
   183    C    6  f(C2)  Ryd( 4f)     0.00001       3.46607
   184    C    6  f(S2)  Ryd( 4f)     0.00002       3.52285
   185    C    6  f(C3)  Ryd( 4f)     0.00004       3.49691
   186    C    6  f(S3)  Ryd( 4f)     0.00009       3.72453
 
   187    C    7  S      Cor( 1S)     1.99945     -10.06340
   188    C    7  S      Val( 2S)     1.11629      -0.29760
   189    C    7  S      Ryd( 3S)     0.00021       1.33012
   190    C    7  S      Ryd( 4S)     0.00009       3.40105
   191    C    7  S      Ryd( 5S)     0.00000      20.55291
   192    C    7  px     Val( 2p)     1.17546      -0.09023
   193    C    7  px     Ryd( 3p)     0.00052       0.83595
   194    C    7  px     Ryd( 4p)     0.00011       1.90911
   195    C    7  py     Val( 2p)     1.21638      -0.09318
   196    C    7  py     Ryd( 3p)     0.00111       0.88586
   197    C    7  py     Ryd( 4p)     0.00009       1.80061
   198    C    7  pz     Val( 2p)     1.10528      -0.08581
   199    C    7  pz     Ryd( 3p)     0.00054       0.83935
   200    C    7  pz     Ryd( 4p)     0.00032       2.12865
   201    C    7  dxy    Ryd( 3d)     0.00130       1.51065
   202    C    7  dxy    Ryd( 4d)     0.00004       2.98561
   203    C    7  dxz    Ryd( 3d)     0.00208       1.58907
   204    C    7  dxz    Ryd( 4d)     0.00008       3.22549
   205    C    7  dyz    Ryd( 3d)     0.00075       1.45006
   206    C    7  dyz    Ryd( 4d)     0.00006       2.95865
   207    C    7  dx2y2  Ryd( 3d)     0.00154       1.55976
   208    C    7  dx2y2  Ryd( 4d)     0.00005       3.07765
   209    C    7  dz2    Ryd( 3d)     0.00154       1.60572
   210    C    7  dz2    Ryd( 4d)     0.00009       3.19019
   211    C    7  f(0)   Ryd( 4f)     0.00003       3.55129
   212    C    7  f(C1)  Ryd( 4f)     0.00015       3.74008
   213    C    7  f(S1)  Ryd( 4f)     0.00007       3.66391
   214    C    7  f(C2)  Ryd( 4f)     0.00002       3.41218
   215    C    7  f(S2)  Ryd( 4f)     0.00004       3.53048
   216    C    7  f(C3)  Ryd( 4f)     0.00001       3.28902
   217    C    7  f(S3)  Ryd( 4f)     0.00018       3.70049
 
   218    N    8  S      Cor( 1S)     1.99940     -14.25248
   219    N    8  S      Val( 2S)     1.21466      -0.54855
   220    N    8  S      Ryd( 3S)     0.00262       1.68960
   221    N    8  S      Ryd( 4S)     0.00006       5.33658
   222    N    8  S      Ryd( 5S)     0.00000      29.17562
   223    N    8  px     Val( 2p)     1.30847      -0.25347
   224    N    8  px     Ryd( 3p)     0.00618       1.51938
   225    N    8  px     Ryd( 4p)     0.00024       3.78474
   226    N    8  py     Val( 2p)     1.30792      -0.24859
   227    N    8  py     Ryd( 3p)     0.00263       1.10938
   228    N    8  py     Ryd( 4p)     0.00016       3.46746
   229    N    8  pz     Val( 2p)     1.51263      -0.26091
   230    N    8  pz     Ryd( 3p)     0.00398       0.78308
   231    N    8  pz     Ryd( 4p)     0.00042       2.81317
   232    N    8  dxy    Ryd( 3d)     0.00244       1.86445
   233    N    8  dxy    Ryd( 4d)     0.00026       5.02377
   234    N    8  dxz    Ryd( 3d)     0.00122       1.68571
   235    N    8  dxz    Ryd( 4d)     0.00014       4.72510
   236    N    8  dyz    Ryd( 3d)     0.00129       1.66789
   237    N    8  dyz    Ryd( 4d)     0.00008       4.70323
   238    N    8  dx2y2  Ryd( 3d)     0.00308       1.89218
   239    N    8  dx2y2  Ryd( 4d)     0.00010       5.00452
   240    N    8  dz2    Ryd( 3d)     0.00225       1.85474
   241    N    8  dz2    Ryd( 4d)     0.00008       4.83444
   242    N    8  f(0)   Ryd( 4f)     0.00027       4.54854
   243    N    8  f(C1)  Ryd( 4f)     0.00016       4.59641
   244    N    8  f(S1)  Ryd( 4f)     0.00020       4.54162
   245    N    8  f(C2)  Ryd( 4f)     0.00009       4.65052
   246    N    8  f(S2)  Ryd( 4f)     0.00006       4.62204
   247    N    8  f(C3)  Ryd( 4f)     0.00016       5.06251
   248    N    8  f(S3)  Ryd( 4f)     0.00014       5.13645
 
   249    C    9  S      Cor( 1S)     1.99905     -10.11222
   250    C    9  S      Val( 2S)     0.95928      -0.21986
   251    C    9  S      Ryd( 3S)     0.00157       1.11254
   252    C    9  S      Ryd( 4S)     0.00050       1.83965
   253    C    9  S      Ryd( 5S)     0.00001      21.48447
   254    C    9  px     Val( 2p)     1.08437      -0.07756
   255    C    9  px     Ryd( 3p)     0.00316       1.24719
   256    C    9  px     Ryd( 4p)     0.00078       1.92857
   257    C    9  py     Val( 2p)     0.97958      -0.05941
   258    C    9  py     Ryd( 3p)     0.00325       1.01768
   259    C    9  py     Ryd( 4p)     0.00049       1.56711
   260    C    9  pz     Val( 2p)     1.06341      -0.12309
   261    C    9  pz     Ryd( 3p)     0.00369       0.68647
   262    C    9  pz     Ryd( 4p)     0.00039       1.46769
   263    C    9  dxy    Ryd( 3d)     0.00064       2.18323
   264    C    9  dxy    Ryd( 4d)     0.00050       3.63530
   265    C    9  dxz    Ryd( 3d)     0.00079       1.57427
   266    C    9  dxz    Ryd( 4d)     0.00024       2.99504
   267    C    9  dyz    Ryd( 3d)     0.00066       1.69739
   268    C    9  dyz    Ryd( 4d)     0.00014       3.08180
   269    C    9  dx2y2  Ryd( 3d)     0.00090       2.06115
   270    C    9  dx2y2  Ryd( 4d)     0.00029       3.70450
   271    C    9  dz2    Ryd( 3d)     0.00091       1.73639
   272    C    9  dz2    Ryd( 4d)     0.00007       3.27643
   273    C    9  f(0)   Ryd( 4f)     0.00016       3.56506
   274    C    9  f(C1)  Ryd( 4f)     0.00007       3.77826
   275    C    9  f(S1)  Ryd( 4f)     0.00009       3.60267
   276    C    9  f(C2)  Ryd( 4f)     0.00006       3.65969
   277    C    9  f(S2)  Ryd( 4f)     0.00005       3.60285
   278    C    9  f(C3)  Ryd( 4f)     0.00007       4.25835
   279    C    9  f(S3)  Ryd( 4f)     0.00006       4.09021
 
   280    C   10  S      Cor( 1S)     1.99905     -10.11222
   281    C   10  S      Val( 2S)     0.95928      -0.21986
   282    C   10  S      Ryd( 3S)     0.00157       1.11254
   283    C   10  S      Ryd( 4S)     0.00050       1.83967
   284    C   10  S      Ryd( 5S)     0.00001      21.48445
   285    C   10  px     Val( 2p)     1.08436      -0.07756
   286    C   10  px     Ryd( 3p)     0.00316       1.24719
   287    C   10  px     Ryd( 4p)     0.00078       1.92857
   288    C   10  py     Val( 2p)     0.97958      -0.05941
   289    C   10  py     Ryd( 3p)     0.00325       1.01768
   290    C   10  py     Ryd( 4p)     0.00049       1.56712
   291    C   10  pz     Val( 2p)     1.06341      -0.12309
   292    C   10  pz     Ryd( 3p)     0.00369       0.68648
   293    C   10  pz     Ryd( 4p)     0.00039       1.46769
   294    C   10  dxy    Ryd( 3d)     0.00064       2.18324
   295    C   10  dxy    Ryd( 4d)     0.00050       3.63530
   296    C   10  dxz    Ryd( 3d)     0.00079       1.57428
   297    C   10  dxz    Ryd( 4d)     0.00024       2.99504
   298    C   10  dyz    Ryd( 3d)     0.00066       1.69739
   299    C   10  dyz    Ryd( 4d)     0.00014       3.08179
   300    C   10  dx2y2  Ryd( 3d)     0.00090       2.06116
   301    C   10  dx2y2  Ryd( 4d)     0.00029       3.70450
   302    C   10  dz2    Ryd( 3d)     0.00091       1.73640
   303    C   10  dz2    Ryd( 4d)     0.00007       3.27643
   304    C   10  f(0)   Ryd( 4f)     0.00016       3.56506
   305    C   10  f(C1)  Ryd( 4f)     0.00007       3.77827
   306    C   10  f(S1)  Ryd( 4f)     0.00009       3.60267
   307    C   10  f(C2)  Ryd( 4f)     0.00006       3.65969
   308    C   10  f(S2)  Ryd( 4f)     0.00005       3.60284
   309    C   10  f(C3)  Ryd( 4f)     0.00007       4.25836
   310    C   10  f(S3)  Ryd( 4f)     0.00006       4.09021
 
   311    N   11  S      Cor( 1S)     1.99940     -14.25248
   312    N   11  S      Val( 2S)     1.21465      -0.54855
   313    N   11  S      Ryd( 3S)     0.00262       1.68960
   314    N   11  S      Ryd( 4S)     0.00006       5.33661
   315    N   11  S      Ryd( 5S)     0.00000      29.17562
   316    N   11  px     Val( 2p)     1.30847      -0.25347
   317    N   11  px     Ryd( 3p)     0.00618       1.51938
   318    N   11  px     Ryd( 4p)     0.00024       3.78474
   319    N   11  py     Val( 2p)     1.30792      -0.24859
   320    N   11  py     Ryd( 3p)     0.00263       1.10939
   321    N   11  py     Ryd( 4p)     0.00016       3.46746
   322    N   11  pz     Val( 2p)     1.51263      -0.26091
   323    N   11  pz     Ryd( 3p)     0.00398       0.78309
   324    N   11  pz     Ryd( 4p)     0.00042       2.81319
   325    N   11  dxy    Ryd( 3d)     0.00244       1.86445
   326    N   11  dxy    Ryd( 4d)     0.00026       5.02377
   327    N   11  dxz    Ryd( 3d)     0.00122       1.68571
   328    N   11  dxz    Ryd( 4d)     0.00014       4.72510
   329    N   11  dyz    Ryd( 3d)     0.00129       1.66788
   330    N   11  dyz    Ryd( 4d)     0.00008       4.70323
   331    N   11  dx2y2  Ryd( 3d)     0.00308       1.89217
   332    N   11  dx2y2  Ryd( 4d)     0.00010       5.00452
   333    N   11  dz2    Ryd( 3d)     0.00225       1.85474
   334    N   11  dz2    Ryd( 4d)     0.00008       4.83444
   335    N   11  f(0)   Ryd( 4f)     0.00027       4.54854
   336    N   11  f(C1)  Ryd( 4f)     0.00016       4.59641
   337    N   11  f(S1)  Ryd( 4f)     0.00020       4.54162
   338    N   11  f(C2)  Ryd( 4f)     0.00009       4.65052
   339    N   11  f(S2)  Ryd( 4f)     0.00006       4.62205
   340    N   11  f(C3)  Ryd( 4f)     0.00016       5.06252
   341    N   11  f(S3)  Ryd( 4f)     0.00014       5.13645
 
   342    C   12  S      Cor( 1S)     1.99921     -10.12527
   343    C   12  S      Val( 2S)     0.97938      -0.25732
   344    C   12  S      Ryd( 3S)     0.00169       1.54829
   345    C   12  S      Ryd( 4S)     0.00068       2.40591
   346    C   12  S      Ryd( 5S)     0.00000      21.65365
   347    C   12  px     Val( 2p)     0.83128      -0.06187
   348    C   12  px     Ryd( 3p)     0.00257       1.13468
   349    C   12  px     Ryd( 4p)     0.00089       1.74412
   350    C   12  py     Val( 2p)     1.16950      -0.10816
   351    C   12  py     Ryd( 3p)     0.00443       1.14456
   352    C   12  py     Ryd( 4p)     0.00089       1.83627
   353    C   12  pz     Val( 2p)     1.03039      -0.08808
   354    C   12  pz     Ryd( 3p)     0.00235       1.04509
   355    C   12  pz     Ryd( 4p)     0.00080       1.75922
   356    C   12  dxy    Ryd( 3d)     0.00027       1.85053
   357    C   12  dxy    Ryd( 4d)     0.00054       3.36786
   358    C   12  dxz    Ryd( 3d)     0.00068       1.84208
   359    C   12  dxz    Ryd( 4d)     0.00056       3.61310
   360    C   12  dyz    Ryd( 3d)     0.00062       1.72222
   361    C   12  dyz    Ryd( 4d)     0.00038       3.27432
   362    C   12  dx2y2  Ryd( 3d)     0.00087       2.12104
   363    C   12  dx2y2  Ryd( 4d)     0.00042       3.75798
   364    C   12  dz2    Ryd( 3d)     0.00082       2.00533
   365    C   12  dz2    Ryd( 4d)     0.00049       3.68906
   366    C   12  f(0)   Ryd( 4f)     0.00005       3.86394
   367    C   12  f(C1)  Ryd( 4f)     0.00016       4.00916
   368    C   12  f(S1)  Ryd( 4f)     0.00007       3.78646
   369    C   12  f(C2)  Ryd( 4f)     0.00005       3.77870
   370    C   12  f(S2)  Ryd( 4f)     0.00003       3.71145
   371    C   12  f(C3)  Ryd( 4f)     0.00006       3.80452
   372    C   12  f(S3)  Ryd( 4f)     0.00007       3.99294
 
   373    C   13  S      Cor( 1S)     1.99942     -10.08711
   374    C   13  S      Val( 2S)     1.00692      -0.27981
   375    C   13  S      Ryd( 4S)     0.00164       1.85367
   376    C   13  S      Ryd( 3S)     0.00015       1.74500
   377    C   13  S      Ryd( 5S)     0.00000      21.51692
   378    C   13  px     Val( 2p)     1.13202      -0.09428
   379    C   13  px     Ryd( 3p)     0.00245       1.22973
   380    C   13  px     Ryd( 4p)     0.00013       1.71230
   381    C   13  py     Val( 2p)     1.05619      -0.08558
   382    C   13  py     Ryd( 3p)     0.00177       1.25702
   383    C   13  py     Ryd( 4p)     0.00022       1.73046
   384    C   13  pz     Val( 2p)     1.01831      -0.08121
   385    C   13  pz     Ryd( 3p)     0.00142       1.23982
   386    C   13  pz     Ryd( 4p)     0.00028       1.85514
   387    C   13  dxy    Ryd( 3d)     0.00118       1.70761
   388    C   13  dxy    Ryd( 4d)     0.00048       3.26166
   389    C   13  dxz    Ryd( 3d)     0.00094       1.79181
   390    C   13  dxz    Ryd( 4d)     0.00021       3.37825
   391    C   13  dyz    Ryd( 3d)     0.00070       1.61624
   392    C   13  dyz    Ryd( 4d)     0.00092       3.19429
   393    C   13  dx2y2  Ryd( 3d)     0.00095       1.67219
   394    C   13  dx2y2  Ryd( 4d)     0.00025       3.27868
   395    C   13  dz2    Ryd( 3d)     0.00119       1.73871
   396    C   13  dz2    Ryd( 4d)     0.00037       3.51025
   397    C   13  f(0)   Ryd( 4f)     0.00004       3.77324
   398    C   13  f(C1)  Ryd( 4f)     0.00013       3.85013
   399    C   13  f(S1)  Ryd( 4f)     0.00006       3.80196
   400    C   13  f(C2)  Ryd( 4f)     0.00005       3.73094
   401    C   13  f(S2)  Ryd( 4f)     0.00004       3.62225
   402    C   13  f(C3)  Ryd( 4f)     0.00003       3.54444
   403    C   13  f(S3)  Ryd( 4f)     0.00009       3.82649
 
   404    C   14  S      Cor( 1S)     1.99945     -10.06340
   405    C   14  S      Val( 2S)     1.11629      -0.29760
   406    C   14  S      Ryd( 3S)     0.00021       1.33013
   407    C   14  S      Ryd( 4S)     0.00009       3.40105
   408    C   14  S      Ryd( 5S)     0.00000      20.55293
   409    C   14  px     Val( 2p)     1.17546      -0.09023
   410    C   14  px     Ryd( 3p)     0.00052       0.83596
   411    C   14  px     Ryd( 4p)     0.00011       1.90911
   412    C   14  py     Val( 2p)     1.21638      -0.09318
   413    C   14  py     Ryd( 3p)     0.00111       0.88586
   414    C   14  py     Ryd( 4p)     0.00009       1.80059
   415    C   14  pz     Val( 2p)     1.10529      -0.08581
   416    C   14  pz     Ryd( 3p)     0.00054       0.83938
   417    C   14  pz     Ryd( 4p)     0.00032       2.12867
   418    C   14  dxy    Ryd( 3d)     0.00130       1.51063
   419    C   14  dxy    Ryd( 4d)     0.00004       2.98559
   420    C   14  dxz    Ryd( 3d)     0.00208       1.58907
   421    C   14  dxz    Ryd( 4d)     0.00008       3.22548
   422    C   14  dyz    Ryd( 3d)     0.00075       1.45005
   423    C   14  dyz    Ryd( 4d)     0.00006       2.95863
   424    C   14  dx2y2  Ryd( 3d)     0.00154       1.55978
   425    C   14  dx2y2  Ryd( 4d)     0.00005       3.07768
   426    C   14  dz2    Ryd( 3d)     0.00154       1.60574
   427    C   14  dz2    Ryd( 4d)     0.00009       3.19021
   428    C   14  f(0)   Ryd( 4f)     0.00003       3.55127
   429    C   14  f(C1)  Ryd( 4f)     0.00015       3.74011
   430    C   14  f(S1)  Ryd( 4f)     0.00007       3.66393
   431    C   14  f(C2)  Ryd( 4f)     0.00002       3.41218
   432    C   14  f(S2)  Ryd( 4f)     0.00004       3.53045
   433    C   14  f(C3)  Ryd( 4f)     0.00001       3.28902
   434    C   14  f(S3)  Ryd( 4f)     0.00018       3.70051
 
   435    C   15  S      Cor( 1S)     1.99945     -10.06669
   436    C   15  S      Val( 2S)     1.11861      -0.30322
   437    C   15  S      Ryd( 3S)     0.00021       1.53276
   438    C   15  S      Ryd( 4S)     0.00010       2.83599
   439    C   15  S      Ryd( 5S)     0.00000      20.68109
   440    C   15  px     Val( 2p)     1.21204      -0.09895
   441    C   15  px     Ryd( 3p)     0.00069       0.83880
   442    C   15  px     Ryd( 4p)     0.00017       1.74786
   443    C   15  py     Val( 2p)     1.07718      -0.08541
   444    C   15  py     Ryd( 3p)     0.00034       0.69722
   445    C   15  py     Ryd( 4p)     0.00020       2.06339
   446    C   15  pz     Val( 2p)     1.22023      -0.09724
   447    C   15  pz     Ryd( 3p)     0.00109       0.91261
   448    C   15  pz     Ryd( 4p)     0.00009       1.80614
   449    C   15  dxy    Ryd( 3d)     0.00145       1.56248
   450    C   15  dxy    Ryd( 4d)     0.00005       3.10417
   451    C   15  dxz    Ryd( 3d)     0.00167       1.57546
   452    C   15  dxz    Ryd( 4d)     0.00005       3.10974
   453    C   15  dyz    Ryd( 3d)     0.00050       1.44475
   454    C   15  dyz    Ryd( 4d)     0.00006       2.95131
   455    C   15  dx2y2  Ryd( 3d)     0.00171       1.52351
   456    C   15  dx2y2  Ryd( 4d)     0.00008       3.12362
   457    C   15  dz2    Ryd( 3d)     0.00184       1.55600
   458    C   15  dz2    Ryd( 4d)     0.00004       3.10458
   459    C   15  f(0)   Ryd( 4f)     0.00002       3.32749
   460    C   15  f(C1)  Ryd( 4f)     0.00022       3.72786
   461    C   15  f(S1)  Ryd( 4f)     0.00005       3.57203
   462    C   15  f(C2)  Ryd( 4f)     0.00001       3.46606
   463    C   15  f(S2)  Ryd( 4f)     0.00002       3.52286
   464    C   15  f(C3)  Ryd( 4f)     0.00004       3.49691
   465    C   15  f(S3)  Ryd( 4f)     0.00009       3.72454
 
   466    C   16  S      Cor( 1S)     1.99942     -10.08796
   467    C   16  S      Val( 2S)     1.00686      -0.27984
   468    C   16  S      Ryd( 4S)     0.00162       1.90175
   469    C   16  S      Ryd( 3S)     0.00015       1.64447
   470    C   16  S      Ryd( 5S)     0.00000      21.48284
   471    C   16  px     Val( 2p)     1.02714      -0.08602
   472    C   16  px     Ryd( 3p)     0.00149       1.24423
   473    C   16  px     Ryd( 4p)     0.00019       1.79588
   474    C   16  py     Val( 2p)     1.15900      -0.09945
   475    C   16  py     Ryd( 3p)     0.00255       1.27180
   476    C   16  py     Ryd( 4p)     0.00011       1.48802
   477    C   16  pz     Val( 2p)     1.02254      -0.08191
   478    C   16  pz     Ryd( 3p)     0.00123       1.15685
   479    C   16  pz     Ryd( 4p)     0.00028       1.84961
   480    C   16  dxy    Ryd( 3d)     0.00053       1.65791
   481    C   16  dxy    Ryd( 4d)     0.00047       3.08885
   482    C   16  dxz    Ryd( 3d)     0.00106       1.77592
   483    C   16  dxz    Ryd( 4d)     0.00055       3.43332
   484    C   16  dyz    Ryd( 3d)     0.00060       1.70461
   485    C   16  dyz    Ryd( 4d)     0.00039       3.21277
   486    C   16  dx2y2  Ryd( 3d)     0.00151       1.73994
   487    C   16  dx2y2  Ryd( 4d)     0.00033       3.40875
   488    C   16  dz2    Ryd( 3d)     0.00127       1.76523
   489    C   16  dz2    Ryd( 4d)     0.00039       3.44674
   490    C   16  f(0)   Ryd( 4f)     0.00005       3.82179
   491    C   16  f(C1)  Ryd( 4f)     0.00012       3.85845
   492    C   16  f(S1)  Ryd( 4f)     0.00004       3.67454
   493    C   16  f(C2)  Ryd( 4f)     0.00006       3.75042
   494    C   16  f(S2)  Ryd( 4f)     0.00003       3.69211
   495    C   16  f(C3)  Ryd( 4f)     0.00003       3.56485
   496    C   16  f(S3)  Ryd( 4f)     0.00008       3.80286
 
   497    C   17  S      Cor( 1S)     1.99946     -10.06445
   498    C   17  S      Val( 2S)     1.11712      -0.30014
   499    C   17  S      Ryd( 4S)     0.00033       2.45333
   500    C   17  S      Ryd( 3S)     0.00022       1.25910
   501    C   17  S      Ryd( 5S)     0.00000      21.34541
   502    C   17  px     Val( 2p)     1.18746      -0.09147
   503    C   17  px     Ryd( 3p)     0.00117       0.89239
   504    C   17  px     Ryd( 4p)     0.00008       1.97888
   505    C   17  py     Val( 2p)     1.17490      -0.09174
   506    C   17  py     Ryd( 3p)     0.00051       0.77865
   507    C   17  py     Ryd( 4p)     0.00027       1.58483
   508    C   17  pz     Val( 2p)     1.13466      -0.08993
   509    C   17  pz     Ryd( 3p)     0.00074       0.89041
   510    C   17  pz     Ryd( 4p)     0.00032       2.14457
   511    C   17  dxy    Ryd( 3d)     0.00090       1.44338
   512    C   17  dxy    Ryd( 4d)     0.00005       2.93658
   513    C   17  dxz    Ryd( 3d)     0.00181       1.56113
   514    C   17  dxz    Ryd( 4d)     0.00007       3.17235
   515    C   17  dyz    Ryd( 3d)     0.00114       1.51915
   516    C   17  dyz    Ryd( 4d)     0.00008       3.05888
   517    C   17  dx2y2  Ryd( 3d)     0.00212       1.59775
   518    C   17  dx2y2  Ryd( 4d)     0.00004       3.16844
   519    C   17  dz2    Ryd( 3d)     0.00116       1.57588
   520    C   17  dz2    Ryd( 4d)     0.00011       3.14793
   521    C   17  f(0)   Ryd( 4f)     0.00003       3.53519
   522    C   17  f(C1)  Ryd( 4f)     0.00015       3.80490
   523    C   17  f(S1)  Ryd( 4f)     0.00005       3.54494
   524    C   17  f(C2)  Ryd( 4f)     0.00006       3.52457
   525    C   17  f(S2)  Ryd( 4f)     0.00004       3.41297
   526    C   17  f(C3)  Ryd( 4f)     0.00002       3.39479
   527    C   17  f(S3)  Ryd( 4f)     0.00011       3.70447
 
   528    C   18  S      Cor( 1S)     1.99946     -10.06749
   529    C   18  S      Val( 2S)     1.11774      -0.30310
   530    C   18  S      Ryd( 3S)     0.00022       1.53613
   531    C   18  S      Ryd( 4S)     0.00006       3.07589
   532    C   18  S      Ryd( 5S)     0.00000      20.40878
   533    C   18  px     Val( 2p)     1.07727      -0.08657
   534    C   18  px     Ryd( 3p)     0.00052       0.78211
   535    C   18  px     Ryd( 4p)     0.00023       2.04101
   536    C   18  py     Val( 2p)     1.20078      -0.09656
   537    C   18  py     Ryd( 3p)     0.00050       0.81773
   538    C   18  py     Ryd( 4p)     0.00008       1.72726
   539    C   18  pz     Val( 2p)     1.22137      -0.09771
   540    C   18  pz     Ryd( 3p)     0.00109       0.96777
   541    C   18  pz     Ryd( 4p)     0.00018       1.70858
   542    C   18  dxy    Ryd( 3d)     0.00100       1.50985
   543    C   18  dxy    Ryd( 4d)     0.00008       2.97912
   544    C   18  dxz    Ryd( 3d)     0.00104       1.57581
   545    C   18  dxz    Ryd( 4d)     0.00007       3.06832
   546    C   18  dyz    Ryd( 3d)     0.00105       1.50799
   547    C   18  dyz    Ryd( 4d)     0.00003       2.93714
   548    C   18  dx2y2  Ryd( 3d)     0.00210       1.64206
   549    C   18  dx2y2  Ryd( 4d)     0.00005       3.17309
   550    C   18  dz2    Ryd( 3d)     0.00180       1.56464
   551    C   18  dz2    Ryd( 4d)     0.00006       3.03958
   552    C   18  f(0)   Ryd( 4f)     0.00008       3.52142
   553    C   18  f(C1)  Ryd( 4f)     0.00011       3.70693
   554    C   18  f(S1)  Ryd( 4f)     0.00003       3.28147
   555    C   18  f(C2)  Ryd( 4f)     0.00007       3.56479
   556    C   18  f(S2)  Ryd( 4f)     0.00004       3.55404
   557    C   18  f(C3)  Ryd( 4f)     0.00005       3.53630
   558    C   18  f(S3)  Ryd( 4f)     0.00007       3.67282
 
   559    C   19  S      Cor( 1S)     1.99904     -10.14481
   560    C   19  S      Val( 2S)     1.04155      -0.22111
   561    C   19  S      Ryd( 3S)     0.00891       2.25981
   562    C   19  S      Ryd( 4S)     0.00023       2.77424
   563    C   19  S      Ryd( 5S)     0.00000      22.07586
   564    C   19  px     Val( 2p)     0.69316       0.01995
   565    C   19  px     Ryd( 3p)     0.00437       1.33299
   566    C   19  px     Ryd( 4p)     0.00076       1.81446
   567    C   19  py     Val( 2p)     1.07363      -0.05786
   568    C   19  py     Ryd( 3p)     0.00947       3.89423
   569    C   19  py     Ryd( 4p)     0.00044       3.89699
   570    C   19  pz     Val( 2p)     0.81034      -0.08904
   571    C   19  pz     Ryd( 3p)     0.00409       1.00405
   572    C   19  pz     Ryd( 4p)     0.00051       1.52113
   573    C   19  dxy    Ryd( 3d)     0.00098       2.24210
   574    C   19  dxy    Ryd( 4d)     0.00034       4.14553
   575    C   19  dxz    Ryd( 3d)     0.00025       1.51133
   576    C   19  dxz    Ryd( 4d)     0.00059       3.37961
   577    C   19  dyz    Ryd( 3d)     0.00075       1.64641
   578    C   19  dyz    Ryd( 4d)     0.00046       3.43512
   579    C   19  dx2y2  Ryd( 3d)     0.00128       2.21837
   580    C   19  dx2y2  Ryd( 4d)     0.00050       3.63562
   581    C   19  dz2    Ryd( 3d)     0.00046       1.82964
   582    C   19  dz2    Ryd( 4d)     0.00021       3.71595
   583    C   19  f(0)   Ryd( 4f)     0.00002       3.57733
   584    C   19  f(C1)  Ryd( 4f)     0.00005       3.68994
   585    C   19  f(S1)  Ryd( 4f)     0.00003       3.50424
   586    C   19  f(C2)  Ryd( 4f)     0.00002       3.43230
   587    C   19  f(S2)  Ryd( 4f)     0.00002       3.77171
   588    C   19  f(C3)  Ryd( 4f)     0.00002       4.20626
   589    C   19  f(S3)  Ryd( 4f)     0.00007       3.97347
 
   590   Ni   20  S      Cor( 3S)     1.99115      -4.09255
   591   Ni   20  S      Val( 4S)     0.44669       0.88643
   592   Ni   20  S      Ryd( 6S)     0.00083       2.43897
   593   Ni   20  S      Ryd( 7S)     0.00029      16.90235
   594   Ni   20  S      Ryd( 5S)     0.00016       1.88948
   595   Ni   20  S      Ryd( 8S)     0.00005      32.71397
   596   Ni   20  px     Cor( 3p)     1.99749      -2.66332
   597   Ni   20  px     Val( 4p)     0.52066       0.21379
   598   Ni   20  px     Ryd( 5p)     0.00092       0.35553
   599   Ni   20  px     Ryd( 6p)     0.00018       4.41324
   600   Ni   20  px     Ryd( 7p)     0.00000      56.14987
   601   Ni   20  py     Cor( 3p)     1.99863      -2.65888
   602   Ni   20  py     Val( 4p)     0.48700       0.22393
   603   Ni   20  py     Ryd( 5p)     0.00094       1.02183
   604   Ni   20  py     Ryd( 6p)     0.00012       4.01367
   605   Ni   20  py     Ryd( 7p)     0.00000      56.09048
   606   Ni   20  pz     Cor( 3p)     1.99751      -2.66550
   607   Ni   20  pz     Val( 4p)     0.52395       0.19423
   608   Ni   20  pz     Ryd( 5p)     0.00082       0.53808
   609   Ni   20  pz     Ryd( 6p)     0.00019       4.48316
   610   Ni   20  pz     Ryd( 7p)     0.00000      56.16849
   611   Ni   20  dxy    Val( 3d)     1.89494      -0.27545
   612   Ni   20  dxy    Ryd( 4d)     0.00243       0.80579
   613   Ni   20  dxy    Ryd( 5d)     0.00006       1.75265
   614   Ni   20  dxz    Val( 3d)     1.78950      -0.27531
   615   Ni   20  dxz    Ryd( 4d)     0.00142       0.84847
   616   Ni   20  dxz    Ryd( 5d)     0.00007       1.82595
   617   Ni   20  dyz    Val( 3d)     1.86652      -0.27565
   618   Ni   20  dyz    Ryd( 4d)     0.00209       0.96974
   619   Ni   20  dyz    Ryd( 5d)     0.00018       1.73403
   620   Ni   20  dx2y2  Val( 3d)     1.77539      -0.26229
   621   Ni   20  dx2y2  Ryd( 4d)     0.00079       0.65221
   622   Ni   20  dx2y2  Ryd( 5d)     0.00007       1.99786
   623   Ni   20  dz2    Val( 3d)     1.78371      -0.27065
   624   Ni   20  dz2    Ryd( 4d)     0.00176       0.81605
   625   Ni   20  dz2    Ryd( 5d)     0.00008       1.79763
   626   Ni   20  f(0)   Ryd( 4f)     0.00002       6.20500
   627   Ni   20  f(C1)  Ryd( 4f)     0.00000       6.17873
   628   Ni   20  f(S1)  Ryd( 4f)     0.00002       6.21975
   629   Ni   20  f(C2)  Ryd( 4f)     0.00001       6.21682
   630   Ni   20  f(S2)  Ryd( 4f)     0.00002       6.20626
   631   Ni   20  f(C3)  Ryd( 4f)     0.00000       6.18752
   632   Ni   20  f(S3)  Ryd( 4f)     0.00001       6.22713
 
   633    C   21  S      Cor( 1S)     1.99911     -10.18502
   634    C   21  S      Val( 2S)     1.22552      -0.32118
   635    C   21  S      Ryd( 4S)     0.03995       2.55880
   636    C   21  S      Ryd( 3S)     0.00021       2.42388
   637    C   21  S      Ryd( 5S)     0.00001      21.34313
   638    C   21  px     Val( 2p)     0.58567      -0.08892
   639    C   21  px     Ryd( 3p)     0.00170       0.96576
   640    C   21  px     Ryd( 4p)     0.00011       1.29624
   641    C   21  py     Val( 2p)     0.62381      -0.06777
   642    C   21  py     Ryd( 3p)     0.00432       1.12324
   643    C   21  py     Ryd( 4p)     0.00020       1.32362
   644    C   21  pz     Val( 2p)     0.76722       0.00130
   645    C   21  pz     Ryd( 4p)     0.01187       2.11359
   646    C   21  pz     Ryd( 3p)     0.00021       1.73513
   647    C   21  dxy    Ryd( 4d)     0.00027       2.57031
   648    C   21  dxy    Ryd( 3d)     0.00012       2.06459
   649    C   21  dxz    Ryd( 4d)     0.00104       3.14208
   650    C   21  dxz    Ryd( 3d)     0.00003       2.53323
   651    C   21  dyz    Ryd( 4d)     0.00076       3.25727
   652    C   21  dyz    Ryd( 3d)     0.00043       2.42044
   653    C   21  dx2y2  Ryd( 4d)     0.00022       2.56329
   654    C   21  dx2y2  Ryd( 3d)     0.00004       2.05773
   655    C   21  dz2    Ryd( 4d)     0.00085       3.35612
   656    C   21  dz2    Ryd( 3d)     0.00050       2.43288
   657    C   21  f(0)   Ryd( 4f)     0.00018       3.49165
   658    C   21  f(C1)  Ryd( 4f)     0.00005       3.31094
   659    C   21  f(S1)  Ryd( 4f)     0.00033       3.48548
   660    C   21  f(C2)  Ryd( 4f)     0.00007       3.13460
   661    C   21  f(S2)  Ryd( 4f)     0.00002       3.11263
   662    C   21  f(C3)  Ryd( 4f)     0.00000       2.80095
   663    C   21  f(S3)  Ryd( 4f)     0.00000       2.79486
 
   664    O   22  S      Cor( 1S)     1.99977     -18.99111
   665    O   22  S      Val( 2S)     1.70687      -1.00364
   666    O   22  S      Ryd( 3S)     0.00292       1.64564
   667    O   22  S      Ryd( 4S)     0.00005       3.77559
   668    O   22  S      Ryd( 5S)     0.00000      42.11696
   669    O   22  px     Val( 2p)     1.55097      -0.32517
   670    O   22  px     Ryd( 3p)     0.00182       0.65986
   671    O   22  px     Ryd( 4p)     0.00001       2.88433
   672    O   22  py     Val( 2p)     1.57267      -0.33943
   673    O   22  py     Ryd( 3p)     0.00163       0.66357
   674    O   22  py     Ryd( 4p)     0.00006       3.07661
   675    O   22  pz     Val( 2p)     1.64248      -0.39031
   676    O   22  pz     Ryd( 3p)     0.00078       0.78547
   677    O   22  pz     Ryd( 4p)     0.00018       3.86077
   678    O   22  dxy    Ryd( 3d)     0.00124       1.48947
   679    O   22  dxy    Ryd( 4d)     0.00001       6.23245
   680    O   22  dxz    Ryd( 3d)     0.00574       1.58788
   681    O   22  dxz    Ryd( 4d)     0.00002       6.36047
   682    O   22  dyz    Ryd( 3d)     0.00849       1.81464
   683    O   22  dyz    Ryd( 4d)     0.00001       6.48853
   684    O   22  dx2y2  Ryd( 3d)     0.00133       1.48592
   685    O   22  dx2y2  Ryd( 4d)     0.00000       6.22746
   686    O   22  dz2    Ryd( 3d)     0.01002       1.88409
   687    O   22  dz2    Ryd( 4d)     0.00001       6.53979
   688    O   22  f(0)   Ryd( 4f)     0.00033       5.79985
   689    O   22  f(C1)  Ryd( 4f)     0.00021       5.56448
   690    O   22  f(S1)  Ryd( 4f)     0.00028       5.90151
   691    O   22  f(C2)  Ryd( 4f)     0.00012       5.45692
   692    O   22  f(S2)  Ryd( 4f)     0.00013       5.42577
   693    O   22  f(C3)  Ryd( 4f)     0.00001       5.17117
   694    O   22  f(S3)  Ryd( 4f)     0.00001       5.17224
 
   695    C   23  S      Cor( 1S)     1.99909     -10.18343
   696    C   23  S      Val( 2S)     1.23377      -0.32493
   697    C   23  S      Ryd( 4S)     0.04063       2.87544
   698    C   23  S      Ryd( 3S)     0.00012       2.56394
   699    C   23  S      Ryd( 5S)     0.00001      21.27698
   700    C   23  px     Val( 2p)     0.70857      -0.03001
   701    C   23  px     Ryd( 4p)     0.00880       2.03148
   702    C   23  px     Ryd( 3p)     0.00018       1.72729
   703    C   23  py     Val( 2p)     0.63563      -0.07086
   704    C   23  py     Ryd( 3p)     0.00392       1.07575
   705    C   23  py     Ryd( 4p)     0.00015       1.33464
   706    C   23  pz     Val( 2p)     0.64813      -0.05973
   707    C   23  pz     Ryd( 4p)     0.00542       1.36318
   708    C   23  pz     Ryd( 3p)     0.00017       1.30293
   709    C   23  dxy    Ryd( 4d)     0.00066       2.98757
   710    C   23  dxy    Ryd( 3d)     0.00025       2.29964
   711    C   23  dxz    Ryd( 4d)     0.00055       3.03698
   712    C   23  dxz    Ryd( 3d)     0.00042       2.38376
   713    C   23  dyz    Ryd( 4d)     0.00044       2.74898
   714    C   23  dyz    Ryd( 3d)     0.00018       2.19003
   715    C   23  dx2y2  Ryd( 4d)     0.00078       2.99426
   716    C   23  dx2y2  Ryd( 3d)     0.00021       2.37653
   717    C   23  dz2    Ryd( 4d)     0.00079       2.91043
   718    C   23  dz2    Ryd( 3d)     0.00007       2.32396
   719    C   23  f(0)   Ryd( 4f)     0.00010       3.08212
   720    C   23  f(C1)  Ryd( 4f)     0.00006       3.29709
   721    C   23  f(S1)  Ryd( 4f)     0.00001       2.96396
   722    C   23  f(C2)  Ryd( 4f)     0.00015       3.20213
   723    C   23  f(S2)  Ryd( 4f)     0.00016       3.21483
   724    C   23  f(C3)  Ryd( 4f)     0.00006       3.19551
   725    C   23  f(S3)  Ryd( 4f)     0.00012       3.17579
 
   726    O   24  S      Cor( 1S)     1.99977     -18.99141
   727    O   24  S      Val( 2S)     1.70589      -1.00194
   728    O   24  S      Ryd( 3S)     0.00305       1.69629
   729    O   24  S      Ryd( 4S)     0.00006       3.83696
   730    O   24  S      Ryd( 5S)     0.00000      42.05537
   731    O   24  px     Val( 2p)     1.61516      -0.36999
   732    O   24  px     Ryd( 3p)     0.00119       0.75795
   733    O   24  px     Ryd( 4p)     0.00012       3.57006
   734    O   24  py     Val( 2p)     1.57472      -0.33830
   735    O   24  py     Ryd( 3p)     0.00194       0.66683
   736    O   24  py     Ryd( 4p)     0.00006       3.06608
   737    O   24  pz     Val( 2p)     1.58073      -0.34699
   738    O   24  pz     Ryd( 3p)     0.00145       0.68978
   739    O   24  pz     Ryd( 4p)     0.00007       3.20567
   740    O   24  dxy    Ryd( 3d)     0.00595       1.69791
   741    O   24  dxy    Ryd( 4d)     0.00001       6.39671
   742    O   24  dxz    Ryd( 3d)     0.00755       1.80122
   743    O   24  dxz    Ryd( 4d)     0.00001       6.46217
   744    O   24  dyz    Ryd( 3d)     0.00351       1.59867
   745    O   24  dyz    Ryd( 4d)     0.00001       6.31949
   746    O   24  dx2y2  Ryd( 3d)     0.00554       1.62619
   747    O   24  dx2y2  Ryd( 4d)     0.00002       6.36921
   748    O   24  dz2    Ryd( 3d)     0.00432       1.55834
   749    O   24  dz2    Ryd( 4d)     0.00002       6.32110
   750    O   24  f(0)   Ryd( 4f)     0.00008       5.44448
   751    O   24  f(C1)  Ryd( 4f)     0.00023       5.55774
   752    O   24  f(S1)  Ryd( 4f)     0.00007       5.31932
   753    O   24  f(C2)  Ryd( 4f)     0.00019       5.52724
   754    O   24  f(S2)  Ryd( 4f)     0.00020       5.62579
   755    O   24  f(C3)  Ryd( 4f)     0.00017       5.47797
   756    O   24  f(S3)  Ryd( 4f)     0.00014       5.54043
 
   757    C   25  S      Cor( 1S)     1.99909     -10.18343
   758    C   25  S      Val( 2S)     1.23377      -0.32493
   759    C   25  S      Ryd( 4S)     0.04063       2.87557
   760    C   25  S      Ryd( 3S)     0.00012       2.56396
   761    C   25  S      Ryd( 5S)     0.00001      21.27700
   762    C   25  px     Val( 2p)     0.70859      -0.03000
   763    C   25  px     Ryd( 4p)     0.00881       2.03168
   764    C   25  px     Ryd( 3p)     0.00018       1.72736
   765    C   25  py     Val( 2p)     0.63564      -0.07085
   766    C   25  py     Ryd( 3p)     0.00392       1.07580
   767    C   25  py     Ryd( 4p)     0.00015       1.33465
   768    C   25  pz     Val( 2p)     0.64809      -0.05974
   769    C   25  pz     Ryd( 4p)     0.00542       1.36299
   770    C   25  pz     Ryd( 3p)     0.00017       1.30287
   771    C   25  dxy    Ryd( 4d)     0.00066       2.98769
   772    C   25  dxy    Ryd( 3d)     0.00025       2.29971
   773    C   25  dxz    Ryd( 4d)     0.00055       3.03694
   774    C   25  dxz    Ryd( 3d)     0.00042       2.38378
   775    C   25  dyz    Ryd( 4d)     0.00044       2.74889
   776    C   25  dyz    Ryd( 3d)     0.00018       2.18998
   777    C   25  dx2y2  Ryd( 4d)     0.00078       2.99439
   778    C   25  dx2y2  Ryd( 3d)     0.00021       2.37661
   779    C   25  dz2    Ryd( 4d)     0.00079       2.91027
   780    C   25  dz2    Ryd( 3d)     0.00007       2.32387
   781    C   25  f(0)   Ryd( 4f)     0.00010       3.08205
   782    C   25  f(C1)  Ryd( 4f)     0.00006       3.29702
   783    C   25  f(S1)  Ryd( 4f)     0.00001       2.96391
   784    C   25  f(C2)  Ryd( 4f)     0.00015       3.20209
   785    C   25  f(S2)  Ryd( 4f)     0.00016       3.21482
   786    C   25  f(C3)  Ryd( 4f)     0.00006       3.19564
   787    C   25  f(S3)  Ryd( 4f)     0.00012       3.17591
 
   788    O   26  S      Cor( 1S)     1.99977     -18.99141
   789    O   26  S      Val( 2S)     1.70589      -1.00194
   790    O   26  S      Ryd( 3S)     0.00305       1.69632
   791    O   26  S      Ryd( 4S)     0.00006       3.83693
   792    O   26  S      Ryd( 5S)     0.00000      42.05539
   793    O   26  px     Val( 2p)     1.61518      -0.37000
   794    O   26  px     Ryd( 3p)     0.00119       0.75796
   795    O   26  px     Ryd( 4p)     0.00012       3.57019
   796    O   26  py     Val( 2p)     1.57472      -0.33830
   797    O   26  py     Ryd( 3p)     0.00194       0.66683
   798    O   26  py     Ryd( 4p)     0.00006       3.06615
   799    O   26  pz     Val( 2p)     1.58072      -0.34698
   800    O   26  pz     Ryd( 3p)     0.00145       0.68977
   801    O   26  pz     Ryd( 4p)     0.00007       3.20547
   802    O   26  dxy    Ryd( 3d)     0.00595       1.69800
   803    O   26  dxy    Ryd( 4d)     0.00001       6.39677
   804    O   26  dxz    Ryd( 3d)     0.00754       1.80112
   805    O   26  dxz    Ryd( 4d)     0.00001       6.46212
   806    O   26  dyz    Ryd( 3d)     0.00351       1.59864
   807    O   26  dyz    Ryd( 4d)     0.00001       6.31947
   808    O   26  dx2y2  Ryd( 3d)     0.00555       1.62623
   809    O   26  dx2y2  Ryd( 4d)     0.00002       6.36925
   810    O   26  dz2    Ryd( 3d)     0.00431       1.55834
   811    O   26  dz2    Ryd( 4d)     0.00002       6.32108
   812    O   26  f(0)   Ryd( 4f)     0.00008       5.44445
   813    O   26  f(C1)  Ryd( 4f)     0.00023       5.55764
   814    O   26  f(S1)  Ryd( 4f)     0.00007       5.31926
   815    O   26  f(C2)  Ryd( 4f)     0.00019       5.52718
   816    O   26  f(S2)  Ryd( 4f)     0.00020       5.62577
   817    O   26  f(C3)  Ryd( 4f)     0.00017       5.47808
   818    O   26  f(S3)  Ryd( 4f)     0.00014       5.54059
 
   819    H   27  S      Val( 1S)     0.77709       0.03620
   820    H   27  S      Ryd( 2S)     0.00041       1.01995
   821    H   27  S      Ryd( 3S)     0.00011       1.55166
   822    H   27  px     Ryd( 2p)     0.00014       2.56930
   823    H   27  py     Ryd( 2p)     0.00010       2.22557
   824    H   27  pz     Ryd( 2p)     0.00020       2.80147
 
   825    H   28  S      Val( 1S)     0.78518       0.03095
   826    H   28  S      Ryd( 2S)     0.00057       1.27101
   827    H   28  S      Ryd( 3S)     0.00012       1.37686
   828    H   28  px     Ryd( 2p)     0.00011       2.37216
   829    H   28  py     Ryd( 2p)     0.00025       2.92012
   830    H   28  pz     Ryd( 2p)     0.00013       2.27085
 
   831    H   29  S      Val( 1S)     0.77959       0.03648
   832    H   29  S      Ryd( 2S)     0.00033       1.10490
   833    H   29  S      Ryd( 3S)     0.00020       1.57300
   834    H   29  px     Ryd( 2p)     0.00020       2.67802
   835    H   29  py     Ryd( 2p)     0.00014       2.44682
   836    H   29  pz     Ryd( 2p)     0.00018       2.48947
 
   837    H   30  S      Val( 1S)     0.78983       0.01978
   838    H   30  S      Ryd( 2S)     0.00078       0.82962
   839    H   30  S      Ryd( 3S)     0.00016       2.31836
   840    H   30  px     Ryd( 2p)     0.00024       2.64947
   841    H   30  py     Ryd( 2p)     0.00028       3.15714
   842    H   30  pz     Ryd( 2p)     0.00017       2.68381
 
   843    H   31  S      Val( 1S)     0.77860       0.03944
   844    H   31  S      Ryd( 2S)     0.00068       1.08180
   845    H   31  S      Ryd( 3S)     0.00014       1.95344
   846    H   31  px     Ryd( 2p)     0.00025       3.01639
   847    H   31  py     Ryd( 2p)     0.00013       2.33122
   848    H   31  pz     Ryd( 2p)     0.00013       2.41420
 
   849    H   32  S      Val( 1S)     0.78667       0.03501
   850    H   32  S      Ryd( 2S)     0.00097       0.84046
   851    H   32  S      Ryd( 3S)     0.00018       2.30941
   852    H   32  px     Ryd( 2p)     0.00012       2.24979
   853    H   32  py     Ryd( 2p)     0.00017       3.06242
   854    H   32  pz     Ryd( 2p)     0.00010       2.33378
 
   855    H   33  S      Val( 1S)     0.77891       0.03588
   856    H   33  S      Ryd( 2S)     0.00035       1.09171
   857    H   33  S      Ryd( 3S)     0.00012       1.49239
   858    H   33  px     Ryd( 2p)     0.00012       2.40053
   859    H   33  py     Ryd( 2p)     0.00014       2.27637
   860    H   33  pz     Ryd( 2p)     0.00024       2.95853
 
   861    H   34  S      Val( 1S)     0.75482       0.04570
   862    H   34  S      Ryd( 2S)     0.00203       1.20130
   863    H   34  S      Ryd( 3S)     0.00029       2.53652
   864    H   34  px     Ryd( 2p)     0.00019       2.81568
   865    H   34  py     Ryd( 2p)     0.00046       3.32398
   866    H   34  pz     Ryd( 2p)     0.00018       2.72331
 
   867    H   35  S      Val( 1S)     0.77858       0.02528
   868    H   35  S      Ryd( 2S)     0.00065       0.76681
   869    H   35  S      Ryd( 3S)     0.00016       2.32335
   870    H   35  px     Ryd( 2p)     0.00028       3.05475
   871    H   35  py     Ryd( 2p)     0.00022       2.77660
   872    H   35  pz     Ryd( 2p)     0.00019       2.64642
 
   873    H   36  S      Val( 1S)     0.78603       0.03210
   874    H   36  S      Ryd( 2S)     0.00067       1.17569
   875    H   36  S      Ryd( 3S)     0.00009       1.52408
   876    H   36  px     Ryd( 2p)     0.00018       2.71124
   877    H   36  py     Ryd( 2p)     0.00018       2.67753
   878    H   36  pz     Ryd( 2p)     0.00011       2.22208
 
   879    H   37  S      Val( 1S)     0.78126       0.03469
   880    H   37  S      Ryd( 2S)     0.00040       1.10482
   881    H   37  S      Ryd( 3S)     0.00020       1.56922
   882    H   37  px     Ryd( 2p)     0.00018       2.42257
   883    H   37  py     Ryd( 2p)     0.00014       2.46017
   884    H   37  pz     Ryd( 2p)     0.00022       2.74296
 
   885    H   38  S      Val( 1S)     0.77583       0.03642
   886    H   38  S      Ryd( 2S)     0.00040       0.99727
   887    H   38  S      Ryd( 3S)     0.00011       1.57057
   888    H   38  px     Ryd( 2p)     0.00014       2.48554
   889    H   38  py     Ryd( 2p)     0.00012       2.48435
   890    H   38  pz     Ryd( 2p)     0.00017       2.64180
 
   891    H   39  S      Val( 1S)     0.78604       0.03468
   892    H   39  S      Ryd( 2S)     0.00093       1.07937
   893    H   39  S      Ryd( 3S)     0.00015       1.85200
   894    H   39  px     Ryd( 2p)     0.00025       2.91395
   895    H   39  py     Ryd( 2p)     0.00015       2.40224
   896    H   39  pz     Ryd( 2p)     0.00010       2.35879
 
   897    H   40  S      Val( 1S)     0.77905       0.03631
   898    H   40  S      Ryd( 2S)     0.00036       1.09761
   899    H   40  S      Ryd( 3S)     0.00011       1.48611
   900    H   40  px     Ryd( 2p)     0.00012       2.42571
   901    H   40  py     Ryd( 2p)     0.00012       2.32722
   902    H   40  pz     Ryd( 2p)     0.00023       2.88242
 
   903    H   41  S      Val( 1S)     0.77940       0.04277
   904    H   41  S      Ryd( 3S)     0.00077       1.52510
   905    H   41  S      Ryd( 2S)     0.00015       1.38026
   906    H   41  px     Ryd( 2p)     0.00013       2.27853
   907    H   41  py     Ryd( 2p)     0.00026       3.00797
   908    H   41  pz     Ryd( 2p)     0.00015       2.44495
 
   909    H   42  S      Val( 1S)     0.74322       0.03970
   910    H   42  S      Ryd( 3S)     0.00042       1.88386
   911    H   42  S      Ryd( 2S)     0.00005       1.02952
   912    H   42  px     Ryd( 2p)     0.00022       2.83255
   913    H   42  py     Ryd( 2p)     0.00028       2.84875
   914    H   42  pz     Ryd( 2p)     0.00027       2.27185
 
   915    H   43  S      Val( 1S)     0.74322       0.03970
   916    H   43  S      Ryd( 3S)     0.00042       1.88387
   917    H   43  S      Ryd( 2S)     0.00005       1.02951
   918    H   43  px     Ryd( 2p)     0.00022       2.83254
   919    H   43  py     Ryd( 2p)     0.00028       2.84876
   920    H   43  pz     Ryd( 2p)     0.00027       2.27185
 
   921    H   44  S      Val( 1S)     0.75483       0.04570
   922    H   44  S      Ryd( 2S)     0.00203       1.20122
   923    H   44  S      Ryd( 3S)     0.00029       2.53653
   924    H   44  px     Ryd( 2p)     0.00019       2.81568
   925    H   44  py     Ryd( 2p)     0.00046       3.32400
   926    H   44  pz     Ryd( 2p)     0.00018       2.72330
 
   927    H   45  S      Val( 1S)     0.77858       0.02528
   928    H   45  S      Ryd( 2S)     0.00065       0.76680
   929    H   45  S      Ryd( 3S)     0.00016       2.32335
   930    H   45  px     Ryd( 2p)     0.00028       3.05477
   931    H   45  py     Ryd( 2p)     0.00022       2.77659
   932    H   45  pz     Ryd( 2p)     0.00019       2.64640
 
   933    H   46  S      Val( 1S)     0.77905       0.03631
   934    H   46  S      Ryd( 2S)     0.00036       1.09761
   935    H   46  S      Ryd( 3S)     0.00011       1.48611
   936    H   46  px     Ryd( 2p)     0.00012       2.42571
   937    H   46  py     Ryd( 2p)     0.00012       2.32719
   938    H   46  pz     Ryd( 2p)     0.00023       2.88245
 
   939    H   47  S      Val( 1S)     0.78604       0.03468
   940    H   47  S      Ryd( 2S)     0.00093       1.07938
   941    H   47  S      Ryd( 3S)     0.00015       1.85203
   942    H   47  px     Ryd( 2p)     0.00025       2.91397
   943    H   47  py     Ryd( 2p)     0.00015       2.40223
   944    H   47  pz     Ryd( 2p)     0.00010       2.35879
 
   945    H   48  S      Val( 1S)     0.77940       0.04277
   946    H   48  S      Ryd( 3S)     0.00077       1.52512
   947    H   48  S      Ryd( 2S)     0.00015       1.38028
   948    H   48  px     Ryd( 2p)     0.00013       2.27852
   949    H   48  py     Ryd( 2p)     0.00026       3.00802
   950    H   48  pz     Ryd( 2p)     0.00015       2.44492
 
   951    H   49  S      Val( 1S)     0.78603       0.03210
   952    H   49  S      Ryd( 2S)     0.00067       1.17571
   953    H   49  S      Ryd( 3S)     0.00009       1.52406
   954    H   49  px     Ryd( 2p)     0.00018       2.71127
   955    H   49  py     Ryd( 2p)     0.00018       2.67749
   956    H   49  pz     Ryd( 2p)     0.00011       2.22208
 
   957    H   50  S      Val( 1S)     0.77583       0.03642
   958    H   50  S      Ryd( 2S)     0.00040       0.99726
   959    H   50  S      Ryd( 3S)     0.00011       1.57057
   960    H   50  px     Ryd( 2p)     0.00014       2.48553
   961    H   50  py     Ryd( 2p)     0.00012       2.48433
   962    H   50  pz     Ryd( 2p)     0.00017       2.64183
 
   963    H   51  S      Val( 1S)     0.78126       0.03469
   964    H   51  S      Ryd( 2S)     0.00040       1.10490
   965    H   51  S      Ryd( 3S)     0.00020       1.56914
   966    H   51  px     Ryd( 2p)     0.00018       2.42255
   967    H   51  py     Ryd( 2p)     0.00014       2.46021
   968    H   51  pz     Ryd( 2p)     0.00022       2.74294
 
   969    H   52  S      Val( 1S)     0.78983       0.01978
   970    H   52  S      Ryd( 2S)     0.00078       0.82962
   971    H   52  S      Ryd( 3S)     0.00016       2.31835
   972    H   52  px     Ryd( 2p)     0.00024       2.64947
   973    H   52  py     Ryd( 2p)     0.00028       3.15716
   974    H   52  pz     Ryd( 2p)     0.00017       2.68378
 
   975    H   53  S      Val( 1S)     0.77860       0.03944
   976    H   53  S      Ryd( 2S)     0.00068       1.08180
   977    H   53  S      Ryd( 3S)     0.00014       1.95341
   978    H   53  px     Ryd( 2p)     0.00025       3.01638
   979    H   53  py     Ryd( 2p)     0.00013       2.33123
   980    H   53  pz     Ryd( 2p)     0.00013       2.41421
 
   981    H   54  S      Val( 1S)     0.77891       0.03588
   982    H   54  S      Ryd( 2S)     0.00035       1.09170
   983    H   54  S      Ryd( 3S)     0.00012       1.49240
   984    H   54  px     Ryd( 2p)     0.00012       2.40053
   985    H   54  py     Ryd( 2p)     0.00014       2.27636
   986    H   54  pz     Ryd( 2p)     0.00024       2.95853
 
   987    H   55  S      Val( 1S)     0.78667       0.03501
   988    H   55  S      Ryd( 2S)     0.00097       0.84048
   989    H   55  S      Ryd( 3S)     0.00018       2.30942
   990    H   55  px     Ryd( 2p)     0.00012       2.24979
   991    H   55  py     Ryd( 2p)     0.00017       3.06242
   992    H   55  pz     Ryd( 2p)     0.00010       2.33378
 
   993    H   56  S      Val( 1S)     0.78518       0.03095
   994    H   56  S      Ryd( 2S)     0.00057       1.27102
   995    H   56  S      Ryd( 3S)     0.00012       1.37687
   996    H   56  px     Ryd( 2p)     0.00011       2.37216
   997    H   56  py     Ryd( 2p)     0.00025       2.92016
   998    H   56  pz     Ryd( 2p)     0.00013       2.27082
 
   999    H   57  S      Val( 1S)     0.77709       0.03620
  1000    H   57  S      Ryd( 2S)     0.00041       1.01996
  1001    H   57  S      Ryd( 3S)     0.00011       1.55165
  1002    H   57  px     Ryd( 2p)     0.00014       2.56929
  1003    H   57  py     Ryd( 2p)     0.00010       2.22557
  1004    H   57  pz     Ryd( 2p)     0.00020       2.80147
 
  1005    H   58  S      Val( 1S)     0.77959       0.03648
  1006    H   58  S      Ryd( 2S)     0.00033       1.10498
  1007    H   58  S      Ryd( 3S)     0.00020       1.57291
  1008    H   58  px     Ryd( 2p)     0.00020       2.67802
  1009    H   58  py     Ryd( 2p)     0.00014       2.44677
  1010    H   58  pz     Ryd( 2p)     0.00018       2.48950

 [ 10 electrons found in the effective core potential]

 WARNING:  4 low occupancy (<1.9990e) core orbitals found on Ni   20

 WARNING:  Population inversion found on atom  C    2
           Population inversion found on atom  C    3
           Population inversion found on atom  C    4
           Population inversion found on atom  C    5
           Population inversion found on atom  C   12
           Population inversion found on atom  C   13
           Population inversion found on atom  C   16
           Population inversion found on atom  C   17
           Population inversion found on atom  C   19
           Population inversion found on atom Ni   20
           Population inversion found on atom  C   21
           Population inversion found on atom  C   23
           Population inversion found on atom  C   25
           Population inversion found on atom  H   41
           Population inversion found on atom  H   42
           Population inversion found on atom  H   43
           Population inversion found on atom  H   48


 Summary of Natural Population Analysis:                  
                                                          
                                       Natural Population 
                Natural  -----------------------------------------------
    Atom  No    Charge         Core      Valence    Rydberg      Total
 -----------------------------------------------------------------------
      C    1   -0.62720      1.99946     4.61716    0.01058     6.62720
      C    2   -0.23009      1.99942     4.21553    0.01513     6.23009
      C    3   -0.62519      1.99946     4.61414    0.01159     6.62519
      C    4   -0.03023      1.99921     4.01055    0.02048     6.03023
      C    5   -0.22857      1.99942     4.21343    0.01572     6.22857
      C    6   -0.63830      1.99945     4.62807    0.01079     6.63830
      C    7   -0.62389      1.99945     4.61341    0.01103     6.62389
      N    8   -0.37136      1.99940     5.34367    0.02829     7.37136
      C    9   -0.10523      1.99905     4.08664    0.01955     6.10523
      C   10   -0.10523      1.99905     4.08664    0.01955     6.10523
      N   11   -0.37136      1.99940     5.34367    0.02829     7.37136
      C   12   -0.03023      1.99921     4.01055    0.02048     6.03023
      C   13   -0.22857      1.99942     4.21343    0.01572     6.22857
      C   14   -0.62389      1.99945     4.61341    0.01103     6.62389
      C   15   -0.63830      1.99945     4.62807    0.01079     6.63830
      C   16   -0.23009      1.99942     4.21553    0.01513     6.23009
      C   17   -0.62519      1.99946     4.61415    0.01159     6.62519
      C   18   -0.62720      1.99946     4.61716    0.01058     6.62720
      C   19    0.34743      1.99904     3.61868    0.03485     5.65257
     Ni   20   -1.08670     17.98479    11.08836    0.01355    29.08670
      C   21    0.73519      1.99911     3.20222    0.06349     5.26481
      O   22   -0.50817      1.99977     6.47299    0.03542     8.50817
      C   23    0.71040      1.99909     3.22610    0.06441     5.28960
      O   24   -0.51223      1.99977     6.47650    0.03596     8.51223
      C   25    0.71040      1.99909     3.22610    0.06441     5.28960
      O   26   -0.51223      1.99977     6.47650    0.03596     8.51223
      H   27    0.22193      0.00000     0.77709    0.00098     0.77807
      H   28    0.21365      0.00000     0.78518    0.00117     0.78635
      H   29    0.21935      0.00000     0.77959    0.00105     0.78065
      H   30    0.20853      0.00000     0.78983    0.00164     0.79147
      H   31    0.22007      0.00000     0.77860    0.00133     0.77993
      H   32    0.21179      0.00000     0.78667    0.00154     0.78821
      H   33    0.22012      0.00000     0.77891    0.00096     0.77988
      H   34    0.24203      0.00000     0.75482    0.00315     0.75797
      H   35    0.21991      0.00000     0.77858    0.00151     0.78009
      H   36    0.21273      0.00000     0.78603    0.00123     0.78727
      H   37    0.21760      0.00000     0.78126    0.00114     0.78240
      H   38    0.22323      0.00000     0.77583    0.00094     0.77677
      H   39    0.21238      0.00000     0.78604    0.00159     0.78762
      H   40    0.22001      0.00000     0.77905    0.00094     0.77999
      H   41    0.21916      0.00000     0.77940    0.00145     0.78084
      H   42    0.25555      0.00000     0.74322    0.00123     0.74445
      H   43    0.25555      0.00000     0.74322    0.00123     0.74445
      H   44    0.24202      0.00000     0.75483    0.00315     0.75798
      H   45    0.21991      0.00000     0.77858    0.00151     0.78009
      H   46    0.22001      0.00000     0.77905    0.00094     0.77999
      H   47    0.21238      0.00000     0.78604    0.00159     0.78762
      H   48    0.21916      0.00000     0.77940    0.00145     0.78084
      H   49    0.21273      0.00000     0.78603    0.00123     0.78727
      H   50    0.22323      0.00000     0.77583    0.00094     0.77677
      H   51    0.21760      0.00000     0.78126    0.00114     0.78240
      H   52    0.20853      0.00000     0.78983    0.00164     0.79147
      H   53    0.22007      0.00000     0.77860    0.00133     0.77993
      H   54    0.22012      0.00000     0.77891    0.00096     0.77988
      H   55    0.21180      0.00000     0.78667    0.00154     0.78820
      H   56    0.21365      0.00000     0.78518    0.00117     0.78635
      H   57    0.22193      0.00000     0.77709    0.00098     0.77807
      H   58    0.21935      0.00000     0.77959    0.00105     0.78065
 =======================================================================
   * Total *   -0.00000     67.96903   149.35290    0.67807   218.00000

                                 Natural Population      
 --------------------------------------------------------
   Effective Core            10.00000
   Core                      57.96903 ( 99.9466% of  58)
   Valence                  149.35290 ( 99.5686% of 150)
   Natural Minimal Basis    217.32193 ( 99.6890% of 218)
   Natural Rydberg Basis      0.67807 (  0.3110% of 218)
 --------------------------------------------------------

    Atom  No          Natural Electron Configuration
 ----------------------------------------------------------------------------
      C    1      [core]2S( 1.12)2p( 3.50)3d( 0.01)
      C    2      [core]2S( 1.01)2p( 3.21)3p( 0.01)
      C    3      [core]2S( 1.12)2p( 3.50)3d( 0.01)
      C    4      [core]2S( 0.98)2p( 3.03)3p( 0.01)
      C    5      [core]2S( 1.01)2p( 3.21)3p( 0.01)
      C    6      [core]2S( 1.12)2p( 3.51)3d( 0.01)
      C    7      [core]2S( 1.12)2p( 3.50)3d( 0.01)
      N    8      [core]2S( 1.21)2p( 4.13)3p( 0.01)3d( 0.01)
      C    9      [core]2S( 0.96)2p( 3.13)3p( 0.01)
      C   10      [core]2S( 0.96)2p( 3.13)3p( 0.01)
      N   11      [core]2S( 1.21)2p( 4.13)3p( 0.01)3d( 0.01)
      C   12      [core]2S( 0.98)2p( 3.03)3p( 0.01)
      C   13      [core]2S( 1.01)2p( 3.21)3p( 0.01)
      C   14      [core]2S( 1.12)2p( 3.50)3d( 0.01)
      C   15      [core]2S( 1.12)2p( 3.51)3d( 0.01)
      C   16      [core]2S( 1.01)2p( 3.21)3p( 0.01)
      C   17      [core]2S( 1.12)2p( 3.50)3d( 0.01)
      C   18      [core]2S( 1.12)2p( 3.50)3d( 0.01)
      C   19      [core]2S( 1.04)2p( 2.58)3S( 0.01)3p( 0.02)
     Ni   20      [core]4S( 0.45)3d( 9.11)4p( 1.53)4d( 0.01)
      C   21      [core]2S( 1.23)2p( 1.98)3p( 0.01)4S( 0.04)4p( 0.01)
      O   22      [core]2S( 1.71)2p( 4.77)3d( 0.03)
      C   23      [core]2S( 1.23)2p( 1.99)4S( 0.04)4p( 0.01)
      O   24      [core]2S( 1.71)2p( 4.77)3d( 0.03)
      C   25      [core]2S( 1.23)2p( 1.99)4S( 0.04)4p( 0.01)
      O   26      [core]2S( 1.71)2p( 4.77)3d( 0.03)
      H   27            1S( 0.78)
      H   28            1S( 0.79)
      H   29            1S( 0.78)
      H   30            1S( 0.79)
      H   31            1S( 0.78)
      H   32            1S( 0.79)
      H   33            1S( 0.78)
      H   34            1S( 0.75)
      H   35            1S( 0.78)
      H   36            1S( 0.79)
      H   37            1S( 0.78)
      H   38            1S( 0.78)
      H   39            1S( 0.79)
      H   40            1S( 0.78)
      H   41            1S( 0.78)
      H   42            1S( 0.74)
      H   43            1S( 0.74)
      H   44            1S( 0.75)
      H   45            1S( 0.78)
      H   46            1S( 0.78)
      H   47            1S( 0.79)
      H   48            1S( 0.78)
      H   49            1S( 0.79)
      H   50            1S( 0.78)
      H   51            1S( 0.78)
      H   52            1S( 0.79)
      H   53            1S( 0.78)
      H   54            1S( 0.78)
      H   55            1S( 0.79)
      H   56            1S( 0.79)
      H   57            1S( 0.78)
      H   58            1S( 0.78)


 NATURAL BOND ORBITAL ANALYSIS:

                       Occupancies       Lewis Structure    Low   High
           Occ.    -------------------  -----------------   occ   occ
  Cycle   Thresh.   Lewis   Non-Lewis     CR  BD  3C  LP    (L)   (NL)   Dev
 =============================================================================
   1(1)    1.90   211.99761   6.00239     29  66   0   9    10     14    0.65
   2(2)    1.90   211.99761   6.00239     29  66   0   9    10     14    0.65
   3(1)    1.80   214.25403   3.74597     29  67   0   8     3     11    0.26
   4(2)    1.80   213.60103   4.39897     29  67   0   8     2     12    0.65
   5(3)    1.80   214.04218   3.95782     29  66   0   9     2     12    0.26
   6(4)    1.80   214.04218   3.95782     29  66   0   9     2     12    0.26
   7(5)    1.80   213.60103   4.39897     29  67   0   8     2     12    0.65
   8(6)    1.80   214.04218   3.95782     29  66   0   9     2     12    0.26
   9(7)    1.80   214.04218   3.95782     29  66   0   9     2     12    0.26
  10(8)    1.80   213.60103   4.39897     29  67   0   8     2     12    0.65
  11(9)    1.80   214.04218   3.95782     29  66   0   9     2     12    0.26
  12(1)    1.70   215.07576   2.92424     29  66   0   9     1      8    0.26
  13(2)    1.70   214.55673   3.44327     29  66   0   9     1      8    0.65
  14(3)    1.70   215.07576   2.92424     29  66   0   9     1      8    0.26
  15(1)    1.60   215.07576   2.92424     29  66   0   9     1      8    0.26
  16(2)    1.60   214.55673   3.44327     29  66   0   9     1      8    0.65
  17(3)    1.60   215.07576   2.92424     29  66   0   9     1      8    0.26
  18(1)    1.50   210.95612   7.04388     29  59   0  16     1     10    1.13
  19(2)    1.50   212.12030   5.87970     29  59   0  16     0      8    1.10
  20(3)    1.50   212.12030   5.87970     29  59   0  16     0      8    1.10
  21(1)    1.70   215.07576   2.92424     29  66   0   9     1      8    0.26
 -----------------------------------------------------------------------------

 Structure accepted: RESONANCE keyword permits strongly delocalized structure

 WARNING:  4 low occupancy (<1.9990e) core orbitals found on Ni   20

 --------------------------------------------------------
   Effective Core           10.00000
   Core                     57.96894 ( 99.946% of  58)
   Valence Lewis           147.10682 ( 98.071% of 150)
  ==================       ============================
   Total Lewis             215.07576 ( 98.659% of 218)
  -----------------------------------------------------
   Valence non-Lewis         2.56567 (  1.177% of 218)
   Rydberg non-Lewis         0.35857 (  0.164% of 218)
  ==================       ============================
   Total non-Lewis           2.92424 (  1.341% of 218)
 --------------------------------------------------------


       (Occupancy)   Bond orbital/ Coefficients/ Hybrids
 ---------------------------------------------------------------------------------
     1. (1.98147) BD ( 1) C   1 - C   2  
                ( 49.18%)   0.7013* C   1 s( 29.64%)p 2.37( 70.24%)d 0.00(  0.11%)
                                                  f 0.00(  0.01%)
                                           -0.0003 -0.5444 -0.0033  0.0049  0.0002
                                            0.7941  0.0046 -0.0123  0.2632  0.0030
                                            0.0026 -0.0470 -0.0029 -0.0053 -0.0148
                                           -0.0026  0.0037 -0.0006  0.0006 -0.0001
                                           -0.0258 -0.0022  0.0147  0.0018 -0.0020
                                           -0.0072  0.0010 -0.0039 -0.0019  0.0056
                                            0.0052
                ( 50.82%)   0.7129* C   2 s( 26.60%)p 2.76( 73.34%)d 0.00(  0.06%)
                                                  f 0.00(  0.00%)
                                            0.0001 -0.5155  0.0157 -0.0025  0.0001
                                           -0.8139 -0.0085 -0.0073 -0.2559  0.0045
                                            0.0013  0.0728 -0.0048 -0.0026 -0.0123
                                           -0.0028  0.0077 -0.0005  0.0057 -0.0005
                                           -0.0126 -0.0038  0.0122  0.0033  0.0019
                                            0.0028 -0.0024  0.0009  0.0014 -0.0001
                                           -0.0045
     2. (1.98696) BD ( 1) C   1 - H  27  
                ( 61.09%)   0.7816* C   1 s( 23.21%)p 3.30( 76.63%)d 0.01(  0.15%)
                                                  f 0.00(  0.01%)
                                           -0.0001  0.4817  0.0003  0.0030 -0.0000
                                            0.3859  0.0025  0.0027 -0.0300  0.0015
                                           -0.0008  0.7851 -0.0072  0.0026 -0.0056
                                            0.0015  0.0214  0.0014 -0.0033  0.0005
                                           -0.0011  0.0020  0.0318 -0.0012  0.0038
                                            0.0042 -0.0023  0.0041  0.0023  0.0003
                                           -0.0018
                ( 38.91%)   0.6238* H  27 s( 99.97%)p 0.00(  0.03%)
                                            0.9998  0.0012  0.0001 -0.0084  0.0003
                                           -0.0152
     3. (1.98842) BD ( 1) C   1 - H  28  
                ( 60.80%)   0.7798* C   1 s( 23.31%)p 3.28( 76.54%)d 0.01(  0.14%)
                                                  f 0.00(  0.01%)
                                           -0.0000  0.4828 -0.0039  0.0005  0.0002
                                            0.0393  0.0072  0.0029  0.8265  0.0000
                                            0.0039 -0.2839 -0.0004  0.0005 -0.0048
                                            0.0021  0.0009 -0.0002 -0.0179 -0.0013
                                           -0.0310 -0.0002 -0.0091 -0.0013  0.0045
                                            0.0025 -0.0027  0.0039  0.0009 -0.0010
                                           -0.0030
                ( 39.20%)   0.6261* H  28 s( 99.97%)p 0.00(  0.03%)
                                            0.9998  0.0020 -0.0001 -0.0024 -0.0164
                                            0.0051
     4. (1.98795) BD ( 1) C   1 - H  29  
                ( 60.97%)   0.7808* C   1 s( 23.79%)p 3.20( 76.06%)d 0.01(  0.14%)
                                                  f 0.00(  0.01%)
                                           -0.0001  0.4877  0.0011  0.0009  0.0001
                                            0.4653  0.0038  0.0031 -0.4949  0.0038
                                           -0.0014 -0.5469  0.0017  0.0014 -0.0214
                                            0.0006 -0.0163 -0.0023  0.0222  0.0013
                                           -0.0099  0.0024  0.0095 -0.0025  0.0046
                                            0.0033 -0.0026  0.0021  0.0040  0.0000
                                           -0.0028
                ( 39.03%)   0.6248* H  29 s( 99.97%)p 0.00(  0.03%)
                                            0.9998  0.0011 -0.0001 -0.0103  0.0091
                                            0.0110
     5. (1.98398) BD ( 1) C   2 - C   3  
                ( 50.88%)   0.7133* C   2 s( 26.92%)p 2.71( 73.01%)d 0.00(  0.06%)
                                                  f 0.00(  0.00%)
                                           -0.0000  0.5186 -0.0146  0.0035 -0.0001
                                           -0.4074 -0.0005 -0.0005  0.4262 -0.0035
                                           -0.0003  0.6183  0.0105  0.0105 -0.0126
                                           -0.0015 -0.0162 -0.0024  0.0131  0.0034
                                           -0.0032 -0.0007  0.0014  0.0020 -0.0012
                                           -0.0016  0.0019 -0.0026 -0.0010  0.0024
                                            0.0038
                ( 49.12%)   0.7008* C   3 s( 29.51%)p 2.38( 70.36%)d 0.00(  0.11%)
                                                  f 0.00(  0.01%)
                                            0.0002  0.5432 -0.0008  0.0038 -0.0010
                                            0.3818  0.0030  0.0015 -0.4227 -0.0033
                                           -0.0049 -0.6157 -0.0002  0.0080 -0.0130
                                           -0.0012 -0.0199 -0.0013  0.0204  0.0030
                                            0.0026 -0.0014  0.0119  0.0017  0.0016
                                            0.0084 -0.0053  0.0008  0.0038 -0.0014
                                           -0.0049
     6. (1.97173) BD ( 1) C   2 - C   4  
                ( 49.37%)   0.7027* C   2 s( 26.18%)p 2.82( 73.69%)d 0.00(  0.12%)
                                                  f 0.00(  0.01%)
                                            0.0002  0.5115  0.0047 -0.0096 -0.0000
                                           -0.4128  0.0020  0.0044  0.0706 -0.0007
                                           -0.0011 -0.7493  0.0032  0.0064 -0.0008
                                           -0.0008  0.0241  0.0035 -0.0002 -0.0025
                                            0.0098 -0.0015  0.0221  0.0021 -0.0025
                                           -0.0081  0.0022 -0.0036 -0.0011  0.0012
                                            0.0031
                ( 50.63%)   0.7115* C   4 s( 27.90%)p 2.58( 72.03%)d 0.00(  0.06%)
                                                  f 0.00(  0.01%)
                                           -0.0001  0.5282  0.0013  0.0040  0.0002
                                            0.4105 -0.0022  0.0031 -0.1157  0.0051
                                            0.0003  0.7337 -0.0060  0.0052  0.0011
                                           -0.0008  0.0158  0.0021 -0.0035 -0.0003
                                            0.0047 -0.0007  0.0161  0.0010  0.0010
                                            0.0055 -0.0020  0.0020  0.0024 -0.0019
                                           -0.0044
     7. (1.96471) BD ( 1) C   2 - H  30  
                ( 60.62%)   0.7786* C   2 s( 20.37%)p 3.90( 79.49%)d 0.01(  0.13%)
                                                  f 0.00(  0.01%)
                                            0.0001 -0.4507 -0.0233 -0.0028 -0.0002
                                           -0.0064 -0.0009 -0.0011  0.8633 -0.0134
                                           -0.0050 -0.2221  0.0023 -0.0010 -0.0030
                                            0.0013 -0.0000 -0.0003  0.0125  0.0012
                                            0.0284  0.0003  0.0181 -0.0017  0.0018
                                            0.0030 -0.0017  0.0034  0.0018 -0.0009
                                           -0.0045
                ( 39.38%)   0.6275* H  30 s( 99.97%)p 0.00(  0.03%)
                                           -0.9998 -0.0034 -0.0006 -0.0002 -0.0181
                                            0.0038
     8. (1.98743) BD ( 1) C   3 - H  31  
                ( 61.02%)   0.7812* C   3 s( 23.69%)p 3.22( 76.16%)d 0.01(  0.15%)
                                                  f 0.00(  0.01%)
                                            0.0001 -0.4867 -0.0047  0.0033 -0.0000
                                            0.8261 -0.0031  0.0049  0.2637 -0.0048
                                            0.0001 -0.0972 -0.0007 -0.0079 -0.0221
                                           -0.0000 -0.0041  0.0030  0.0081 -0.0027
                                           -0.0238 -0.0014  0.0181  0.0014 -0.0010
                                           -0.0052 -0.0003 -0.0042  0.0013  0.0029
                                            0.0055
                ( 38.98%)   0.6243* H  31 s( 99.97%)p 0.00(  0.03%)
                                           -0.9999 -0.0014 -0.0000 -0.0162 -0.0040
                                            0.0026
     9. (1.98857) BD ( 1) C   3 - H  32  
                ( 60.75%)   0.7794* C   3 s( 23.45%)p 3.26( 76.41%)d 0.01(  0.14%)
                                                  f 0.00(  0.00%)
                                           -0.0000  0.4841 -0.0116  0.0028  0.0005
                                           -0.0087 -0.0062 -0.0012  0.8576  0.0092
                                           -0.0120 -0.1676  0.0077  0.0041  0.0002
                                           -0.0003 -0.0023  0.0018 -0.0135 -0.0005
                                           -0.0313 -0.0007 -0.0138 -0.0019  0.0018
                                            0.0028 -0.0027  0.0028  0.0008 -0.0009
                                           -0.0043
                ( 39.25%)   0.6265* H  32 s( 99.98%)p 0.00(  0.02%)
                                            0.9999  0.0023  0.0004  0.0007 -0.0131
                                            0.0009
    10. (1.98707) BD ( 1) C   3 - H  33  
                ( 60.97%)   0.7808* C   3 s( 23.30%)p 3.29( 76.54%)d 0.01(  0.16%)
                                                  f 0.00(  0.01%)
                                           -0.0001  0.4826  0.0077 -0.0023  0.0004
                                            0.4123 -0.0075  0.0022 -0.1190  0.0030
                                           -0.0006  0.7623 -0.0042  0.0090 -0.0028
                                           -0.0004  0.0315 -0.0010 -0.0150  0.0020
                                            0.0084 -0.0007  0.0158  0.0028  0.0029
                                            0.0050 -0.0007  0.0032 -0.0014 -0.0010
                                           -0.0047
                ( 39.03%)   0.6248* H  33 s( 99.97%)p 0.00(  0.03%)
                                            0.9998  0.0009  0.0001 -0.0078  0.0017
                                           -0.0156
    11. (1.97119) BD ( 1) C   4 - C   5  
                ( 50.64%)   0.7116* C   4 s( 27.82%)p 2.59( 72.11%)d 0.00(  0.06%)
                                                  f 0.00(  0.01%)
                                           -0.0001  0.5275  0.0031  0.0036  0.0003
                                            0.3657 -0.0002  0.0055 -0.4080  0.0090
                                            0.0023 -0.6486  0.0039 -0.0071 -0.0075
                                           -0.0000 -0.0126 -0.0014  0.0172 -0.0003
                                           -0.0035 -0.0000  0.0093  0.0016  0.0014
                                            0.0047 -0.0025  0.0031  0.0008 -0.0015
                                           -0.0034
                ( 49.36%)   0.7025* C   5 s( 26.32%)p 2.79( 73.55%)d 0.00(  0.12%)
                                                  f 0.00(  0.01%)
                                            0.0002  0.5130  0.0040 -0.0097  0.0001
                                           -0.3997  0.0035  0.0041  0.3303  0.0036
                                           -0.0028  0.6830 -0.0035 -0.0062 -0.0118
                                            0.0000 -0.0193 -0.0036  0.0186  0.0033
                                            0.0015  0.0002  0.0166  0.0007 -0.0008
                                           -0.0072  0.0052 -0.0009 -0.0035 -0.0004
                                            0.0035
    12. (1.98371) BD ( 1) C   4 - N   8  
                ( 36.61%)   0.6050* C   4 s( 22.24%)p 3.49( 77.72%)d 0.00(  0.03%)
                                                  f 0.00(  0.01%)
                                           -0.0001  0.4712  0.0170  0.0100 -0.0009
                                           -0.8339 -0.0149 -0.0116 -0.2726 -0.0052
                                           -0.0052  0.0843  0.0027  0.0002  0.0005
                                            0.0080  0.0002 -0.0018 -0.0009 -0.0013
                                            0.0056  0.0116 -0.0027 -0.0085  0.0025
                                            0.0007 -0.0052  0.0013  0.0005  0.0049
                                            0.0025
                ( 63.39%)   0.7962* N   8 s( 33.15%)p 2.01( 66.72%)d 0.00(  0.11%)
                                                  f 0.00(  0.02%)
                                           -0.0001  0.5757  0.0068  0.0012 -0.0006
                                            0.7843  0.0146 -0.0088  0.2167 -0.0006
                                           -0.0020 -0.0696  0.0001  0.0009  0.0132
                                            0.0008 -0.0044 -0.0003 -0.0013  0.0009
                                            0.0247  0.0013 -0.0162  0.0007  0.0020
                                           -0.0082 -0.0022 -0.0012 -0.0017  0.0067
                                            0.0057
    13. (1.96029) BD ( 1) C   4 - H  34  
                ( 62.29%)   0.7892* C   4 s( 22.06%)p 3.53( 77.85%)d 0.00(  0.08%)
                                                  f 0.00(  0.01%)
                                           -0.0002  0.4693 -0.0099 -0.0153  0.0001
                                           -0.0356  0.0038  0.0062  0.8625 -0.0066
                                           -0.0148 -0.1815 -0.0003  0.0026 -0.0067
                                            0.0006  0.0020 -0.0008 -0.0099 -0.0018
                                           -0.0226 -0.0040 -0.0126 -0.0028  0.0008
                                            0.0061 -0.0020  0.0020  0.0016 -0.0018
                                           -0.0039
                ( 37.71%)   0.6141* H  34 s( 99.94%)p 0.00(  0.06%)
                                            0.9997 -0.0046  0.0013  0.0011 -0.0238
                                            0.0048
    14. (1.98652) BD ( 1) C   5 - C   6  
                ( 50.43%)   0.7101* C   5 s( 26.93%)p 2.71( 73.00%)d 0.00(  0.06%)
                                                  f 0.00(  0.00%)
                                            0.0000  0.5187 -0.0144  0.0036 -0.0002
                                            0.1711  0.0098  0.0069 -0.8294 -0.0094
                                           -0.0072  0.1123 -0.0034 -0.0013 -0.0028
                                           -0.0028  0.0010 -0.0008 -0.0090 -0.0008
                                           -0.0174 -0.0049 -0.0141 -0.0030  0.0002
                                           -0.0033  0.0014 -0.0002  0.0006 -0.0007
                                            0.0044
                ( 49.57%)   0.7041* C   6 s( 29.60%)p 2.37( 70.28%)d 0.00(  0.11%)
                                                  f 0.00(  0.01%)
                                            0.0002  0.5440  0.0027 -0.0053 -0.0004
                                           -0.1845  0.0007  0.0104  0.8148  0.0049
                                           -0.0075 -0.0685 -0.0021 -0.0028 -0.0152
                                           -0.0010  0.0003  0.0001 -0.0064  0.0012
                                           -0.0245 -0.0038 -0.0150 -0.0012  0.0021
                                            0.0065 -0.0043  0.0016  0.0024  0.0047
                                           -0.0058
    15. (1.98442) BD ( 1) C   5 - C   7  
                ( 50.86%)   0.7131* C   5 s( 27.02%)p 2.70( 72.92%)d 0.00(  0.06%)
                                                  f 0.00(  0.00%)
                                           -0.0000  0.5196 -0.0145  0.0029 -0.0001
                                           -0.4445  0.0041  0.0016  0.1365  0.0044
                                            0.0021 -0.7161 -0.0099 -0.0093 -0.0023
                                            0.0004  0.0173  0.0047 -0.0086 -0.0005
                                            0.0088  0.0020  0.0086  0.0037 -0.0001
                                           -0.0034 -0.0004 -0.0018 -0.0013 -0.0014
                                            0.0037
                ( 49.14%)   0.7010* C   7 s( 29.44%)p 2.39( 70.43%)d 0.00(  0.12%)
                                                  f 0.00(  0.01%)
                                            0.0002  0.5425  0.0055 -0.0044 -0.0004
                                            0.4211  0.0056  0.0037 -0.1257 -0.0016
                                            0.0038  0.7148  0.0031 -0.0122 -0.0076
                                            0.0003  0.0236  0.0029 -0.0103  0.0010
                                            0.0053  0.0007  0.0212  0.0026  0.0027
                                            0.0086 -0.0055  0.0016 -0.0010  0.0002
                                           -0.0048
    16. (1.95839) BD ( 1) C   5 - H  35  
                ( 60.93%)   0.7806* C   5 s( 19.79%)p 4.05( 80.07%)d 0.01(  0.13%)
                                                  f 0.00(  0.01%)
                                           -0.0003  0.4442  0.0233  0.0026  0.0002
                                            0.7816 -0.0147 -0.0038  0.4275 -0.0096
                                           -0.0044 -0.0821  0.0021 -0.0015  0.0280
                                           -0.0000  0.0001 -0.0018 -0.0010 -0.0008
                                            0.0137  0.0002 -0.0188  0.0004 -0.0001
                                           -0.0044  0.0016 -0.0029 -0.0010 -0.0006
                                            0.0050
                ( 39.07%)   0.6251* H  35 s( 99.96%)p 0.00(  0.04%)
                                            0.9998  0.0026  0.0006 -0.0157 -0.0102
                                            0.0004
    17. (1.98795) BD ( 1) C   6 - H  36  
                ( 60.77%)   0.7796* C   6 s( 23.59%)p 3.23( 76.26%)d 0.01(  0.14%)
                                                  f 0.00(  0.01%)
                                            0.0000  0.4857 -0.0028 -0.0006  0.0003
                                           -0.7240  0.0021  0.0004 -0.4882 -0.0064
                                           -0.0051 -0.0097  0.0020 -0.0025  0.0292
                                            0.0008 -0.0001  0.0004  0.0018 -0.0007
                                            0.0192 -0.0008 -0.0138 -0.0026  0.0013
                                            0.0066  0.0016 -0.0005  0.0007  0.0010
                                           -0.0042
                ( 39.23%)   0.6263* H  36 s( 99.97%)p 0.00(  0.03%)
                                            0.9999  0.0022  0.0001  0.0130  0.0100
                                           -0.0004
    18. (1.98801) BD ( 1) C   6 - H  37  
                ( 60.90%)   0.7804* C   6 s( 23.75%)p 3.20( 76.10%)d 0.01(  0.14%)
                                                  f 0.00(  0.01%)
                                           -0.0001  0.4874  0.0011  0.0014  0.0001
                                            0.4285  0.0002  0.0026 -0.1654 -0.0044
                                           -0.0027  0.7416 -0.0022 -0.0003 -0.0001
                                           -0.0021  0.0231  0.0026 -0.0054 -0.0014
                                            0.0138 -0.0027  0.0252 -0.0003  0.0009
                                            0.0075 -0.0018  0.0001 -0.0010 -0.0007
                                           -0.0029
                ( 39.10%)   0.6253* H  37 s( 99.97%)p 0.00(  0.03%)
                                            0.9998  0.0013 -0.0000 -0.0091  0.0041
                                           -0.0144
    19. (1.98578) BD ( 1) C   6 - H  38  
                ( 61.13%)   0.7818* C   6 s( 23.00%)p 3.34( 76.83%)d 0.01(  0.16%)
                                                  f 0.00(  0.01%)
                                           -0.0001  0.4796 -0.0002  0.0041  0.0000
                                            0.5065 -0.0025  0.0027 -0.2608 -0.0022
                                           -0.0023 -0.6661  0.0071 -0.0021 -0.0061
                                           -0.0013 -0.0277 -0.0006  0.0123  0.0009
                                            0.0142 -0.0018  0.0203 -0.0020  0.0014
                                            0.0069 -0.0008 -0.0003  0.0022 -0.0002
                                           -0.0032
                ( 38.87%)   0.6235* H  38 s( 99.97%)p 0.00(  0.03%)
                                            0.9999  0.0011  0.0001 -0.0096  0.0058
                                            0.0125
    20. (1.98829) BD ( 1) C   7 - H  39  
                ( 60.78%)   0.7796* C   7 s( 23.44%)p 3.26( 76.41%)d 0.01(  0.14%)
                                                  f 0.00(  0.01%)
                                            0.0000 -0.4841  0.0042  0.0010 -0.0002
                                            0.7778  0.0039  0.0016  0.3982 -0.0056
                                            0.0053 -0.0217  0.0047  0.0058 -0.0256
                                           -0.0009  0.0096 -0.0016 -0.0001  0.0013
                                           -0.0154 -0.0022  0.0194  0.0011  0.0006
                                           -0.0047  0.0007  0.0010 -0.0021  0.0006
                                            0.0069
                ( 39.22%)   0.6263* H  39 s( 99.97%)p 0.00(  0.03%)
                                           -0.9998 -0.0024 -0.0002 -0.0159 -0.0065
                                           -0.0012
    21. (1.98644) BD ( 1) C   7 - H  40  
                ( 60.96%)   0.7808* C   7 s( 23.26%)p 3.29( 76.57%)d 0.01(  0.16%)
                                                  f 0.00(  0.01%)
                                            0.0001 -0.4823  0.0002 -0.0046  0.0000
                                           -0.4444  0.0056 -0.0001  0.3189 -0.0040
                                           -0.0003  0.6830 -0.0011  0.0030  0.0132
                                           -0.0004  0.0314 -0.0013 -0.0195  0.0002
                                           -0.0035 -0.0000 -0.0049 -0.0033  0.0009
                                           -0.0039  0.0028  0.0001 -0.0034 -0.0003
                                            0.0056
                ( 39.04%)   0.6248* H  40 s( 99.97%)p 0.00(  0.03%)
                                           -0.9998 -0.0010 -0.0001  0.0083 -0.0061
                                           -0.0142
    22. (1.98611) BD ( 1) C   7 - H  41  
                ( 60.96%)   0.7808* C   7 s( 23.80%)p 3.20( 76.05%)d 0.01(  0.15%)
                                                  f 0.00(  0.01%)
                                           -0.0001  0.4878  0.0001  0.0004  0.0001
                                           -0.1355 -0.0045  0.0045  0.8499 -0.0031
                                            0.0012 -0.1403 -0.0018 -0.0064 -0.0074
                                           -0.0009 -0.0068  0.0028 -0.0037 -0.0012
                                           -0.0302 -0.0010 -0.0204 -0.0003  0.0007
                                            0.0028 -0.0042  0.0015  0.0038  0.0024
                                           -0.0069
                ( 39.04%)   0.6248* H  41 s( 99.97%)p 0.00(  0.03%)
                                            0.9998  0.0014 -0.0002  0.0040 -0.0168
                                            0.0048
    23. (1.98137) BD ( 1) N   8 - C   9  
                ( 62.00%)   0.7874* N   8 s( 31.08%)p 2.21( 68.67%)d 0.01(  0.23%)
                                                  f 0.00(  0.01%)
                                            0.0001 -0.5575  0.0031  0.0007 -0.0004
                                            0.1740  0.0173 -0.0036  0.7739 -0.0139
                                           -0.0042 -0.2386  0.0034  0.0014 -0.0223
                                            0.0003  0.0073 -0.0002  0.0235 -0.0012
                                            0.0260  0.0023  0.0231 -0.0033  0.0057
                                           -0.0015 -0.0051  0.0057 -0.0029 -0.0042
                                           -0.0043
                ( 38.00%)   0.6164* C   9 s( 28.60%)p 2.49( 71.35%)d 0.00(  0.04%)
                                                  f 0.00(  0.00%)
                                            0.0001 -0.5347 -0.0036 -0.0081  0.0021
                                           -0.3179 -0.0294 -0.0044 -0.7410 -0.0201
                                           -0.0096  0.2488  0.0070  0.0039  0.0035
                                           -0.0117 -0.0012  0.0039  0.0028  0.0067
                                           -0.0041  0.0131  0.0058  0.0032  0.0016
                                           -0.0011 -0.0014  0.0012 -0.0000  0.0012
                                           -0.0006
    24. (1.97784) BD ( 1) N   8 - C  19  
                ( 65.39%)   0.8086* N   8 s( 35.55%)p 1.81( 64.23%)d 0.01(  0.21%)
                                                  f 0.00(  0.01%)
                                           -0.0001  0.5962 -0.0082 -0.0009  0.0002
                                           -0.5939 -0.0102  0.0080  0.5118 -0.0159
                                           -0.0031 -0.1648  0.0053  0.0007 -0.0307
                                           -0.0019  0.0092  0.0007 -0.0106  0.0017
                                            0.0161 -0.0017 -0.0267  0.0036  0.0031
                                            0.0053 -0.0033 -0.0001  0.0041  0.0030
                                            0.0061
                ( 34.61%)   0.5883* C  19 s( 27.64%)p 2.62( 72.30%)d 0.00(  0.05%)
                                                  f 0.00(  0.00%)
                                           -0.0004  0.5232  0.0513  0.0036 -0.0001
                                            0.7059  0.0330  0.0162 -0.4543 -0.0078
                                           -0.0049  0.1301 -0.0004  0.0029  0.0136
                                           -0.0121 -0.0030  0.0035 -0.0057 -0.0021
                                           -0.0073  0.0038 -0.0058 -0.0058  0.0002
                                            0.0038 -0.0002  0.0003  0.0031  0.0020
                                           -0.0007
    25. (1.87100) BD ( 2) N   8 - C  19  
                ( 76.49%)   0.8746* N   8 s(  0.00%)p 1.00( 99.93%)d 0.00(  0.04%)
                                                  f 0.00(  0.02%)
                                           -0.0000  0.0055  0.0013  0.0005  0.0001
                                           -0.0019 -0.0004  0.0005  0.2984  0.0002
                                            0.0047  0.9539  0.0013  0.0150 -0.0058
                                            0.0008 -0.0190  0.0026  0.0029  0.0005
                                            0.0002 -0.0004 -0.0018 -0.0007 -0.0113
                                            0.0009 -0.0089  0.0038 -0.0018  0.0008
                                            0.0011
                ( 23.51%)   0.4849* C  19 s(  0.02%)p99.99( 99.78%)d12.85(  0.20%)
                                                  f 0.21(  0.00%)
                                           -0.0000 -0.0118 -0.0034  0.0024 -0.0000
                                            0.0027  0.0009  0.0003  0.2657  0.0059
                                           -0.0029  0.9621  0.0343 -0.0188  0.0040
                                            0.0065  0.0118  0.0211 -0.0217 -0.0211
                                            0.0067  0.0073  0.0143  0.0117 -0.0037
                                           -0.0001 -0.0041 -0.0014  0.0005 -0.0001
                                           -0.0007
    26. (1.97929) BD ( 1) C   9 - C  10  
                ( 50.00%)   0.7071* C   9 s( 36.96%)p 1.70( 62.90%)d 0.00(  0.13%)
                                                  f 0.00(  0.01%)
                                           -0.0000  0.6079  0.0076  0.0032  0.0006
                                           -0.7864 -0.0198  0.0055 -0.0902 -0.0318
                                           -0.0085  0.0285  0.0105  0.0023 -0.0068
                                            0.0044  0.0021 -0.0013 -0.0049  0.0031
                                            0.0256  0.0061 -0.0227  0.0016  0.0008
                                            0.0056 -0.0006  0.0011  0.0007 -0.0056
                                           -0.0017
                ( 50.00%)   0.7071* C  10 s( 36.96%)p 1.70( 62.90%)d 0.00(  0.13%)
                                                  f 0.00(  0.01%)
                                           -0.0000  0.6079  0.0076  0.0032  0.0006
                                            0.7864  0.0198 -0.0055 -0.0902 -0.0318
                                           -0.0085  0.0285  0.0105  0.0023  0.0068
                                           -0.0044 -0.0021  0.0013 -0.0049  0.0031
                                            0.0256  0.0061 -0.0227  0.0016  0.0008
                                           -0.0056 -0.0006  0.0011 -0.0007  0.0056
                                           -0.0017
    27. (1.88213) BD ( 2) C   9 - C  10  
                ( 50.00%)   0.7071* C   9 s(  0.00%)p 1.00( 99.92%)d 0.00(  0.05%)
                                                  f 0.00(  0.03%)
                                           -0.0000 -0.0015  0.0003  0.0000 -0.0000
                                           -0.0036 -0.0009  0.0007  0.3205 -0.0088
                                            0.0009  0.9464 -0.0260  0.0037 -0.0066
                                           -0.0020 -0.0207 -0.0052  0.0047 -0.0011
                                           -0.0017  0.0003 -0.0027  0.0003 -0.0111
                                            0.0026 -0.0078  0.0067 -0.0041  0.0019
                                            0.0023
                ( 50.00%)   0.7071* C  10 s(  0.00%)p 1.00( 99.92%)d 0.00(  0.05%)
                                                  f 0.00(  0.03%)
                                           -0.0000 -0.0015  0.0003  0.0000 -0.0000
                                            0.0036  0.0009 -0.0007  0.3205 -0.0088
                                            0.0009  0.9464 -0.0260  0.0037  0.0066
                                            0.0020  0.0207  0.0052  0.0047 -0.0011
                                           -0.0017  0.0003 -0.0027  0.0003 -0.0111
                                           -0.0026 -0.0078  0.0067  0.0041 -0.0019
                                            0.0023
    28. (1.98047) BD ( 1) C   9 - H  42  
                ( 62.82%)   0.7926* C   9 s( 34.33%)p 1.91( 65.61%)d 0.00(  0.05%)
                                                  f 0.00(  0.01%)
                                           -0.0004  0.5859 -0.0051 -0.0065  0.0007
                                            0.5271 -0.0127 -0.0107 -0.5814  0.0046
                                           -0.0001  0.1998 -0.0014  0.0009 -0.0175
                                           -0.0057  0.0062  0.0018 -0.0071 -0.0007
                                           -0.0030 -0.0005 -0.0085 -0.0007 -0.0038
                                           -0.0044  0.0034 -0.0008 -0.0048 -0.0045
                                           -0.0040
                ( 37.18%)   0.6097* H  42 s( 99.94%)p 0.00(  0.06%)
                                            0.9997  0.0016 -0.0000 -0.0148  0.0172
                                           -0.0059
    29. (1.98137) BD ( 1) C  10 - N  11  
                ( 38.00%)   0.6164* C  10 s( 28.60%)p 2.49( 71.35%)d 0.00(  0.04%)
                                                  f 0.00(  0.00%)
                                            0.0001 -0.5347 -0.0036 -0.0081  0.0021
                                            0.3179  0.0294  0.0044 -0.7410 -0.0201
                                           -0.0096  0.2488  0.0070  0.0039 -0.0035
                                            0.0117  0.0012 -0.0039  0.0028  0.0067
                                           -0.0041  0.0131  0.0058  0.0032  0.0016
                                            0.0011 -0.0014  0.0012  0.0000 -0.0012
                                           -0.0006
                ( 62.00%)   0.7874* N  11 s( 31.08%)p 2.21( 68.67%)d 0.01(  0.23%)
                                                  f 0.00(  0.01%)
                                            0.0001 -0.5575  0.0031  0.0007 -0.0004
                                           -0.1740 -0.0173  0.0036  0.7741 -0.0139
                                           -0.0042 -0.2382  0.0034  0.0014  0.0223
                                           -0.0003 -0.0073  0.0002  0.0235 -0.0012
                                            0.0260  0.0023  0.0231 -0.0033  0.0057
                                            0.0015 -0.0051  0.0057  0.0029  0.0042
                                           -0.0043
    30. (1.98047) BD ( 1) C  10 - H  43  
                ( 62.82%)   0.7926* C  10 s( 34.33%)p 1.91( 65.61%)d 0.00(  0.05%)
                                                  f 0.00(  0.01%)
                                            0.0004 -0.5859  0.0051  0.0065 -0.0007
                                            0.5271 -0.0127 -0.0107  0.5814 -0.0046
                                            0.0001 -0.1998  0.0014 -0.0009 -0.0175
                                           -0.0057  0.0062  0.0018  0.0071  0.0007
                                            0.0030  0.0005  0.0085  0.0007  0.0038
                                           -0.0044 -0.0034  0.0008 -0.0048 -0.0045
                                            0.0040
                ( 37.18%)   0.6097* H  43 s( 99.94%)p 0.00(  0.06%)
                                           -0.9997 -0.0016  0.0000 -0.0148 -0.0172
                                            0.0059
    31. (1.98371) BD ( 1) N  11 - C  12  
                ( 63.39%)   0.7962* N  11 s( 33.15%)p 2.01( 66.72%)d 0.00(  0.11%)
                                                  f 0.00(  0.02%)
                                            0.0001 -0.5757 -0.0068 -0.0012  0.0006
                                            0.7843  0.0146 -0.0088 -0.2166  0.0006
                                            0.0020  0.0699 -0.0001 -0.0009  0.0132
                                            0.0008 -0.0044 -0.0003  0.0013 -0.0009
                                           -0.0247 -0.0013  0.0162 -0.0007 -0.0020
                                           -0.0082  0.0022  0.0012 -0.0017  0.0067
                                           -0.0057
                ( 36.61%)   0.6050* C  12 s( 22.24%)p 3.49( 77.72%)d 0.00(  0.03%)
                                                  f 0.00(  0.01%)
                                            0.0001 -0.4712 -0.0170 -0.0100  0.0009
                                           -0.8339 -0.0149 -0.0116  0.2726  0.0052
                                            0.0052 -0.0843 -0.0027 -0.0002  0.0005
                                            0.0080  0.0002 -0.0018  0.0009  0.0013
                                           -0.0056 -0.0116  0.0027  0.0085 -0.0025
                                            0.0007  0.0052 -0.0013  0.0005  0.0049
                                           -0.0025
    32. (1.97784) BD ( 1) N  11 - C  19  
                ( 65.39%)   0.8086* N  11 s( 35.55%)p 1.81( 64.23%)d 0.01(  0.21%)
                                                  f 0.00(  0.01%)
                                           -0.0001  0.5962 -0.0082 -0.0009  0.0002
                                            0.5938  0.0102 -0.0080  0.5117 -0.0159
                                           -0.0031 -0.1651  0.0053  0.0007  0.0307
                                            0.0019 -0.0092 -0.0007 -0.0106  0.0017
                                            0.0161 -0.0017 -0.0267  0.0036  0.0031
                                           -0.0053 -0.0033 -0.0001 -0.0041 -0.0030
                                            0.0061
                ( 34.61%)   0.5883* C  19 s( 27.64%)p 2.62( 72.31%)d 0.00(  0.05%)
                                                  f 0.00(  0.00%)
                                           -0.0004  0.5232  0.0513  0.0036 -0.0001
                                           -0.7059 -0.0330 -0.0162 -0.4533 -0.0078
                                           -0.0050  0.1338 -0.0003  0.0028 -0.0136
                                            0.0121  0.0030 -0.0034 -0.0058 -0.0021
                                           -0.0072  0.0038 -0.0058 -0.0058  0.0002
                                           -0.0038 -0.0002  0.0003 -0.0031 -0.0020
                                           -0.0007
    33. (1.97119) BD ( 1) C  12 - C  13  
                ( 50.64%)   0.7116* C  12 s( 27.82%)p 2.59( 72.11%)d 0.00(  0.06%)
                                                  f 0.00(  0.01%)
                                           -0.0001  0.5275  0.0031  0.0036  0.0003
                                           -0.3657  0.0002 -0.0055 -0.4080  0.0090
                                            0.0023 -0.6486  0.0039 -0.0071  0.0075
                                            0.0000  0.0126  0.0014  0.0172 -0.0003
                                           -0.0035 -0.0000  0.0094  0.0016  0.0014
                                           -0.0047 -0.0025  0.0031 -0.0008  0.0015
                                           -0.0034
                ( 49.36%)   0.7025* C  13 s( 26.32%)p 2.79( 73.55%)d 0.00(  0.12%)
                                                  f 0.00(  0.01%)
                                            0.0002  0.5130  0.0040 -0.0097  0.0001
                                            0.3997 -0.0035 -0.0041  0.3303  0.0036
                                           -0.0028  0.6830 -0.0035 -0.0062  0.0118
                                           -0.0000  0.0193  0.0036  0.0186  0.0033
                                            0.0015  0.0002  0.0166  0.0007 -0.0008
                                            0.0072  0.0052 -0.0009  0.0035  0.0004
                                            0.0035
    34. (1.97173) BD ( 1) C  12 - C  16  
                ( 50.63%)   0.7115* C  12 s( 27.90%)p 2.58( 72.03%)d 0.00(  0.06%)
                                                  f 0.00(  0.01%)
                                           -0.0001  0.5282  0.0013  0.0040  0.0002
                                           -0.4105  0.0022 -0.0031 -0.1158  0.0051
                                            0.0003  0.7337 -0.0060  0.0052 -0.0011
                                            0.0008 -0.0158 -0.0021 -0.0035 -0.0003
                                            0.0047 -0.0007  0.0161  0.0010  0.0010
                                           -0.0055 -0.0020  0.0020 -0.0024  0.0019
                                           -0.0044
                ( 49.37%)   0.7027* C  16 s( 26.18%)p 2.82( 73.69%)d 0.00(  0.12%)
                                                  f 0.00(  0.01%)
                                            0.0002  0.5115  0.0047 -0.0096 -0.0000
                                            0.4128 -0.0020 -0.0044  0.0707 -0.0007
                                           -0.0011 -0.7493  0.0032  0.0064  0.0008
                                            0.0008 -0.0241 -0.0035 -0.0002 -0.0025
                                            0.0098 -0.0015  0.0221  0.0021 -0.0025
                                            0.0081  0.0022 -0.0036  0.0011 -0.0012
                                            0.0031
    35. (1.96029) BD ( 1) C  12 - H  44  
                ( 62.29%)   0.7892* C  12 s( 22.06%)p 3.53( 77.85%)d 0.00(  0.08%)
                                                  f 0.00(  0.01%)
                                           -0.0002  0.4693 -0.0099 -0.0153  0.0001
                                            0.0356 -0.0038 -0.0062  0.8626 -0.0066
                                           -0.0148 -0.1815 -0.0003  0.0026  0.0067
                                           -0.0006 -0.0020  0.0008 -0.0099 -0.0018
                                           -0.0226 -0.0040 -0.0126 -0.0028  0.0008
                                           -0.0061 -0.0020  0.0020 -0.0016  0.0018
                                           -0.0039
                ( 37.71%)   0.6141* H  44 s( 99.94%)p 0.00(  0.06%)
                                            0.9997 -0.0046  0.0013 -0.0011 -0.0238
                                            0.0048
    36. (1.98442) BD ( 1) C  13 - C  14  
                ( 50.86%)   0.7131* C  13 s( 27.02%)p 2.70( 72.92%)d 0.00(  0.06%)
                                                  f 0.00(  0.00%)
                                           -0.0000  0.5196 -0.0145  0.0029 -0.0001
                                            0.4445 -0.0041 -0.0016  0.1365  0.0044
                                            0.0021 -0.7160 -0.0099 -0.0093  0.0023
                                           -0.0004 -0.0173 -0.0047 -0.0086 -0.0005
                                            0.0088  0.0020  0.0086  0.0037 -0.0001
                                            0.0034 -0.0004 -0.0018  0.0013  0.0014
                                            0.0037
                ( 49.14%)   0.7010* C  14 s( 29.44%)p 2.39( 70.43%)d 0.00(  0.12%)
                                                  f 0.00(  0.01%)
                                            0.0002  0.5425  0.0055 -0.0044 -0.0004
                                           -0.4211 -0.0056 -0.0037 -0.1258 -0.0016
                                            0.0038  0.7148  0.0031 -0.0122  0.0076
                                           -0.0003 -0.0236 -0.0029 -0.0103  0.0010
                                            0.0053  0.0007  0.0212  0.0026  0.0027
                                           -0.0086 -0.0055  0.0016  0.0010 -0.0002
                                           -0.0048
    37. (1.98652) BD ( 1) C  13 - C  15  
                ( 50.43%)   0.7101* C  13 s( 26.93%)p 2.71( 73.00%)d 0.00(  0.06%)
                                                  f 0.00(  0.00%)
                                            0.0000  0.5187 -0.0144  0.0036 -0.0002
                                           -0.1711 -0.0098 -0.0069 -0.8294 -0.0094
                                           -0.0072  0.1122 -0.0034 -0.0013  0.0028
                                            0.0028 -0.0010  0.0008 -0.0090 -0.0008
                                           -0.0174 -0.0049 -0.0141 -0.0030  0.0002
                                            0.0033  0.0014 -0.0002 -0.0006  0.0007
                                            0.0044
                ( 49.57%)   0.7041* C  15 s( 29.60%)p 2.37( 70.28%)d 0.00(  0.11%)
                                                  f 0.00(  0.01%)
                                            0.0002  0.5440  0.0027 -0.0053 -0.0004
                                            0.1845 -0.0007 -0.0104  0.8148  0.0049
                                           -0.0075 -0.0684 -0.0021 -0.0028  0.0152
                                            0.0010 -0.0003 -0.0001 -0.0064  0.0012
                                           -0.0245 -0.0038 -0.0150 -0.0012  0.0021
                                           -0.0065 -0.0043  0.0016 -0.0024 -0.0047
                                           -0.0058
    38. (1.95839) BD ( 1) C  13 - H  45  
                ( 60.93%)   0.7806* C  13 s( 19.79%)p 4.05( 80.07%)d 0.01(  0.13%)
                                                  f 0.00(  0.01%)
                                            0.0003 -0.4442 -0.0233 -0.0026 -0.0002
                                            0.7816 -0.0147 -0.0038 -0.4275  0.0096
                                            0.0044  0.0821 -0.0021  0.0015  0.0280
                                           -0.0000  0.0001 -0.0018  0.0010  0.0008
                                           -0.0137 -0.0002  0.0188 -0.0004  0.0001
                                           -0.0044 -0.0016  0.0029 -0.0010 -0.0006
                                           -0.0050
                ( 39.07%)   0.6251* H  45 s( 99.96%)p 0.00(  0.04%)
                                           -0.9998 -0.0026 -0.0006 -0.0157  0.0102
                                           -0.0004
    39. (1.98644) BD ( 1) C  14 - H  46  
                ( 60.96%)   0.7808* C  14 s( 23.26%)p 3.29( 76.57%)d 0.01(  0.16%)
                                                  f 0.00(  0.01%)
                                            0.0001 -0.4823  0.0002 -0.0046  0.0000
                                            0.4444 -0.0056  0.0001  0.3188 -0.0040
                                           -0.0003  0.6830 -0.0011  0.0030 -0.0132
                                            0.0004 -0.0314  0.0013 -0.0195  0.0002
                                           -0.0035 -0.0000 -0.0049 -0.0033  0.0009
                                            0.0039  0.0028  0.0001  0.0034  0.0003
                                            0.0056
                ( 39.04%)   0.6248* H  46 s( 99.97%)p 0.00(  0.03%)
                                           -0.9998 -0.0010 -0.0001 -0.0083 -0.0061
                                           -0.0142
    40. (1.98829) BD ( 1) C  14 - H  47  
                ( 60.78%)   0.7796* C  14 s( 23.44%)p 3.26( 76.41%)d 0.01(  0.14%)
                                                  f 0.00(  0.01%)
                                           -0.0000  0.4841 -0.0042 -0.0010  0.0002
                                            0.7778  0.0039  0.0016 -0.3982  0.0057
                                           -0.0053  0.0216 -0.0047 -0.0058 -0.0256
                                           -0.0009  0.0096 -0.0016  0.0001 -0.0013
                                            0.0154  0.0022 -0.0194 -0.0011 -0.0006
                                           -0.0047 -0.0007 -0.0010 -0.0021  0.0006
                                           -0.0069
                ( 39.22%)   0.6263* H  47 s( 99.97%)p 0.00(  0.03%)
                                            0.9998  0.0024  0.0002 -0.0159  0.0065
                                            0.0012
    41. (1.98611) BD ( 1) C  14 - H  48  
                ( 60.96%)   0.7808* C  14 s( 23.80%)p 3.20( 76.05%)d 0.01(  0.15%)
                                                  f 0.00(  0.01%)
                                           -0.0001  0.4878  0.0001  0.0004  0.0001
                                            0.1354  0.0045 -0.0045  0.8499 -0.0031
                                            0.0012 -0.1402 -0.0018 -0.0064  0.0074
                                            0.0009  0.0068 -0.0028 -0.0037 -0.0012
                                           -0.0302 -0.0010 -0.0204 -0.0003  0.0007
                                           -0.0028 -0.0042  0.0015 -0.0038 -0.0024
                                           -0.0069
                ( 39.04%)   0.6248* H  48 s( 99.97%)p 0.00(  0.03%)
                                            0.9998  0.0014 -0.0002 -0.0040 -0.0168
                                            0.0048
    42. (1.98795) BD ( 1) C  15 - H  49  
                ( 60.77%)   0.7796* C  15 s( 23.59%)p 3.23( 76.26%)d 0.01(  0.14%)
                                                  f 0.00(  0.01%)
                                            0.0000  0.4857 -0.0028 -0.0006  0.0003
                                            0.7240 -0.0021 -0.0004 -0.4882 -0.0064
                                           -0.0051 -0.0098  0.0020 -0.0025 -0.0292
                                           -0.0008  0.0001 -0.0004  0.0018 -0.0007
                                            0.0192 -0.0008 -0.0138 -0.0026  0.0013
                                           -0.0066  0.0016 -0.0005 -0.0007 -0.0010
                                           -0.0042
                ( 39.23%)   0.6263* H  49 s( 99.97%)p 0.00(  0.03%)
                                            0.9999  0.0022  0.0001 -0.0130  0.0100
                                           -0.0004
    43. (1.98578) BD ( 1) C  15 - H  50  
                ( 61.13%)   0.7818* C  15 s( 23.00%)p 3.34( 76.83%)d 0.01(  0.16%)
                                                  f 0.00(  0.01%)
                                           -0.0001  0.4796 -0.0002  0.0041  0.0000
                                           -0.5065  0.0025 -0.0027 -0.2608 -0.0022
                                           -0.0023 -0.6661  0.0071 -0.0021  0.0061
                                            0.0013  0.0277  0.0006  0.0123  0.0009
                                            0.0142 -0.0018  0.0203 -0.0020  0.0014
                                           -0.0069 -0.0008 -0.0003 -0.0022  0.0002
                                           -0.0032
                ( 38.87%)   0.6235* H  50 s( 99.97%)p 0.00(  0.03%)
                                            0.9999  0.0011  0.0001  0.0096  0.0058
                                            0.0125
    44. (1.98801) BD ( 1) C  15 - H  51  
                ( 60.90%)   0.7804* C  15 s( 23.75%)p 3.20( 76.10%)d 0.01(  0.14%)
                                                  f 0.00(  0.01%)
                                           -0.0001  0.4874  0.0011  0.0014  0.0001
                                           -0.4285 -0.0002 -0.0026 -0.1654 -0.0044
                                           -0.0027  0.7416 -0.0022 -0.0003  0.0001
                                            0.0021 -0.0231 -0.0026 -0.0054 -0.0014
                                            0.0138 -0.0027  0.0252 -0.0003  0.0009
                                           -0.0075 -0.0018  0.0001  0.0010  0.0007
                                           -0.0029
                ( 39.10%)   0.6253* H  51 s( 99.97%)p 0.00(  0.03%)
                                            0.9998  0.0013 -0.0000  0.0091  0.0041
                                           -0.0144
    45. (1.98398) BD ( 1) C  16 - C  17  
                ( 50.88%)   0.7133* C  16 s( 26.92%)p 2.71( 73.01%)d 0.00(  0.06%)
                                                  f 0.00(  0.00%)
                                           -0.0000  0.5186 -0.0146  0.0035 -0.0001
                                            0.4074  0.0005  0.0005  0.4262 -0.0035
                                           -0.0003  0.6183  0.0105  0.0105  0.0126
                                            0.0015  0.0162  0.0024  0.0131  0.0034
                                           -0.0031 -0.0007  0.0014  0.0020 -0.0012
                                            0.0016  0.0019 -0.0026  0.0010 -0.0024
                                            0.0038
                ( 49.12%)   0.7008* C  17 s( 29.51%)p 2.38( 70.36%)d 0.00(  0.11%)
                                                  f 0.00(  0.01%)
                                            0.0002  0.5432 -0.0008  0.0038 -0.0010
                                           -0.3818 -0.0030 -0.0015 -0.4226 -0.0033
                                           -0.0049 -0.6157 -0.0002  0.0080  0.0130
                                            0.0012  0.0199  0.0013  0.0204  0.0030
                                            0.0026 -0.0014  0.0119  0.0017  0.0016
                                           -0.0084 -0.0053  0.0008 -0.0038  0.0014
                                           -0.0049
    46. (1.98147) BD ( 1) C  16 - C  18  
                ( 50.82%)   0.7129* C  16 s( 26.60%)p 2.76( 73.34%)d 0.00(  0.06%)
                                                  f 0.00(  0.00%)
                                           -0.0001  0.5155 -0.0157  0.0025 -0.0001
                                           -0.8139 -0.0085 -0.0073  0.2559 -0.0045
                                           -0.0013 -0.0728  0.0048  0.0026 -0.0123
                                           -0.0028  0.0077 -0.0005 -0.0057  0.0005
                                            0.0126  0.0038 -0.0122 -0.0033 -0.0019
                                            0.0028  0.0024 -0.0009  0.0014 -0.0001
                                            0.0045
                ( 49.18%)   0.7013* C  18 s( 29.64%)p 2.37( 70.24%)d 0.00(  0.11%)
                                                  f 0.00(  0.01%)
                                            0.0003  0.5444  0.0033 -0.0049 -0.0002
                                            0.7941  0.0046 -0.0123 -0.2633 -0.0030
                                           -0.0026  0.0470  0.0029  0.0053 -0.0148
                                           -0.0026  0.0037 -0.0006 -0.0006  0.0001
                                            0.0258  0.0022 -0.0147 -0.0018  0.0020
                                           -0.0072 -0.0010  0.0039 -0.0019  0.0056
                                           -0.0052
    47. (1.96471) BD ( 1) C  16 - H  52  
                ( 60.62%)   0.7786* C  16 s( 20.37%)p 3.90( 79.49%)d 0.01(  0.13%)
                                                  f 0.00(  0.01%)
                                            0.0001 -0.4507 -0.0233 -0.0028 -0.0002
                                            0.0064  0.0009  0.0011  0.8634 -0.0134
                                           -0.0050 -0.2220  0.0023 -0.0010  0.0030
                                           -0.0013  0.0000  0.0003  0.0125  0.0012
                                            0.0284  0.0003  0.0181 -0.0017  0.0018
                                           -0.0030 -0.0017  0.0034 -0.0018  0.0009
                                           -0.0045
                ( 39.38%)   0.6275* H  52 s( 99.97%)p 0.00(  0.03%)
                                           -0.9998 -0.0034 -0.0006  0.0002 -0.0181
                                            0.0038
    48. (1.98743) BD ( 1) C  17 - H  53  
                ( 61.02%)   0.7812* C  17 s( 23.69%)p 3.22( 76.16%)d 0.01(  0.15%)
                                                  f 0.00(  0.01%)
                                           -0.0001  0.4867  0.0047 -0.0033  0.0000
                                            0.8261 -0.0031  0.0049 -0.2637  0.0048
                                           -0.0001  0.0972  0.0007  0.0079 -0.0221
                                           -0.0000 -0.0041  0.0030 -0.0081  0.0027
                                            0.0238  0.0014 -0.0181 -0.0014  0.0010
                                           -0.0052  0.0003  0.0042  0.0013  0.0029
                                           -0.0055
                ( 38.98%)   0.6243* H  53 s( 99.97%)p 0.00(  0.03%)
                                            0.9999  0.0014  0.0000 -0.0162  0.0040
                                           -0.0026
    49. (1.98707) BD ( 1) C  17 - H  54  
                ( 60.97%)   0.7808* C  17 s( 23.30%)p 3.29( 76.54%)d 0.01(  0.16%)
                                                  f 0.00(  0.01%)
                                           -0.0001  0.4826  0.0077 -0.0023  0.0004
                                           -0.4123  0.0075 -0.0022 -0.1190  0.0030
                                           -0.0006  0.7623 -0.0042  0.0090  0.0028
                                            0.0004 -0.0315  0.0010 -0.0150  0.0020
                                            0.0084 -0.0007  0.0158  0.0028  0.0029
                                           -0.0050 -0.0007  0.0032  0.0014  0.0010
                                           -0.0047
                ( 39.03%)   0.6248* H  54 s( 99.97%)p 0.00(  0.03%)
                                            0.9998  0.0009  0.0001  0.0078  0.0017
                                           -0.0156
    50. (1.98857) BD ( 1) C  17 - H  55  
                ( 60.75%)   0.7794* C  17 s( 23.45%)p 3.26( 76.41%)d 0.01(  0.14%)
                                                  f 0.00(  0.00%)
                                           -0.0000  0.4841 -0.0116  0.0028  0.0005
                                            0.0087  0.0062  0.0012  0.8577  0.0092
                                           -0.0120 -0.1675  0.0077  0.0041 -0.0002
                                            0.0003  0.0023 -0.0018 -0.0135 -0.0005
                                           -0.0313 -0.0007 -0.0138 -0.0019  0.0018
                                           -0.0028 -0.0027  0.0028 -0.0008  0.0009
                                           -0.0043
                ( 39.25%)   0.6265* H  55 s( 99.98%)p 0.00(  0.02%)
                                            0.9999  0.0023  0.0004 -0.0007 -0.0131
                                            0.0009
    51. (1.98842) BD ( 1) C  18 - H  56  
                ( 60.80%)   0.7798* C  18 s( 23.31%)p 3.28( 76.54%)d 0.01(  0.14%)
                                                  f 0.00(  0.01%)
                                           -0.0000  0.4828 -0.0039  0.0005  0.0002
                                           -0.0393 -0.0072 -0.0029  0.8266  0.0000
                                            0.0039 -0.2839 -0.0004  0.0005  0.0048
                                           -0.0021 -0.0009  0.0002 -0.0179 -0.0013
                                           -0.0310 -0.0002 -0.0091 -0.0013  0.0045
                                           -0.0025 -0.0027  0.0039 -0.0009  0.0010
                                           -0.0030
                ( 39.20%)   0.6261* H  56 s( 99.97%)p 0.00(  0.03%)
                                            0.9998  0.0020 -0.0001  0.0024 -0.0164
                                            0.0051
    52. (1.98696) BD ( 1) C  18 - H  57  
                ( 61.09%)   0.7816* C  18 s( 23.21%)p 3.30( 76.63%)d 0.01(  0.15%)
                                                  f 0.00(  0.01%)
                                           -0.0001  0.4817  0.0003  0.0030 -0.0000
                                           -0.3859 -0.0025 -0.0027 -0.0300  0.0015
                                           -0.0008  0.7851 -0.0072  0.0026  0.0056
                                           -0.0015 -0.0214 -0.0014 -0.0033  0.0005
                                           -0.0011  0.0020  0.0318 -0.0012  0.0038
                                           -0.0042 -0.0023  0.0041 -0.0023 -0.0003
                                           -0.0018
                ( 38.91%)   0.6238* H  57 s( 99.97%)p 0.00(  0.03%)
                                            0.9998  0.0012  0.0001  0.0084  0.0003
                                           -0.0152
    53. (1.98795) BD ( 1) C  18 - H  58  
                ( 60.97%)   0.7808* C  18 s( 23.79%)p 3.20( 76.06%)d 0.01(  0.14%)
                                                  f 0.00(  0.01%)
                                           -0.0001  0.4877  0.0011  0.0009  0.0001
                                           -0.4653 -0.0038 -0.0031 -0.4949  0.0038
                                           -0.0014 -0.5470  0.0017  0.0014  0.0214
                                           -0.0006  0.0163  0.0023  0.0222  0.0013
                                           -0.0098  0.0024  0.0096 -0.0025  0.0046
                                           -0.0033 -0.0026  0.0021 -0.0040 -0.0000
                                           -0.0028
                ( 39.03%)   0.6248* H  58 s( 99.97%)p 0.00(  0.03%)
                                            0.9998  0.0011 -0.0001  0.0103  0.0091
                                            0.0110
    54. (1.86708) BD ( 1) C  19 -Ni  20  
                ( 77.04%)   0.8777* C  19 s( 45.06%)p 1.22( 54.93%)d 0.00(  0.01%)
                                                  f 0.00(  0.00%)
                                            0.0009  0.6703 -0.0352 -0.0033  0.0001
                                            0.0000  0.0000  0.0000  0.7148 -0.0475
                                           -0.0047 -0.1894  0.0137 -0.0009  0.0001
                                            0.0001  0.0003  0.0005  0.0013  0.0008
                                           -0.0094 -0.0013 -0.0066  0.0035  0.0009
                                           -0.0000 -0.0024  0.0009  0.0000 -0.0000
                                           -0.0047
                ( 22.96%)   0.4791*Ni  20 s( 23.50%)p 3.11( 73.02%)d 0.15(  3.48%)
                                                  f 0.00(  0.00%)
                                           -0.0007  0.4845 -0.0176  0.0002  0.0018
                                            0.0019 -0.0000 -0.0000  0.0000 -0.0000
                                            0.0000 -0.0009 -0.8490  0.0241 -0.0015
                                            0.0000 -0.0004  0.0939 -0.0063  0.0004
                                            0.0000  0.0000 -0.0000  0.0000  0.0000
                                            0.0000 -0.0000 -0.0434 -0.0066  0.0009
                                           -0.1580  0.0018 -0.0010 -0.0887 -0.0003
                                            0.0030 -0.0007 -0.0000  0.0009 -0.0009
                                            0.0000 -0.0000  0.0019
    55. (1.93713) BD ( 1)Ni  20 - C  21  
                ( 25.36%)   0.5036*Ni  20 s( 25.37%)p 2.82( 71.50%)d 0.12(  3.12%)
                                                  f 0.00(  0.00%)
                                           -0.0033  0.5036  0.0064  0.0005 -0.0019
                                            0.0002  0.0000  0.0001 -0.0000 -0.0000
                                            0.0000 -0.0004  0.3539  0.0046  0.0035
                                           -0.0001  0.0003  0.7679  0.0053  0.0002
                                            0.0002  0.0000  0.0000  0.0000  0.0000
                                           -0.0000 -0.0000  0.0983  0.0151  0.0039
                                           -0.0099  0.0009 -0.0017  0.1453  0.0108
                                            0.0010  0.0031  0.0000  0.0038 -0.0008
                                            0.0000 -0.0000 -0.0001
                ( 74.64%)   0.8640* C  21 s( 69.12%)p 0.45( 30.82%)d 0.00(  0.04%)
                                                  f 0.00(  0.02%)
                                            0.0011  0.8296  0.0544 -0.0025 -0.0003
                                           -0.0000  0.0000  0.0000 -0.2343  0.0098
                                            0.0058 -0.5021  0.0310  0.0083  0.0000
                                            0.0000  0.0000  0.0000  0.0003  0.0129
                                            0.0003 -0.0026  0.0000  0.0148 -0.0075
                                           -0.0000 -0.0118  0.0044 -0.0000  0.0000
                                            0.0007
    56. (1.94041) BD ( 1)Ni  20 - C  23  
                ( 25.06%)   0.5006*Ni  20 s( 25.53%)p 2.81( 71.61%)d 0.11(  2.86%)
                                                  f 0.00(  0.00%)
                                           -0.0029  0.5052  0.0016  0.0001 -0.0000
                                           -0.0008  0.0005  0.6932  0.0045  0.0013
                                            0.0000 -0.0007  0.2275  0.0079  0.0019
                                           -0.0000  0.0001 -0.4286 -0.0044 -0.0015
                                           -0.0000  0.0546  0.0156  0.0033 -0.1266
                                           -0.0115 -0.0007 -0.0280 -0.0123 -0.0002
                                            0.0892  0.0078 -0.0008 -0.0140 -0.0022
                                            0.0009  0.0017  0.0010  0.0002 -0.0027
                                           -0.0022  0.0016  0.0020
                ( 74.94%)   0.8657* C  23 s( 69.45%)p 0.44( 30.50%)d 0.00(  0.04%)
                                                  f 0.00(  0.02%)
                                            0.0011  0.8316  0.0548 -0.0015 -0.0003
                                           -0.4132  0.0233  0.0069 -0.2206  0.0102
                                            0.0035  0.2907 -0.0179 -0.0046 -0.0007
                                            0.0086  0.0001 -0.0133  0.0004 -0.0057
                                            0.0008  0.0086  0.0001 -0.0016 -0.0061
                                           -0.0023 -0.0010  0.0072  0.0074 -0.0027
                                           -0.0066
    57. (1.94041) BD ( 1)Ni  20 - C  25  
                ( 25.06%)   0.5006*Ni  20 s( 25.53%)p 2.81( 71.61%)d 0.11(  2.86%)
                                                  f 0.00(  0.00%)
                                           -0.0029  0.5052  0.0016  0.0001 -0.0000
                                           -0.0008 -0.0005 -0.6933 -0.0045 -0.0013
                                           -0.0000 -0.0007  0.2275  0.0079  0.0019
                                           -0.0000  0.0001 -0.4286 -0.0044 -0.0015
                                           -0.0000 -0.0546 -0.0157 -0.0033  0.1266
                                            0.0115  0.0007 -0.0280 -0.0123 -0.0002
                                            0.0892  0.0078 -0.0008 -0.0140 -0.0022
                                            0.0009  0.0017 -0.0010  0.0002 -0.0027
                                            0.0022 -0.0016  0.0020
                ( 74.94%)   0.8657* C  25 s( 69.45%)p 0.44( 30.50%)d 0.00(  0.04%)
                                                  f 0.00(  0.02%)
                                            0.0011  0.8316  0.0548 -0.0015 -0.0003
                                            0.4132 -0.0234 -0.0069 -0.2206  0.0102
                                            0.0035  0.2907 -0.0179 -0.0046  0.0007
                                           -0.0086 -0.0001  0.0133  0.0004 -0.0057
                                            0.0008  0.0086  0.0001 -0.0016 -0.0061
                                            0.0023 -0.0010  0.0072 -0.0074  0.0027
                                           -0.0066
    58. (1.99843) BD ( 1) C  21 - O  22  
                ( 29.95%)   0.5473* C  21 s( 33.83%)p 1.95( 66.03%)d 0.00(  0.11%)
                                                  f 0.00(  0.03%)
                                           -0.0002  0.5489 -0.1923  0.0059  0.0012
                                            0.0000  0.0000  0.0000  0.2565  0.0252
                                            0.0025  0.7689  0.0516  0.0025  0.0000
                                           -0.0000  0.0000 -0.0000  0.0150 -0.0126
                                           -0.0026  0.0024  0.0227 -0.0130  0.0080
                                            0.0000  0.0134 -0.0052  0.0000 -0.0000
                                           -0.0008
                ( 70.05%)   0.8369* O  22 s( 46.45%)p 1.14( 52.83%)d 0.01(  0.69%)
                                                  f 0.00(  0.02%)
                                            0.0000  0.6815 -0.0111  0.0004  0.0006
                                            0.0000 -0.0000  0.0000 -0.3844  0.0059
                                            0.0031 -0.6167  0.0111  0.0052  0.0000
                                           -0.0000  0.0000  0.0000  0.0587  0.0009
                                           -0.0150 -0.0002  0.0571  0.0010 -0.0065
                                           -0.0000 -0.0124  0.0053 -0.0000  0.0000
                                            0.0011
    59. (1.99784) BD ( 2) C  21 - O  22  
                ( 23.69%)   0.4867* C  21 s(  0.29%)p99.99( 99.49%)d 0.73(  0.21%)
                                                  f 0.00(  0.00%)
                                           -0.0001  0.0511 -0.0180  0.0020  0.0002
                                            0.0001  0.0000  0.0000  0.9330  0.0074
                                            0.0081 -0.3526  0.0041 -0.0030  0.0000
                                            0.0000  0.0000 -0.0000  0.0311  0.0001
                                           -0.0181 -0.0008 -0.0289 -0.0022  0.0031
                                           -0.0000  0.0007  0.0009 -0.0000  0.0000
                                            0.0005
                ( 76.31%)   0.8736* O  22 s(  0.38%)p99.99( 99.15%)d 1.20(  0.45%)
                                                  f 0.06(  0.02%)
                                            0.0000  0.0614 -0.0019  0.0003  0.0001
                                            0.0001 -0.0000  0.0000  0.8742 -0.0042
                                            0.0001 -0.4766  0.0035  0.0003 -0.0000
                                            0.0000 -0.0000  0.0000 -0.0382  0.0003
                                            0.0244 -0.0002  0.0497 -0.0002 -0.0126
                                            0.0000  0.0033 -0.0068  0.0000 -0.0000
                                           -0.0022
    60. (1.99784) BD ( 3) C  21 - O  22  
                ( 23.74%)   0.4873* C  21 s(  0.00%)p 1.00( 99.78%)d 0.00(  0.21%)
                                                  f 0.00(  0.00%)
                                           -0.0000 -0.0000  0.0000 -0.0000 -0.0000
                                            0.9989  0.0035  0.0074 -0.0001 -0.0000
                                           -0.0000  0.0000 -0.0000  0.0000  0.0199
                                            0.0037  0.0417  0.0005 -0.0000  0.0000
                                            0.0000  0.0000  0.0000  0.0000 -0.0000
                                           -0.0020 -0.0000  0.0000 -0.0019  0.0011
                                            0.0000
                ( 76.26%)   0.8732* O  22 s(  0.00%)p 1.00( 99.53%)d 0.00(  0.45%)
                                                  f 0.00(  0.02%)
                                           -0.0000 -0.0000  0.0000  0.0000 -0.0000
                                            0.9976 -0.0054 -0.0003 -0.0001  0.0000
                                           -0.0000  0.0001 -0.0000 -0.0000 -0.0282
                                            0.0001 -0.0608  0.0004  0.0000 -0.0000
                                           -0.0000  0.0000 -0.0000 -0.0000  0.0000
                                            0.0115 -0.0000  0.0000  0.0090 -0.0025
                                            0.0000
    61. (1.99774) BD ( 1) C  23 - O  24  
                ( 29.51%)   0.5432* C  23 s( 31.46%)p 2.17( 68.40%)d 0.00(  0.12%)
                                                  f 0.00(  0.03%)
                                            0.0002 -0.5281  0.1890 -0.0035 -0.0011
                                           -0.6130 -0.0382 -0.0012 -0.0801 -0.0222
                                           -0.0036  0.5468  0.0285  0.0061 -0.0065
                                            0.0078  0.0235 -0.0117  0.0061 -0.0083
                                           -0.0140  0.0067 -0.0039 -0.0028 -0.0071
                                           -0.0025 -0.0015  0.0064  0.0098 -0.0008
                                           -0.0082
                ( 70.49%)   0.8396* O  24 s( 43.71%)p 1.27( 55.59%)d 0.02(  0.67%)
                                                  f 0.00(  0.02%)
                                           -0.0000 -0.6611  0.0108 -0.0006 -0.0006
                                            0.4924 -0.0091 -0.0035  0.5097 -0.0064
                                           -0.0029 -0.2313  0.0058  0.0030 -0.0524
                                           -0.0006  0.0470  0.0010  0.0335  0.0007
                                           -0.0202 -0.0006  0.0148  0.0002  0.0066
                                            0.0005  0.0006 -0.0040 -0.0099 -0.0014
                                            0.0081
    62. (1.99751) BD ( 2) C  23 - O  24  
                ( 24.03%)   0.4902* C  23 s(  1.02%)p97.28( 98.77%)d 0.21(  0.21%)
                                                  f 0.00(  0.00%)
                                           -0.0001  0.0949 -0.0339 -0.0008  0.0002
                                            0.5420  0.0114  0.0034  0.3382  0.0080
                                            0.0038  0.7611  0.0024  0.0064  0.0205
                                           -0.0004  0.0152  0.0019  0.0072  0.0029
                                            0.0113 -0.0015 -0.0354  0.0003  0.0007
                                            0.0024  0.0021 -0.0010 -0.0019  0.0009
                                            0.0001
                ( 75.97%)   0.8716* O  24 s(  1.40%)p70.16( 98.12%)d 0.33(  0.46%)
                                                  f 0.02(  0.02%)
                                            0.0000  0.1182 -0.0020 -0.0002  0.0001
                                            0.3426 -0.0013  0.0006  0.2318 -0.0004
                                            0.0008  0.9000 -0.0064 -0.0006 -0.0186
                                            0.0003 -0.0362 -0.0001 -0.0179 -0.0001
                                           -0.0092  0.0001  0.0502 -0.0004  0.0019
                                           -0.0120 -0.0064  0.0023  0.0026 -0.0000
                                            0.0042
    63. (1.99733) BD ( 3) C  23 - O  24  
                ( 23.91%)   0.4890* C  23 s(  1.45%)p67.66( 98.33%)d 0.14(  0.21%)
                                                  f 0.00(  0.00%)
                                           -0.0001  0.1137 -0.0400  0.0036  0.0002
                                           -0.3694  0.0134 -0.0019  0.9067  0.0103
                                            0.0053 -0.1560 -0.0092 -0.0008  0.0231
                                           -0.0024  0.0057  0.0024 -0.0241 -0.0002
                                           -0.0307 -0.0015  0.0022 -0.0002  0.0012
                                            0.0007 -0.0000 -0.0036 -0.0013  0.0024
                                            0.0022
                ( 76.09%)   0.8723* O  24 s(  2.03%)p47.91( 97.48%)d 0.23(  0.46%)
                                                  f 0.01(  0.02%)
                                            0.0000  0.1426 -0.0038  0.0001  0.0002
                                           -0.6073  0.0056  0.0010  0.7783 -0.0026
                                            0.0003  0.0119 -0.0013 -0.0005 -0.0195
                                            0.0003 -0.0261 -0.0001  0.0251 -0.0002
                                            0.0538 -0.0003 -0.0053  0.0000 -0.0017
                                           -0.0003  0.0014  0.0098 -0.0037 -0.0103
                                           -0.0011
    64. (1.99774) BD ( 1) C  25 - O  26  
                ( 29.51%)   0.5432* C  25 s( 31.46%)p 2.17( 68.40%)d 0.00(  0.12%)
                                                  f 0.00(  0.03%)
                                           -0.0002  0.5281 -0.1890  0.0035  0.0011
                                           -0.6130 -0.0382 -0.0012  0.0801  0.0222
                                            0.0036 -0.5468 -0.0285 -0.0061 -0.0065
                                            0.0078  0.0235 -0.0117 -0.0061  0.0083
                                            0.0140 -0.0067  0.0039  0.0028  0.0071
                                           -0.0025  0.0015 -0.0064  0.0098 -0.0008
                                            0.0082
                ( 70.49%)   0.8396* O  26 s( 43.71%)p 1.27( 55.59%)d 0.02(  0.67%)
                                                  f 0.00(  0.02%)
                                            0.0000  0.6611 -0.0108  0.0006  0.0006
                                            0.4924 -0.0091 -0.0035 -0.5097  0.0064
                                            0.0029  0.2312 -0.0057 -0.0030 -0.0524
                                           -0.0006  0.0469  0.0010 -0.0335 -0.0007
                                            0.0202  0.0006 -0.0149 -0.0002 -0.0066
                                            0.0005 -0.0006  0.0040 -0.0099 -0.0014
                                           -0.0081
    65. (1.99751) BD ( 2) C  25 - O  26  
                ( 24.03%)   0.4902* C  25 s(  1.02%)p97.24( 98.77%)d 0.21(  0.21%)
                                                  f 0.00(  0.00%)
                                           -0.0001  0.0949 -0.0339 -0.0008  0.0002
                                           -0.5419 -0.0114 -0.0034  0.3382  0.0080
                                            0.0038  0.7612  0.0024  0.0064 -0.0205
                                            0.0004 -0.0152 -0.0019  0.0072  0.0029
                                            0.0113 -0.0015 -0.0354  0.0003  0.0007
                                           -0.0024  0.0021 -0.0010  0.0019 -0.0009
                                            0.0001
                ( 75.97%)   0.8716* O  26 s(  1.40%)p70.12( 98.12%)d 0.33(  0.46%)
                                                  f 0.02(  0.02%)
                                            0.0000  0.1183 -0.0020 -0.0002  0.0001
                                           -0.3424  0.0013 -0.0006  0.2318 -0.0004
                                            0.0008  0.9001 -0.0064 -0.0006  0.0186
                                           -0.0003  0.0362  0.0001 -0.0179 -0.0001
                                           -0.0092  0.0001  0.0502 -0.0004  0.0019
                                            0.0120 -0.0064  0.0023 -0.0026  0.0000
                                            0.0042
    66. (1.99733) BD ( 3) C  25 - O  26  
                ( 23.91%)   0.4890* C  25 s(  1.45%)p67.66( 98.33%)d 0.14(  0.21%)
                                                  f 0.00(  0.00%)
                                           -0.0001  0.1137 -0.0400  0.0036  0.0002
                                            0.3694 -0.0134  0.0019  0.9067  0.0103
                                            0.0053 -0.1561 -0.0092 -0.0008 -0.0231
                                            0.0024 -0.0056 -0.0024 -0.0241 -0.0002
                                           -0.0307 -0.0015  0.0022 -0.0002  0.0012
                                           -0.0007 -0.0000 -0.0036  0.0013 -0.0024
                                            0.0022
                ( 76.09%)   0.8723* O  26 s(  2.03%)p47.91( 97.48%)d 0.23(  0.46%)
                                                  f 0.01(  0.02%)
                                            0.0000  0.1426 -0.0038  0.0001  0.0002
                                            0.6074 -0.0056 -0.0010  0.7783 -0.0026
                                            0.0003  0.0118 -0.0013 -0.0005  0.0195
                                           -0.0003  0.0261  0.0001  0.0251 -0.0002
                                            0.0538 -0.0003 -0.0053  0.0000 -0.0017
                                            0.0003  0.0014  0.0098  0.0037  0.0103
                                           -0.0011
    67. (1.99945) CR ( 1) C   1           s(100.00%)p 0.00(  0.00%)
                                            1.0000 -0.0001 -0.0000  0.0000  0.0000
                                            0.0003  0.0000 -0.0000  0.0000  0.0000
                                            0.0000  0.0000 -0.0000 -0.0000 -0.0000
                                           -0.0000  0.0000 -0.0000  0.0000  0.0000
                                           -0.0000 -0.0000  0.0000  0.0000  0.0000
                                           -0.0000 -0.0000 -0.0000  0.0000  0.0000
                                            0.0000
    68. (1.99942) CR ( 1) C   2           s(100.00%)p 0.00(  0.00%)
                                            1.0000  0.0000 -0.0000  0.0000  0.0000
                                            0.0001  0.0000 -0.0000 -0.0001  0.0000
                                            0.0000  0.0002 -0.0000 -0.0000  0.0000
                                            0.0000 -0.0000 -0.0000 -0.0000  0.0000
                                           -0.0000  0.0000 -0.0000 -0.0000  0.0000
                                            0.0000  0.0000  0.0000 -0.0000  0.0000
                                            0.0000
    69. (1.99945) CR ( 1) C   3           s(100.00%)p 0.00(  0.00%)
                                            1.0000 -0.0000  0.0000 -0.0000  0.0000
                                           -0.0001 -0.0000 -0.0000  0.0001  0.0000
                                            0.0000  0.0002 -0.0000 -0.0000  0.0000
                                            0.0000  0.0000  0.0000 -0.0000 -0.0000
                                            0.0000  0.0000 -0.0000 -0.0000  0.0000
                                           -0.0000  0.0000  0.0000 -0.0000  0.0000
                                            0.0000
    70. (1.99921) CR ( 1) C   4           s(100.00%)
                                            1.0000  0.0002 -0.0000 -0.0000 -0.0000
                                           -0.0000 -0.0000  0.0000  0.0001 -0.0000
                                           -0.0000 -0.0000  0.0000  0.0000 -0.0000
                                            0.0000  0.0000 -0.0000 -0.0000 -0.0000
                                           -0.0000  0.0000 -0.0000 -0.0000  0.0000
                                            0.0000 -0.0000  0.0000  0.0000 -0.0000
                                           -0.0000
    71. (1.99942) CR ( 1) C   5           s(100.00%)p 0.00(  0.00%)
                                            1.0000  0.0000  0.0000  0.0000  0.0000
                                            0.0003 -0.0000 -0.0000  0.0001 -0.0000
                                           -0.0000 -0.0002  0.0000  0.0000  0.0000
                                            0.0000  0.0000  0.0000 -0.0000 -0.0000
                                            0.0000  0.0000 -0.0000  0.0000  0.0000
                                            0.0000 -0.0000 -0.0000  0.0000 -0.0000
                                            0.0000
    72. (1.99945) CR ( 1) C   6           s(100.00%)p 0.00(  0.00%)
                                            1.0000 -0.0000 -0.0000  0.0000  0.0000
                                            0.0002 -0.0000 -0.0000 -0.0002 -0.0000
                                            0.0000 -0.0000  0.0000  0.0000  0.0000
                                           -0.0000 -0.0000  0.0000  0.0000 -0.0000
                                            0.0000  0.0000  0.0000 -0.0000 -0.0000
                                            0.0000  0.0000 -0.0000 -0.0000 -0.0000
                                            0.0000
    73. (1.99945) CR ( 1) C   7           s(100.00%)p 0.00(  0.00%)
                                            1.0000 -0.0000 -0.0000  0.0000  0.0000
                                           -0.0001 -0.0000 -0.0000  0.0001  0.0000
                                           -0.0000 -0.0003 -0.0000  0.0000  0.0000
                                           -0.0000 -0.0000 -0.0000  0.0000 -0.0000
                                           -0.0000 -0.0000 -0.0000 -0.0000 -0.0000
                                           -0.0000  0.0000 -0.0000  0.0000  0.0000
                                            0.0000
    74. (1.99940) CR ( 1) N   8           s(100.00%)
                                            1.0000  0.0002 -0.0000  0.0000 -0.0000
                                            0.0000 -0.0000 -0.0000  0.0000 -0.0000
                                           -0.0000  0.0000  0.0000  0.0000  0.0000
                                           -0.0000 -0.0000  0.0000 -0.0000  0.0000
                                            0.0000 -0.0000 -0.0000  0.0000 -0.0000
                                           -0.0000 -0.0000 -0.0000  0.0000  0.0000
                                            0.0000
    75. (1.99905) CR ( 1) C   9           s(100.00%)p 0.00(  0.00%)
                                            1.0000  0.0003 -0.0000 -0.0000  0.0000
                                            0.0002 -0.0000 -0.0000 -0.0001  0.0000
                                            0.0000  0.0001 -0.0000  0.0000 -0.0000
                                           -0.0000  0.0000 -0.0000 -0.0000 -0.0000
                                            0.0000 -0.0000 -0.0000 -0.0000 -0.0000
                                           -0.0000  0.0000 -0.0000 -0.0000 -0.0000
                                           -0.0000
    76. (1.99905) CR ( 1) C  10           s(100.00%)p 0.00(  0.00%)
                                            1.0000  0.0003 -0.0000 -0.0000  0.0000
                                           -0.0002  0.0000  0.0000 -0.0001  0.0000
                                            0.0000  0.0001 -0.0000  0.0000  0.0000
                                            0.0000 -0.0000  0.0000 -0.0000 -0.0000
                                            0.0000 -0.0000 -0.0000 -0.0000 -0.0000
                                            0.0000  0.0000 -0.0000  0.0000  0.0000
                                           -0.0000
    77. (1.99940) CR ( 1) N  11           s(100.00%)
                                            1.0000  0.0002 -0.0000  0.0000 -0.0000
                                           -0.0000  0.0000  0.0000 -0.0000 -0.0000
                                           -0.0000  0.0000  0.0000  0.0000 -0.0000
                                            0.0000  0.0000 -0.0000 -0.0000  0.0000
                                            0.0000 -0.0000 -0.0000  0.0000 -0.0000
                                            0.0000 -0.0000 -0.0000 -0.0000 -0.0000
                                            0.0000
    78. (1.99921) CR ( 1) C  12           s(100.00%)
                                            1.0000  0.0002 -0.0000 -0.0000 -0.0000
                                            0.0000  0.0000 -0.0000  0.0001 -0.0000
                                           -0.0000 -0.0000  0.0000  0.0000  0.0000
                                           -0.0000 -0.0000  0.0000 -0.0000 -0.0000
                                           -0.0000  0.0000 -0.0000 -0.0000  0.0000
                                           -0.0000 -0.0000  0.0000 -0.0000  0.0000
                                           -0.0000
    79. (1.99942) CR ( 1) C  13           s(100.00%)p 0.00(  0.00%)
                                            1.0000  0.0000  0.0000  0.0000  0.0000
                                           -0.0003  0.0000  0.0000  0.0001 -0.0000
                                           -0.0000 -0.0002  0.0000  0.0000 -0.0000
                                           -0.0000 -0.0000 -0.0000 -0.0000 -0.0000
                                            0.0000  0.0000 -0.0000  0.0000  0.0000
                                           -0.0000 -0.0000 -0.0000 -0.0000  0.0000
                                            0.0000
    80. (1.99945) CR ( 1) C  14           s(100.00%)p 0.00(  0.00%)
                                            1.0000 -0.0000 -0.0000  0.0000  0.0000
                                            0.0001  0.0000  0.0000  0.0001  0.0000
                                           -0.0000 -0.0003 -0.0000  0.0000 -0.0000
                                            0.0000  0.0000  0.0000  0.0000 -0.0000
                                           -0.0000 -0.0000 -0.0000 -0.0000 -0.0000
                                            0.0000  0.0000 -0.0000 -0.0000 -0.0000
                                            0.0000
    81. (1.99945) CR ( 1) C  15           s(100.00%)p 0.00(  0.00%)
                                            1.0000 -0.0000 -0.0000  0.0000  0.0000
                                           -0.0002  0.0000  0.0000 -0.0002 -0.0000
                                            0.0000 -0.0000  0.0000  0.0000 -0.0000
                                            0.0000  0.0000 -0.0000  0.0000 -0.0000
                                            0.0000  0.0000  0.0000 -0.0000 -0.0000
                                           -0.0000  0.0000 -0.0000  0.0000  0.0000
                                            0.0000
    82. (1.99942) CR ( 1) C  16           s(100.00%)p 0.00(  0.00%)
                                            1.0000  0.0000 -0.0000  0.0000  0.0000
                                           -0.0001 -0.0000  0.0000 -0.0001  0.0000
                                            0.0000  0.0002 -0.0000 -0.0000 -0.0000
                                           -0.0000  0.0000  0.0000 -0.0000  0.0000
                                           -0.0000  0.0000 -0.0000 -0.0000  0.0000
                                           -0.0000  0.0000  0.0000  0.0000 -0.0000
                                            0.0000
    83. (1.99945) CR ( 1) C  17           s(100.00%)p 0.00(  0.00%)
                                            1.0000 -0.0000  0.0000 -0.0000  0.0000
                                            0.0001  0.0000  0.0000  0.0001  0.0000
                                            0.0000  0.0002 -0.0000 -0.0000 -0.0000
                                           -0.0000 -0.0000 -0.0000 -0.0000 -0.0000
                                            0.0000  0.0000 -0.0000 -0.0000  0.0000
                                            0.0000  0.0000  0.0000  0.0000 -0.0000
                                            0.0000
    84. (1.99945) CR ( 1) C  18           s(100.00%)p 0.00(  0.00%)
                                            1.0000 -0.0001 -0.0000  0.0000  0.0000
                                           -0.0003 -0.0000  0.0000  0.0000  0.0000
                                            0.0000  0.0000 -0.0000 -0.0000  0.0000
                                            0.0000 -0.0000  0.0000  0.0000  0.0000
                                           -0.0000 -0.0000  0.0000  0.0000  0.0000
                                            0.0000 -0.0000 -0.0000 -0.0000 -0.0000
                                            0.0000
    85. (1.99905) CR ( 1) C  19           s(100.00%)p 0.00(  0.00%)
                                            1.0000 -0.0001  0.0001  0.0000 -0.0000
                                            0.0000  0.0000  0.0000 -0.0010  0.0000
                                           -0.0000  0.0003 -0.0000  0.0000  0.0000
                                            0.0000  0.0000  0.0000 -0.0000 -0.0000
                                            0.0000  0.0000  0.0000 -0.0000 -0.0000
                                           -0.0000  0.0000 -0.0000  0.0000 -0.0000
                                            0.0000
    86. (1.99107) CR ( 1)Ni  20           s(100.00%)p 0.00(  0.00%)d 0.00(  0.00%)
                                            1.0000  0.0050  0.0000  0.0000 -0.0000
                                           -0.0000  0.0000 -0.0000 -0.0000 -0.0000
                                            0.0000 -0.0000  0.0020  0.0001  0.0000
                                           -0.0000  0.0000  0.0002 -0.0000 -0.0000
                                            0.0000 -0.0000 -0.0000 -0.0000 -0.0000
                                           -0.0000 -0.0000 -0.0005 -0.0000  0.0000
                                            0.0000  0.0000 -0.0000  0.0004  0.0000
                                            0.0000  0.0000  0.0000  0.0000 -0.0000
                                            0.0000 -0.0000  0.0000
    87. (1.99748) CR ( 2)Ni  20           s(  0.00%)p 1.00(100.00%)d 0.00(  0.00%)
                                            0.0000 -0.0000 -0.0000  0.0000  0.0000
                                            0.0000  1.0000 -0.0008 -0.0000  0.0000
                                           -0.0000 -0.0000 -0.0000  0.0000 -0.0000
                                            0.0000 -0.0000 -0.0000 -0.0000  0.0000
                                           -0.0000  0.0009 -0.0000 -0.0000 -0.0004
                                            0.0000 -0.0000  0.0000 -0.0000 -0.0000
                                            0.0000 -0.0000  0.0000  0.0000 -0.0000
                                            0.0000 -0.0000 -0.0000 -0.0000 -0.0000
                                           -0.0000 -0.0000  0.0000
    88. (1.99859) CR ( 3)Ni  20           s(  0.00%)p 1.00(100.00%)d 0.00(  0.00%)
                                           -0.0000  0.0013 -0.0000  0.0000  0.0000
                                            0.0000 -0.0000 -0.0000 -0.0000 -0.0000
                                            0.0000  1.0000 -0.0003  0.0000  0.0000
                                           -0.0000 -0.0000 -0.0002 -0.0000 -0.0000
                                            0.0000 -0.0000 -0.0000 -0.0000 -0.0000
                                            0.0000 -0.0000 -0.0000 -0.0000  0.0000
                                           -0.0005  0.0000 -0.0000 -0.0002  0.0000
                                            0.0000  0.0000  0.0000  0.0000 -0.0000
                                            0.0000 -0.0000  0.0000
    89. (1.99751) CR ( 4)Ni  20           s(  0.00%)p 1.00(100.00%)d 0.00(  0.00%)
                                            0.0000 -0.0001 -0.0000  0.0000  0.0000
                                            0.0000 -0.0000 -0.0000  0.0000  0.0000
                                            0.0000 -0.0000 -0.0007  0.0000 -0.0000
                                           -0.0000  1.0000 -0.0002 -0.0000  0.0000
                                           -0.0000  0.0000 -0.0000 -0.0000 -0.0000
                                            0.0000 -0.0000  0.0008 -0.0000 -0.0000
                                            0.0000 -0.0000  0.0000  0.0002  0.0000
                                            0.0000 -0.0000 -0.0000  0.0000 -0.0000
                                            0.0000 -0.0000 -0.0000
    90. (1.99913) CR ( 1) C  21           s(100.00%)p 0.00(  0.00%)
                                            1.0000 -0.0008 -0.0001  0.0000  0.0000
                                            0.0000 -0.0000 -0.0000  0.0004 -0.0000
                                           -0.0000  0.0007 -0.0000 -0.0000  0.0000
                                           -0.0000  0.0000 -0.0000  0.0000 -0.0000
                                           -0.0000  0.0000  0.0000 -0.0000  0.0000
                                            0.0000  0.0000 -0.0000  0.0000 -0.0000
                                           -0.0000
    91. (1.99976) CR ( 1) O  22           s(100.00%)p 0.00(  0.00%)
                                            1.0000  0.0003  0.0000 -0.0000 -0.0000
                                            0.0000  0.0000  0.0000  0.0001  0.0000
                                            0.0000  0.0003  0.0000  0.0000 -0.0000
                                           -0.0000 -0.0000 -0.0000 -0.0000 -0.0000
                                            0.0000  0.0000 -0.0000 -0.0000  0.0000
                                            0.0000  0.0000 -0.0000  0.0000 -0.0000
                                           -0.0000
    92. (1.99911) CR ( 1) C  23           s(100.00%)p 0.00(  0.00%)
                                            1.0000 -0.0007 -0.0001  0.0000  0.0000
                                            0.0006 -0.0000 -0.0000  0.0004 -0.0000
                                           -0.0000 -0.0004  0.0000  0.0000  0.0000
                                           -0.0000 -0.0000  0.0000 -0.0000  0.0000
                                           -0.0000 -0.0000 -0.0000  0.0000  0.0000
                                            0.0000  0.0000 -0.0000 -0.0000  0.0000
                                            0.0000
    93. (1.99977) CR ( 1) O  24           s(100.00%)p 0.00(  0.00%)
                                            1.0000  0.0003  0.0000 -0.0000 -0.0000
                                            0.0002  0.0000  0.0000  0.0001  0.0000
                                            0.0000 -0.0002 -0.0000 -0.0000 -0.0000
                                           -0.0000  0.0000  0.0000  0.0000  0.0000
                                           -0.0000 -0.0000  0.0000  0.0000  0.0000
                                            0.0000  0.0000 -0.0000 -0.0000  0.0000
                                            0.0000
    94. (1.99911) CR ( 1) C  25           s(100.00%)p 0.00(  0.00%)
                                            1.0000 -0.0007 -0.0001  0.0000  0.0000
                                           -0.0006  0.0000  0.0000  0.0004 -0.0000
                                           -0.0000 -0.0004  0.0000  0.0000 -0.0000
                                            0.0000  0.0000 -0.0000 -0.0000  0.0000
                                           -0.0000 -0.0000 -0.0000  0.0000  0.0000
                                           -0.0000  0.0000 -0.0000  0.0000 -0.0000
                                            0.0000
    95. (1.99977) CR ( 1) O  26           s(100.00%)p 0.00(  0.00%)
                                            1.0000  0.0003  0.0000 -0.0000 -0.0000
                                           -0.0002 -0.0000 -0.0000  0.0001  0.0000
                                            0.0000 -0.0002 -0.0000 -0.0000  0.0000
                                            0.0000 -0.0000 -0.0000  0.0000  0.0000
                                           -0.0000 -0.0000  0.0000  0.0000  0.0000
                                           -0.0000  0.0000 -0.0000  0.0000 -0.0000
                                            0.0000
    96. (1.53658) LP ( 1) N  11           s(  0.00%)p 1.00( 99.95%)d 0.00(  0.03%)
                                                  f 0.00(  0.02%)
                                           -0.0000  0.0062  0.0016  0.0003  0.0001
                                            0.0019  0.0007 -0.0004  0.2984  0.0010
                                            0.0047  0.9540  0.0033  0.0151  0.0048
                                           -0.0009  0.0155 -0.0025 -0.0004 -0.0007
                                            0.0010 -0.0001  0.0003 -0.0000 -0.0112
                                           -0.0005 -0.0092  0.0033  0.0011 -0.0006
                                            0.0009
    97. (1.90112) LP ( 1)Ni  20           s(  0.00%)p 1.00(  0.72%)d99.99( 99.28%)
                                                  f 0.00(  0.00%)
                                            0.0000  0.0000  0.0000  0.0000 -0.0000
                                            0.0000 -0.0010 -0.0842 -0.0107  0.0045
                                           -0.0001  0.0000  0.0000 -0.0000 -0.0000
                                            0.0000 -0.0000 -0.0000 -0.0000  0.0000
                                           -0.0000  0.9958 -0.0031 -0.0029 -0.0320
                                           -0.0061 -0.0033  0.0001 -0.0000 -0.0000
                                            0.0000 -0.0000 -0.0000 -0.0000  0.0000
                                            0.0000 -0.0000  0.0001  0.0000 -0.0000
                                           -0.0013 -0.0006 -0.0000
    98. (1.88719) LP ( 2)Ni  20           s(  0.00%)p 1.00(  0.75%)d99.99( 99.25%)
                                                  f 0.00(  0.00%)
                                            0.0006  0.0054 -0.0003  0.0019 -0.0013
                                            0.0009  0.0000  0.0000  0.0000 -0.0000
                                            0.0000 -0.0001  0.0091 -0.0018  0.0004
                                           -0.0000 -0.0007 -0.0853 -0.0107  0.0049
                                           -0.0002 -0.0001 -0.0000  0.0000  0.0000
                                            0.0000  0.0000  0.9441 -0.0041 -0.0048
                                           -0.2060  0.0001  0.0009 -0.2420  0.0048
                                            0.0029 -0.0009 -0.0000  0.0007 -0.0005
                                            0.0000  0.0000 -0.0009
    99. (1.80802) LP ( 3)Ni  20           s(  0.01%)p 1.00(  2.56%)d38.09( 97.43%)
                                                  f 0.00(  0.00%)
                                            0.0003  0.0058  0.0044 -0.0024 -0.0026
                                            0.0001 -0.0000 -0.0002  0.0000  0.0000
                                            0.0000  0.0002 -0.0288  0.0007 -0.0005
                                           -0.0000  0.0002  0.1572 -0.0040 -0.0035
                                           -0.0000 -0.0001  0.0000  0.0000 -0.0012
                                           -0.0000 -0.0000 -0.0225  0.0011  0.0006
                                            0.6756  0.0018  0.0014 -0.7193 -0.0019
                                           -0.0015  0.0004  0.0000 -0.0018 -0.0004
                                           -0.0000  0.0000  0.0009
   100. (1.80679) LP ( 4)Ni  20           s(  0.00%)p 1.00(  3.10%)d31.26( 96.90%)
                                                  f 0.00(  0.00%)
                                            0.0000  0.0000  0.0000 -0.0000 -0.0000
                                            0.0000  0.0005  0.1760 -0.0018 -0.0036
                                           -0.0001  0.0000 -0.0001  0.0000 -0.0000
                                           -0.0000  0.0000  0.0002 -0.0000 -0.0000
                                           -0.0000  0.0465 -0.0017 -0.0011  0.9833
                                            0.0002  0.0015 -0.0000  0.0000  0.0000
                                            0.0009  0.0000  0.0000 -0.0008 -0.0000
                                           -0.0000  0.0000 -0.0005 -0.0000 -0.0000
                                            0.0021 -0.0006  0.0000
   101. (1.76369) LP ( 5)Ni  20           s(  0.03%)p99.99(  5.03%)d99.99( 94.94%)
                                                  f 0.01(  0.00%)
                                           -0.0004  0.0170  0.0073  0.0008 -0.0003
                                           -0.0003  0.0000  0.0000 -0.0000 -0.0000
                                           -0.0000 -0.0004  0.2209 -0.0119 -0.0026
                                            0.0001  0.0005  0.0366  0.0018 -0.0016
                                           -0.0000 -0.0000  0.0000 -0.0000  0.0001
                                            0.0000  0.0000 -0.3080 -0.0000 -0.0018
                                           -0.6782 -0.0007 -0.0032 -0.6281 -0.0003
                                           -0.0035 -0.0013 -0.0000 -0.0004  0.0009
                                            0.0000  0.0000  0.0008
   102. (1.97908) LP ( 1) O  22           s( 53.06%)p 0.88( 46.79%)d 0.00(  0.14%)
                                                  f 0.00(  0.00%)
                                           -0.0004  0.7284  0.0087 -0.0001 -0.0004
                                            0.0000  0.0000  0.0000  0.2875  0.0043
                                            0.0024  0.6206  0.0091  0.0051 -0.0000
                                           -0.0000 -0.0000 -0.0000 -0.0246 -0.0004
                                            0.0057  0.0001 -0.0276 -0.0004  0.0028
                                            0.0000  0.0043 -0.0017  0.0000 -0.0000
                                           -0.0003
   103. (1.97873) LP ( 1) O  24           s( 52.75%)p 0.89( 47.11%)d 0.00(  0.14%)
                                                  f 0.00(  0.00%)
                                           -0.0004  0.7262  0.0090 -0.0002 -0.0004
                                            0.5145  0.0076  0.0041  0.2748  0.0039
                                            0.0020 -0.3614 -0.0053 -0.0028 -0.0196
                                           -0.0003  0.0259  0.0004  0.0138  0.0002
                                           -0.0131 -0.0002  0.0031  0.0001  0.0023
                                            0.0010  0.0005 -0.0022 -0.0033  0.0003
                                            0.0026
   104. (1.97873) LP ( 1) O  26           s( 52.75%)p 0.89( 47.11%)d 0.00(  0.14%)
                                                  f 0.00(  0.00%)
                                           -0.0004  0.7262  0.0090 -0.0002 -0.0004
                                           -0.5146 -0.0076 -0.0041  0.2749  0.0039
                                            0.0020 -0.3613 -0.0053 -0.0028  0.0196
                                            0.0003 -0.0259 -0.0004  0.0138  0.0002
                                           -0.0131 -0.0002  0.0032  0.0001  0.0023
                                           -0.0010  0.0005 -0.0022  0.0033 -0.0003
                                            0.0026
   105. (0.00127) RY*( 1) C   1           s(  3.32%)p23.25( 77.18%)d 5.50( 18.27%)
                                                  f 0.37(  1.24%)
                                            0.0000  0.0024  0.1813  0.0168  0.0064
                                            0.0073 -0.1925 -0.0471  0.0119  0.2636
                                            0.0215  0.0064  0.8136 -0.0170 -0.0520
                                           -0.0986 -0.2694 -0.1270 -0.0553  0.0352
                                            0.2331 -0.0828  0.0974 -0.0807 -0.0277
                                            0.0155 -0.0431  0.0491 -0.0486 -0.0684
                                           -0.0079
   106. (0.00097) RY*( 2) C   1           s(  9.04%)p 8.39( 75.80%)d 1.63( 14.70%)
                                                  f 0.05(  0.46%)
                                            0.0000  0.0010  0.3006  0.0060 -0.0028
                                            0.0042 -0.5398  0.0274  0.0136  0.5280
                                           -0.0677 -0.0016 -0.4267  0.0151 -0.1915
                                           -0.0435 -0.0675  0.1200  0.0738  0.0668
                                            0.2411  0.0872 -0.0872  0.0786 -0.0046
                                            0.0093 -0.0072  0.0514  0.0304 -0.0191
                                            0.0229
   107. (0.00032) RY*( 3) C   1           s(  1.73%)p16.22( 28.08%)d40.00( 69.26%)
                                                  f 0.53(  0.93%)
                                           -0.0000  0.0032  0.1251  0.0391 -0.0116
                                           -0.0010 -0.0180 -0.0776 -0.0113 -0.1537
                                            0.0776  0.0240  0.0140 -0.4939 -0.3943
                                            0.3339 -0.3050 -0.0966 -0.1314  0.0476
                                           -0.2188 -0.1246 -0.4683  0.1449  0.0194
                                           -0.0422  0.0044  0.0401  0.0241  0.0487
                                            0.0502
   108. (0.00024) RY*( 4) C   1           s(  6.46%)p11.46( 74.04%)d 2.84( 18.34%)
                                                  f 0.18(  1.16%)
                                            0.0000  0.0073  0.2510 -0.0353 -0.0177
                                            0.0126 -0.5038 -0.2614  0.0069 -0.6067
                                           -0.1388 -0.0055 -0.0662 -0.1621  0.3454
                                           -0.0618 -0.1153  0.0556  0.0377 -0.0124
                                            0.0758 -0.0575  0.1039 -0.1501  0.0072
                                            0.0281  0.0087 -0.0056 -0.0054 -0.0748
                                           -0.0706
   109. (0.00014) RY*( 5) C   1           s(  4.78%)p 9.94( 47.49%)d 8.71( 41.62%)
                                                  f 1.28(  6.11%)
                                            0.0000  0.0056  0.0619  0.2064 -0.0364
                                            0.0081  0.3118 -0.0795  0.0050  0.2704
                                            0.0928  0.0027 -0.1739 -0.5093  0.4060
                                           -0.2886 -0.1627 -0.2041  0.1693 -0.1946
                                            0.1495 -0.0682 -0.0712 -0.0358  0.1094
                                            0.0317  0.0005 -0.0749 -0.0281 -0.1083
                                           -0.1730
   110. (0.00015) RY*( 6) C   1           s( 21.69%)p 0.78( 16.85%)d 2.26( 48.98%)
                                                  f 0.58( 12.49%)
                                           -0.0000 -0.0075  0.4537  0.0957  0.0427
                                           -0.0254  0.1727  0.2269 -0.0007 -0.0252
                                            0.2239 -0.0058 -0.1282 -0.1390 -0.1598
                                            0.0202 -0.1029  0.0630 -0.0522  0.0888
                                           -0.1998 -0.0130  0.5483 -0.3130  0.0657
                                           -0.2656 -0.0873  0.0364 -0.0606  0.0356
                                            0.1900
   111. (0.00009) RY*( 7) C   1           s(  7.23%)p 2.96( 21.37%)d 9.11( 65.82%)
                                                  f 0.77(  5.57%)
   112. (0.00006) RY*( 8) C   1           s(  4.74%)p 0.98(  4.63%)d17.35( 82.23%)
                                                  f 1.77(  8.40%)
   113. (0.00007) RY*( 9) C   1           s( 14.25%)p 4.20( 59.85%)d 1.61( 22.87%)
                                                  f 0.21(  3.03%)
   114. (0.00004) RY*(10) C   1           s(  5.06%)p 5.07( 25.66%)d11.90( 60.29%)
                                                  f 1.78(  8.99%)
   115. (0.00002) RY*(11) C   1           s( 23.13%)p 1.82( 42.07%)d 1.36( 31.54%)
                                                  f 0.14(  3.26%)
   116. (0.00001) RY*(12) C   1           s(  9.08%)p 8.25( 74.86%)d 1.63( 14.81%)
                                                  f 0.14(  1.25%)
   117. (0.00000) RY*(13) C   1           s( 12.29%)p 0.68(  8.32%)d 6.41( 78.82%)
                                                  f 0.05(  0.57%)
   118. (0.00000) RY*(14) C   1           s( 99.56%)p 0.00(  0.10%)d 0.00(  0.29%)
                                                  f 0.00(  0.05%)
   119. (0.00000) RY*(15) C   1           s(  0.36%)p 2.44(  0.88%)d99.99( 98.52%)
                                                  f 0.65(  0.23%)
   120. (0.00001) RY*(16) C   1           s( 71.08%)p 0.35( 24.76%)d 0.06(  3.99%)
                                                  f 0.00(  0.17%)
   121. (0.00001) RY*(17) C   1           s(  0.04%)p84.39(  3.43%)d99.99( 96.50%)
                                                  f 0.84(  0.03%)
   122. (0.00000) RY*(18) C   1           s(  2.72%)p 2.02(  5.49%)d33.45( 91.08%)
                                                  f 0.26(  0.71%)
   123. (0.00000) RY*(19) C   1           s(  0.82%)p 1.95(  1.59%)d99.99( 97.54%)
                                                  f 0.06(  0.05%)
   124. (0.00000) RY*(20) C   1           s(  0.18%)p 9.81(  1.76%)d46.28(  8.28%)
                                                  f99.99( 89.79%)
   125. (0.00000) RY*(21) C   1           s(  1.33%)p 0.70(  0.94%)d 5.46(  7.28%)
                                                  f67.86( 90.45%)
   126. (0.00000) RY*(22) C   1           s(  0.08%)p12.96(  1.02%)d50.05(  3.93%)
                                                  f99.99( 94.98%)
   127. (0.00000) RY*(23) C   1           s(  0.10%)p12.92(  1.25%)d65.04(  6.30%)
                                                  f99.99( 92.36%)
   128. (0.00000) RY*(24) C   1           s(  0.39%)p 4.50(  1.76%)d11.32(  4.43%)
                                                  f99.99( 93.41%)
   129. (0.00000) RY*(25) C   1           s(  0.29%)p 2.67(  0.76%)d17.60(  5.03%)
                                                  f99.99( 93.92%)
   130. (0.00000) RY*(26) C   1           s(  0.31%)p 1.80(  0.57%)d27.83(  8.74%)
                                                  f99.99( 90.38%)
   131. (0.00313) RY*( 1) C   2           s(  6.78%)p11.56( 78.32%)d 2.18( 14.78%)
                                                  f 0.02(  0.12%)
                                            0.0000  0.0004  0.2599  0.0122 -0.0089
                                            0.0008 -0.0604 -0.0261  0.0308  0.8714
                                           -0.0762 -0.0012 -0.1050 -0.0422  0.0201
                                            0.0579  0.0584  0.0854 -0.2147  0.0332
                                           -0.1501 -0.1978 -0.1325 -0.0833  0.0222
                                           -0.0124 -0.0100 -0.0001  0.0194  0.0078
                                           -0.0035
   132. (0.00168) RY*( 2) C   2           s(  0.22%)p99.99( 81.93%)d77.02( 17.33%)
                                                  f 2.32(  0.52%)
                                            0.0000 -0.0028  0.0461  0.0079 -0.0071
                                            0.0044  0.8673 -0.0765  0.0033  0.0181
                                           -0.0198  0.0001 -0.2342  0.0751 -0.1825
                                            0.1002 -0.0145 -0.0379  0.0406  0.0932
                                           -0.2240 -0.0696  0.2003  0.1511 -0.0525
                                            0.0179  0.0162  0.0324  0.0015  0.0169
                                           -0.0232
   133. (0.00134) RY*( 3) C   2           s(  3.55%)p18.04( 64.12%)d 8.93( 31.72%)
                                                  f 0.17(  0.61%)
                                            0.0000  0.0089  0.1695  0.0816  0.0077
                                            0.0009 -0.1980 -0.0222  0.0128 -0.0820
                                            0.0171 -0.0032 -0.7694 -0.0484  0.0029
                                           -0.1257 -0.0570 -0.4495  0.0898 -0.2136
                                           -0.1227  0.1202 -0.0298 -0.1094 -0.0582
                                           -0.0321 -0.0088 -0.0206  0.0248 -0.0169
                                           -0.0168
   134. (0.00076) RY*( 4) C   2           s(  1.56%)p 6.66( 10.40%)d55.28( 86.38%)
                                                  f 1.06(  1.65%)
                                            0.0000 -0.0014  0.1194  0.0323 -0.0181
                                           -0.0014  0.1938  0.1165  0.0088  0.0134
                                            0.0142  0.0011  0.1589 -0.1649  0.0792
                                           -0.6323  0.0038  0.1640 -0.0912 -0.0500
                                           -0.2093  0.3641  0.1049 -0.4823 -0.0915
                                            0.0092  0.0047  0.0536  0.0693 -0.0010
                                           -0.0193
   135. (0.00063) RY*( 5) C   2           s(  0.57%)p38.57( 22.10%)d99.99( 76.54%)
                                                  f 1.38(  0.79%)
                                           -0.0000 -0.0038 -0.0458  0.0600 -0.0039
                                            0.0054  0.0160  0.0498  0.0030  0.2048
                                            0.0284 -0.0106  0.4159 -0.0492 -0.1717
                                            0.0463 -0.0818 -0.3805  0.1651 -0.6040
                                           -0.2617  0.2197  0.0021  0.2709  0.0018
                                            0.0167  0.0677  0.0403  0.0044 -0.0272
                                           -0.0258
   136. (0.00047) RY*( 6) C   2           s( 42.16%)p 0.29( 12.26%)d 1.00( 41.96%)
                                                  f 0.09(  3.62%)
                                            0.0000  0.0015  0.6413  0.1009 -0.0137
                                            0.0176 -0.2226 -0.0057  0.0157 -0.2025
                                            0.0921  0.0055  0.1338 -0.0712 -0.3136
                                            0.3132  0.0043  0.0858 -0.1017  0.1193
                                           -0.1968  0.0736  0.3805 -0.0477 -0.0794
                                           -0.1368  0.1003  0.0255 -0.0140  0.0076
                                            0.0144
   137. (0.00038) RY*( 7) C   2           s( 12.49%)p 2.31( 28.87%)d 4.44( 55.52%)
                                                  f 0.25(  3.11%)
                                            0.0000 -0.0022  0.3326  0.1156 -0.0308
                                           -0.0004  0.1189 -0.3295  0.0094 -0.0870
                                            0.0742  0.0067  0.2813  0.2714  0.2673
                                           -0.1753  0.2859 -0.5241 -0.1763  0.1407
                                            0.1349 -0.1234 -0.1105 -0.0076  0.0481
                                            0.0120 -0.0856 -0.1097  0.0915 -0.0137
                                           -0.0279
   138. (0.00024) RY*( 8) C   2           s( 12.64%)p 0.89( 11.25%)d 5.35( 67.65%)
                                                  f 0.67(  8.46%)
                                           -0.0000 -0.0027  0.3482  0.0112  0.0706
                                           -0.0072  0.0360 -0.2045  0.0106 -0.0811
                                           -0.1179 -0.0113 -0.0656  0.2105  0.0862
                                           -0.2197 -0.4336  0.3076 -0.1428 -0.1573
                                            0.1026  0.1778 -0.2890  0.4091  0.0444
                                           -0.0507  0.0354  0.0870 -0.0638  0.2166
                                            0.1424
   139. (0.00015) RY*( 9) C   2           s( 11.66%)p 2.61( 30.46%)d 4.63( 54.00%)
                                                  f 0.33(  3.89%)
                                           -0.0000  0.0008  0.3370  0.0472  0.0286
                                           -0.0147  0.3005  0.3195 -0.0007 -0.0048
                                            0.1118  0.0049  0.0387 -0.3129  0.1606
                                            0.2680 -0.1068 -0.0356  0.1777 -0.1761
                                            0.4851  0.0239 -0.2750 -0.2357  0.0550
                                           -0.0494  0.0408 -0.0658 -0.1282 -0.1048
                                           -0.0008
   140. (0.00011) RY*(10) C   2           s(  1.61%)p15.21( 24.47%)d39.90( 64.21%)
                                                  f 6.03(  9.71%)
                                            0.0000  0.0067  0.1029 -0.0596 -0.0437
                                            0.0148 -0.0109 -0.2757 -0.0126  0.0472
                                           -0.3700  0.0185 -0.0505 -0.1619 -0.3183
                                           -0.2849  0.2454  0.1371  0.1365 -0.2689
                                            0.4227 -0.1460  0.2878  0.0825  0.0814
                                            0.0520  0.0660 -0.2376 -0.0140 -0.1492
                                           -0.0671
   141. (0.00010) RY*(11) C   2           s(  3.84%)p 5.41( 20.81%)d14.84( 57.07%)
                                                  f 4.76( 18.28%)
   142. (0.00007) RY*(12) C   2           s(  0.07%)p99.99( 37.47%)d99.99( 45.96%)
                                                  f99.99( 16.51%)
   143. (0.00005) RY*(13) C   2           s(  2.73%)p 6.72( 18.34%)d26.18( 71.40%)
                                                  f 2.76(  7.53%)
   144. (0.00005) RY*(14) C   2           s(  6.85%)p 2.43( 16.63%)d 6.24( 42.70%)
                                                  f 4.94( 33.83%)
   145. (0.00001) RY*(15) C   2           s( 90.62%)p 0.01(  1.23%)d 0.06(  5.78%)
                                                  f 0.03(  2.37%)
   146. (0.00001) RY*(16) C   2           s(  2.88%)p 9.19( 26.45%)d23.70( 68.19%)
                                                  f 0.86(  2.48%)
   147. (0.00001) RY*(17) C   2           s(  0.48%)p95.33( 45.72%)d99.99( 53.06%)
                                                  f 1.54(  0.74%)
   148. (0.00001) RY*(18) C   2           s(  0.87%)p23.55( 20.40%)d74.04( 64.12%)
                                                  f16.87( 14.61%)
   149. (0.00000) RY*(19) C   2           s( 97.96%)p 0.00(  0.17%)d 0.02(  1.72%)
                                                  f 0.00(  0.14%)
   150. (0.00000) RY*(20) C   2           s(  0.01%)p99.99(  2.62%)d99.99( 20.64%)
                                                  f99.99( 76.73%)
   151. (0.00001) RY*(21) C   2           s(  0.10%)p99.99( 34.40%)d99.99( 11.65%)
                                                  f99.99( 53.86%)
   152. (0.00001) RY*(22) C   2           s(  0.07%)p11.48(  0.81%)d99.99(  7.78%)
                                                  f99.99( 91.34%)
   153. (0.00000) RY*(23) C   2           s(  0.02%)p69.77(  1.60%)d99.99( 17.31%)
                                                  f99.99( 81.07%)
   154. (0.00001) RY*(24) C   2           s(  0.15%)p20.16(  2.93%)d60.85(  8.86%)
                                                  f99.99( 88.06%)
   155. (0.00000) RY*(25) C   2           s(  0.02%)p99.99(  4.75%)d99.99(  9.00%)
                                                  f99.99( 86.23%)
   156. (0.00001) RY*(26) C   2           s(  0.01%)p99.99(  1.95%)d99.99(  4.33%)
                                                  f99.99( 93.71%)
   157. (0.00137) RY*( 1) C   3           s(  4.80%)p16.27( 78.06%)d 3.39( 16.25%)
                                                  f 0.19(  0.89%)
                                            0.0000  0.0035  0.1277  0.1779  0.0024
                                            0.0077  0.8602  0.0552  0.0138  0.1597
                                            0.0630  0.0095  0.0583 -0.0660 -0.1318
                                            0.0784 -0.2076 -0.0434 -0.0459 -0.0393
                                            0.2765  0.0441 -0.0682 -0.0851  0.0425
                                            0.0341 -0.0234 -0.0496  0.0102  0.0406
                                           -0.0342
   158. (0.00092) RY*( 2) C   3           s(  8.30%)p 9.39( 77.89%)d 1.63( 13.50%)
                                                  f 0.04(  0.31%)
                                           -0.0000 -0.0013  0.1640  0.2369  0.0013
                                            0.0007 -0.1101  0.0162  0.0123  0.3365
                                            0.1006 -0.0083 -0.8000  0.0540  0.1440
                                            0.0165 -0.0773  0.0743 -0.0324 -0.0108
                                            0.1626  0.0840  0.1337  0.2236  0.0229
                                            0.0169  0.0257 -0.0221 -0.0210  0.0195
                                           -0.0172
   159. (0.00037) RY*( 3) C   3           s(  0.52%)p99.99( 82.16%)d33.05( 17.17%)
                                                  f 0.28(  0.15%)
                                           -0.0000 -0.0054  0.0687  0.0144  0.0156
                                            0.0081 -0.2093 -0.1338 -0.0132  0.7351
                                            0.1933  0.0038  0.4157  0.0954  0.1110
                                           -0.0677 -0.2871  0.1187 -0.1634  0.0493
                                           -0.0868  0.1164 -0.0099 -0.0895  0.0230
                                           -0.0099  0.0167  0.0134 -0.0004  0.0061
                                            0.0184
   160. (0.00027) RY*( 4) C   3           s(  3.40%)p 5.13( 17.44%)d22.59( 76.72%)
                                                  f 0.72(  2.45%)
                                           -0.0000  0.0001  0.1440  0.1148  0.0077
                                           -0.0029 -0.1873  0.0104  0.0200  0.1881
                                            0.2685 -0.0106  0.1678  0.0551 -0.1995
                                            0.1014  0.3898 -0.3020  0.4417 -0.3554
                                            0.3839 -0.0696 -0.0053  0.0170 -0.0557
                                            0.0038 -0.1087 -0.0525 -0.0266  0.0280
                                           -0.0727
   161. (0.00018) RY*( 5) C   3           s( 22.68%)p 0.24(  5.46%)d 2.70( 61.32%)
                                                  f 0.46( 10.54%)
                                           -0.0000 -0.0035  0.0956  0.4661  0.0197
                                            0.0116 -0.1718 -0.0095 -0.0074 -0.0535
                                           -0.0451 -0.0218  0.0950 -0.1022 -0.0597
                                            0.1192  0.2696 -0.0818 -0.5184  0.2832
                                            0.2025 -0.1841 -0.3003 -0.0457 -0.0015
                                           -0.1220  0.1874 -0.1356 -0.1491  0.1125
                                           -0.0454
   162. (0.00017) RY*( 6) C   3           s(  2.29%)p 6.59( 15.07%)d33.77( 77.18%)
                                                  f 2.39(  5.47%)
                                           -0.0000 -0.0042 -0.0496  0.1412  0.0206
                                           -0.0018  0.2009  0.1179 -0.0003 -0.0092
                                            0.0959 -0.0208  0.0420  0.2914  0.4049
                                           -0.2987  0.3796 -0.1840 -0.1634 -0.0676
                                           -0.1364  0.1041  0.4534 -0.2729 -0.0534
                                           -0.0633  0.0526 -0.0422 -0.2052 -0.0187
                                            0.0281
   163. (0.00011) RY*( 7) C   3           s( 29.97%)p 0.61( 18.41%)d 1.61( 48.17%)
                                                  f 0.12(  3.46%)
                                            0.0000  0.0059  0.1132  0.5350 -0.0256
                                            0.0018 -0.1168  0.0069 -0.0056 -0.0879
                                           -0.1890  0.0217  0.0131 -0.3553  0.2141
                                           -0.2949 -0.2456 -0.0327  0.3328 -0.1769
                                           -0.1736  0.0112 -0.1523 -0.3033  0.0902
                                            0.0781 -0.0763 -0.1045  0.0093 -0.0568
                                            0.0169
   164. (0.00007) RY*( 8) C   3           s( 17.28%)p 1.01( 17.42%)d 3.18( 54.92%)
                                                  f 0.60( 10.38%)
   165. (0.00005) RY*( 9) C   3           s(  7.52%)p 7.61( 57.23%)d 3.92( 29.47%)
                                                  f 0.77(  5.78%)
   166. (0.00004) RY*(10) C   3           s(  3.54%)p15.83( 56.09%)d 9.94( 35.23%)
                                                  f 1.45(  5.13%)
   167. (0.00003) RY*(11) C   3           s( 14.20%)p 2.89( 41.03%)d 2.09( 29.64%)
                                                  f 1.07( 15.13%)
   168. (0.00003) RY*(12) C   3           s( 12.50%)p 2.90( 36.25%)d 3.88( 48.52%)
                                                  f 0.22(  2.72%)
   169. (0.00000) RY*(13) C   3           s(  2.09%)p 1.74(  3.64%)d45.06( 94.08%)
                                                  f 0.09(  0.20%)
   170. (0.00001) RY*(14) C   3           s( 45.90%)p 1.07( 49.11%)d 0.09(  4.05%)
                                                  f 0.02(  0.95%)
   171. (0.00000) RY*(15) C   3           s(  0.41%)p 3.95(  1.63%)d99.99( 97.53%)
                                                  f 1.04(  0.43%)
   172. (0.00000) RY*(16) C   3           s(  1.23%)p 0.47(  0.58%)d79.61( 98.02%)
                                                  f 0.13(  0.16%)
   173. (0.00001) RY*(17) C   3           s(  4.98%)p 1.22(  6.08%)d17.71( 88.24%)
                                                  f 0.14(  0.70%)
   174. (0.00000) RY*(18) C   3           s( 99.20%)p 0.01(  0.58%)d 0.00(  0.14%)
                                                  f 0.00(  0.08%)
   175. (0.00001) RY*(19) C   3           s( 16.50%)p 1.11( 18.37%)d 3.90( 64.40%)
                                                  f 0.04(  0.72%)
   176. (0.00001) RY*(20) C   3           s(  0.50%)p 5.36(  2.65%)d17.22(  8.52%)
                                                  f99.99( 88.33%)
   177. (0.00000) RY*(21) C   3           s(  0.21%)p24.13(  5.05%)d13.49(  2.82%)
                                                  f99.99( 91.92%)
   178. (0.00000) RY*(22) C   3           s(  0.24%)p 5.85(  1.39%)d38.78(  9.25%)
                                                  f99.99( 89.12%)
   179. (0.00000) RY*(23) C   3           s(  0.70%)p 1.88(  1.32%)d19.40( 13.68%)
                                                  f99.99( 84.30%)
   180. (0.00000) RY*(24) C   3           s(  0.76%)p 5.15(  3.93%)d 6.25(  4.77%)
                                                  f99.99( 90.54%)
   181. (0.00000) RY*(25) C   3           s(  0.31%)p11.12(  3.42%)d15.45(  4.75%)
                                                  f99.99( 91.52%)
   182. (0.00000) RY*(26) C   3           s(  0.03%)p10.42(  0.27%)d42.82(  1.09%)
                                                  f99.99( 98.61%)
   183. (0.00496) RY*( 1) C   4           s(  3.32%)p27.69( 92.00%)d 1.37(  4.54%)
                                                  f 0.04(  0.14%)
                                            0.0000 -0.0034  0.1814  0.0174  0.0002
                                           -0.0043 -0.2549 -0.0496  0.0165  0.9057
                                            0.0120 -0.0016 -0.1629 -0.0737  0.0161
                                           -0.0818  0.0032  0.0150  0.0351  0.0416
                                            0.0645  0.1425  0.0358  0.0974  0.0041
                                           -0.0282 -0.0056 -0.0081 -0.0158 -0.0101
                                            0.0096
   184. (0.00273) RY*( 2) C   4           s(  2.10%)p42.66( 89.42%)d 3.69(  7.74%)
                                                  f 0.35(  0.74%)
                                            0.0000  0.0015  0.1447  0.0034  0.0004
                                           -0.0013  0.4890 -0.0042  0.0055  0.2330
                                           -0.0380  0.0090  0.7610 -0.1418 -0.0217
                                            0.0623 -0.0607 -0.2271  0.0291  0.0496
                                            0.0796  0.0526  0.0286 -0.0677  0.0221
                                           -0.0161  0.0273  0.0350 -0.0035  0.0613
                                            0.0300
   185. (0.00231) RY*( 3) C   4           s(  1.46%)p57.40( 83.96%)d 9.34( 13.67%)
                                                  f 0.62(  0.91%)
                                           -0.0000  0.0018  0.1162 -0.0334 -0.0011
                                           -0.0065  0.7396  0.0048 -0.0054  0.1239
                                           -0.1364 -0.0047 -0.4770  0.1759 -0.0141
                                            0.1031  0.0452  0.2491 -0.0379  0.1013
                                            0.0396  0.0721  0.0529 -0.2014 -0.0509
                                           -0.0190 -0.0425  0.0056  0.0272  0.0550
                                            0.0236
   186. (0.00152) RY*( 4) C   4           s( 74.17%)p 0.22( 16.59%)d 0.11(  7.91%)
                                                  f 0.02(  1.33%)
                                            0.0000 -0.0008  0.8406 -0.1870  0.0092
                                            0.0137 -0.1149 -0.1920  0.0097 -0.1872
                                            0.2492 -0.0037  0.0334  0.1313 -0.0004
                                            0.1269  0.0290  0.0960 -0.0383  0.1864
                                           -0.0455 -0.0723 -0.0508  0.0825 -0.0173
                                           -0.0988  0.0506  0.0057 -0.0187 -0.0114
                                            0.0140
   187. (0.00109) RY*( 5) C   4           s( 13.07%)p 3.78( 49.38%)d 2.69( 35.20%)
                                                  f 0.18(  2.35%)
                                            0.0000 -0.0005 -0.2430  0.2672  0.0144
                                            0.0005 -0.0950 -0.4352  0.0078  0.0848
                                            0.0207 -0.0070  0.1941  0.4999 -0.1435
                                            0.1776 -0.0496  0.2216 -0.0406  0.3740
                                            0.1579 -0.2125  0.1908  0.0159  0.0208
                                            0.1173 -0.0477  0.0100  0.0366 -0.0430
                                           -0.0616
   188. (0.00084) RY*( 6) C   4           s(  2.58%)p11.59( 29.91%)d25.90( 66.80%)
                                                  f 0.28(  0.71%)
                                           -0.0000 -0.0050  0.1153 -0.1117  0.0002
                                            0.0074 -0.1627  0.0180 -0.0043 -0.0346
                                           -0.3025 -0.0003  0.1624  0.3913  0.1506
                                           -0.5358 -0.1000  0.0797  0.0570  0.0106
                                           -0.1494  0.2556  0.0664 -0.4965  0.0199
                                            0.0082 -0.0121 -0.0315  0.0243  0.0067
                                            0.0698
   189. (0.00069) RY*( 7) C   4           s(  0.38%)p99.99( 72.79%)d69.22( 26.29%)
                                                  f 1.44(  0.55%)
                                            0.0000 -0.0002  0.0367  0.0494  0.0026
                                            0.0148  0.0681 -0.7768 -0.0005 -0.0611
                                           -0.2984  0.0028 -0.1414 -0.0824 -0.0109
                                           -0.0404 -0.0900 -0.3252  0.0768 -0.2932
                                           -0.0555  0.1076 -0.1854  0.0798 -0.0545
                                           -0.0141 -0.0183  0.0067  0.0143  0.0355
                                            0.0216
   190. (0.00059) RY*( 8) C   4           s(  5.34%)p12.07( 64.47%)d 5.41( 28.90%)
                                                  f 0.24(  1.29%)
                                            0.0000  0.0061 -0.1046  0.2060  0.0020
                                            0.0008  0.1004 -0.2862  0.0138 -0.0602
                                            0.6962 -0.0059 -0.0308 -0.2515  0.0737
                                           -0.3100  0.1058  0.0875 -0.1151  0.0393
                                            0.0142  0.2911  0.1143 -0.2364  0.0550
                                            0.0302 -0.0389  0.0364 -0.0366  0.0415
                                            0.0551
   191. (0.00037) RY*( 9) C   4           s(  1.34%)p17.84( 23.84%)d53.70( 71.77%)
                                                  f 2.28(  3.05%)
                                            0.0000 -0.0052  0.1130  0.0104  0.0216
                                           -0.0047 -0.0393 -0.0069  0.0077 -0.0837
                                           -0.1544  0.0121 -0.1269 -0.4355 -0.3742
                                           -0.1668 -0.5391 -0.0089 -0.0148  0.2527
                                            0.0182 -0.1673  0.3920 -0.1143 -0.0389
                                            0.0450 -0.0645  0.1042  0.0713 -0.0827
                                           -0.0034
   192. (0.00028) RY*(10) C   4           s( 12.96%)p 0.79( 10.30%)d 5.58( 72.38%)
                                                  f 0.34(  4.35%)
                                           -0.0000 -0.0080  0.1689  0.3175  0.0160
                                            0.0089 -0.1382  0.0865  0.0063 -0.0843
                                           -0.2532 -0.0193 -0.0670 -0.0156 -0.0161
                                            0.1439  0.4189 -0.3484 -0.4523  0.0284
                                            0.1536  0.1535  0.3681 -0.1339 -0.0510
                                            0.0340 -0.0316  0.1201 -0.0969  0.1172
                                            0.0349
   193. (0.00024) RY*(11) C   4           s( 10.40%)p 2.01( 20.93%)d 6.02( 62.57%)
                                                  f 0.59(  6.10%)
                                            0.0000 -0.0059  0.1204  0.2988  0.0137
                                            0.0105 -0.1444 -0.0592  0.0151 -0.0708
                                           -0.2243 -0.0001  0.1229 -0.3379  0.1920
                                            0.3427  0.0405  0.5351  0.2901 -0.1728
                                            0.0440  0.1563  0.0842 -0.1896  0.0689
                                            0.0170 -0.0626 -0.1828  0.0670  0.1100
                                           -0.0447
   194. (0.00020) RY*(12) C   4           s( 10.32%)p 1.96( 20.27%)d 6.46( 66.62%)
                                                  f 0.27(  2.79%)
                                            0.0000  0.0021  0.1412  0.2874  0.0258
                                           -0.0017  0.0292  0.1833  0.0264 -0.0656
                                            0.2288  0.0013 -0.1216  0.3099  0.1225
                                            0.0248 -0.3480 -0.3089  0.4034 -0.2577
                                            0.3861  0.0707  0.2184  0.0572 -0.0715
                                           -0.0001 -0.0504 -0.0895  0.0073  0.1059
                                           -0.0312
   195. (0.00015) RY*(13) C   4           s( 27.32%)p 0.13(  3.60%)d 2.42( 66.11%)
                                                  f 0.11(  2.97%)
                                           -0.0000 -0.0043  0.0531  0.5200 -0.0005
                                            0.0017  0.0629  0.1435 -0.0036 -0.0063
                                           -0.0001  0.0089 -0.0173  0.1048 -0.0129
                                            0.0842 -0.2236 -0.0690 -0.0352  0.1727
                                           -0.6510  0.2885 -0.1058  0.2231  0.0735
                                           -0.0787  0.0694  0.0593  0.0743 -0.0630
                                           -0.0173
   196. (0.00010) RY*(14) C   4           s( 12.81%)p 0.29(  3.68%)d 5.89( 75.51%)
                                                  f 0.63(  8.01%)
                                            0.0000  0.0071  0.0897  0.3461 -0.0150
                                            0.0103 -0.0104  0.0808  0.0025 -0.0382
                                           -0.1172 -0.0013 -0.0311 -0.1176  0.2853
                                           -0.1961 -0.1346  0.0443 -0.1587  0.2565
                                            0.3968 -0.1465 -0.5865 -0.0350 -0.0879
                                            0.0743 -0.0262  0.2301  0.0913 -0.0070
                                            0.0696
   197. (0.00008) RY*(15) C   4           s(  0.55%)p 7.41(  4.06%)d99.99( 88.96%)
                                                  f11.77(  6.44%)
   198. (0.00006) RY*(16) C   4           s(  1.01%)p 3.87(  3.93%)d79.75( 80.84%)
                                                  f14.03( 14.22%)
   199. (0.00007) RY*(17) C   4           s(  9.74%)p 0.25(  2.44%)d 7.81( 76.13%)
                                                  f 1.20( 11.69%)
   200. (0.00003) RY*(18) C   4           s(  3.75%)p 0.36(  1.35%)d 3.27( 12.24%)
                                                  f22.06( 82.67%)
   201. (0.00001) RY*(19) C   4           s(  3.65%)p 1.71(  6.23%)d24.14( 88.05%)
                                                  f 0.57(  2.07%)
   202. (0.00001) RY*(20) C   4           s(  3.18%)p 0.08(  0.25%)d 2.80(  8.90%)
                                                  f27.55( 87.67%)
   203. (0.00000) RY*(21) C   4           s( 98.53%)p 0.00(  0.01%)d 0.00(  0.32%)
                                                  f 0.01(  1.14%)
   204. (0.00001) RY*(22) C   4           s(  0.65%)p 0.35(  0.23%)d 8.31(  5.42%)
                                                  f99.99( 93.70%)
   205. (0.00001) RY*(23) C   4           s(  0.91%)p 0.34(  0.31%)d12.45( 11.33%)
                                                  f96.11( 87.46%)
   206. (0.00000) RY*(24) C   4           s(  0.24%)p 0.95(  0.23%)d26.38(  6.46%)
                                                  f99.99( 93.06%)
   207. (0.00001) RY*(25) C   4           s(  0.01%)p 7.11(  0.07%)d99.99( 11.28%)
                                                  f99.99( 88.63%)
   208. (0.00000) RY*(26) C   4           s(  0.18%)p 0.31(  0.05%)d21.78(  3.84%)
                                                  f99.99( 95.93%)
   209. (0.00326) RY*( 1) C   5           s(  8.73%)p 8.85( 77.26%)d 1.57( 13.68%)
                                                  f 0.04(  0.33%)
                                           -0.0000  0.0000  0.2945  0.0237 -0.0045
                                           -0.0280 -0.7437  0.0564 -0.0166 -0.4530
                                            0.0741 -0.0008  0.0223  0.0636  0.1031
                                            0.2327 -0.0921  0.0407 -0.0452  0.1355
                                            0.1572 -0.0192 -0.1202 -0.0441 -0.0419
                                           -0.0177  0.0245  0.0095 -0.0052 -0.0194
                                            0.0112
   210. (0.00185) RY*( 2) C   5           s(  1.16%)p63.77( 73.85%)d21.18( 24.52%)
                                                  f 0.40(  0.46%)
                                           -0.0000  0.0029  0.0961  0.0482  0.0045
                                           -0.0039  0.2478 -0.0335 -0.0054 -0.3901
                                            0.0772  0.0012  0.7120 -0.1047  0.0350
                                            0.0979  0.1458  0.0615  0.0757 -0.3299
                                            0.1863  0.0392  0.1944  0.1442  0.0450
                                           -0.0430  0.0095 -0.0103 -0.0133  0.0014
                                           -0.0200
   211. (0.00140) RY*( 3) C   5           s(  1.29%)p48.49( 62.76%)d27.13( 35.11%)
                                                  f 0.64(  0.83%)
                                           -0.0000  0.0073  0.1045  0.0442  0.0043
                                           -0.0086 -0.4229 -0.0307 -0.0081  0.5828
                                            0.0309 -0.0011  0.3235  0.0495  0.0760
                                           -0.1632 -0.0106  0.0530  0.0838 -0.4900
                                           -0.1112  0.0886 -0.1169 -0.1863  0.0273
                                            0.0008  0.0437  0.0312 -0.0634  0.0148
                                            0.0211
   212. (0.00068) RY*( 4) C   5           s(  0.18%)p99.99( 19.20%)d99.99( 79.55%)
                                                  f 5.80(  1.06%)
                                           -0.0000  0.0041  0.0324  0.0134  0.0243
                                           -0.0030  0.0208  0.0104  0.0057  0.0433
                                           -0.0895  0.0034  0.4157  0.0933 -0.0224
                                           -0.2597  0.1520  0.1977 -0.2383  0.5986
                                           -0.1132  0.2786  0.0068 -0.3998  0.0233
                                           -0.0189  0.0331 -0.0771  0.0421 -0.0200
                                           -0.0227
   213. (0.00064) RY*( 5) C   5           s(  1.73%)p15.28( 26.41%)d40.53( 70.06%)
                                                  f 1.04(  1.80%)
                                            0.0000 -0.0034  0.1143  0.0442 -0.0475
                                           -0.0076  0.1399  0.0274 -0.0025 -0.3761
                                           -0.0675 -0.0063 -0.3008  0.0845  0.1901
                                           -0.4385 -0.1944  0.1990  0.2179 -0.2989
                                            0.0417  0.3140  0.0351 -0.3955  0.0574
                                            0.0130 -0.0468  0.0870 -0.0460  0.0246
                                           -0.0454
   214. (0.00047) RY*( 6) C   5           s( 35.53%)p 0.60( 21.22%)d 1.09( 38.81%)
                                                  f 0.12(  4.44%)
                                            0.0000  0.0017  0.5925  0.0634 -0.0140
                                            0.0003  0.1878 -0.0583 -0.0066  0.0923
                                            0.3013 -0.0120 -0.0837 -0.2588 -0.1553
                                            0.2236 -0.1833  0.2404  0.0913  0.0825
                                           -0.3736  0.2284 -0.0476  0.1158  0.0692
                                            0.0202  0.0823 -0.1230 -0.1217  0.0486
                                            0.0107
   215. (0.00035) RY*( 7) C   5           s( 27.32%)p 0.82( 22.30%)d 1.60( 43.59%)
                                                  f 0.25(  6.78%)
                                            0.0000  0.0029  0.5165  0.0801 -0.0010
                                            0.0006  0.0866  0.0930 -0.0136  0.1398
                                           -0.1660 -0.0010 -0.1472  0.3714 -0.0568
                                            0.1126  0.3853 -0.2558  0.0994 -0.0096
                                            0.1613 -0.1198  0.3510 -0.1805  0.0242
                                           -0.1701  0.0360 -0.0815  0.0266  0.1437
                                           -0.0950
   216. (0.00024) RY*( 8) C   5           s(  7.33%)p 2.16( 15.86%)d 9.73( 71.31%)
                                                  f 0.75(  5.50%)
                                            0.0000  0.0005  0.2619  0.0506 -0.0464
                                           -0.0076  0.1430 -0.1085 -0.0220  0.2786
                                           -0.1804 -0.0109  0.1239 -0.0120  0.1464
                                           -0.0709 -0.4965  0.1120  0.1096  0.2396
                                            0.5692 -0.1337 -0.0411  0.1212 -0.0586
                                            0.0180 -0.0945  0.1866 -0.0018 -0.0815
                                           -0.0289
   217. (0.00017) RY*( 9) C   5           s(  1.41%)p 8.01( 11.27%)d54.56( 76.75%)
                                                  f 7.51( 10.57%)
                                           -0.0000  0.0015 -0.0769  0.0777 -0.0461
                                           -0.0108  0.1028 -0.0965  0.0085 -0.0210
                                           -0.3001  0.0010  0.0434  0.0162  0.3188
                                            0.3957  0.0362  0.3640  0.1609 -0.0005
                                           -0.2430 -0.4309 -0.1335 -0.2951  0.1601
                                            0.1952 -0.0201 -0.0121  0.0263  0.1294
                                           -0.1549
   218. (0.00015) RY*(10) C   5           s( 10.55%)p 0.97( 10.18%)d 6.96( 73.41%)
                                                  f 0.56(  5.86%)
                                           -0.0000 -0.0043  0.3155  0.0651  0.0412
                                           -0.0219  0.1368  0.0903  0.0066 -0.0416
                                            0.0910  0.0178 -0.0808 -0.2399  0.1572
                                           -0.2885  0.2338  0.0552 -0.5298 -0.1647
                                            0.0505 -0.3571 -0.3607 -0.0195 -0.1260
                                           -0.0353 -0.1131 -0.0293  0.1567 -0.0559
                                           -0.0124
   219. (0.00012) RY*(11) C   5           s(  2.98%)p 8.84( 26.32%)d22.17( 66.05%)
                                                  f 1.56(  4.64%)
                                            0.0000  0.0010  0.1681 -0.0350  0.0178
                                           -0.0151  0.1484  0.0299  0.0120 -0.1873
                                           -0.2093 -0.0194  0.2271  0.3303 -0.1295
                                           -0.1170 -0.2535 -0.4577  0.1430  0.0123
                                           -0.3640 -0.1500 -0.4243  0.0254 -0.0961
                                            0.0255  0.1038  0.0904 -0.0215 -0.0617
                                            0.1154
   220. (0.00007) RY*(12) C   5           s(  3.29%)p 8.66( 28.50%)d16.50( 54.27%)
                                                  f 4.24( 13.95%)
   221. (0.00003) RY*(13) C   5           s( 49.91%)p 0.11(  5.32%)d 0.53( 26.26%)
                                                  f 0.37( 18.51%)
   222. (0.00003) RY*(14) C   5           s(  1.36%)p40.52( 55.29%)d23.96( 32.70%)
                                                  f 7.80( 10.64%)
   223. (0.00004) RY*(15) C   5           s(  1.53%)p19.03( 29.10%)d23.78( 36.35%)
                                                  f21.60( 33.03%)
   224. (0.00001) RY*(16) C   5           s( 11.78%)p 0.34(  4.00%)d 5.58( 65.73%)
                                                  f 1.57( 18.49%)
   225. (0.00001) RY*(17) C   5           s(  1.63%)p13.69( 22.30%)d44.44( 72.36%)
                                                  f 2.28(  3.72%)
   226. (0.00001) RY*(18) C   5           s(  1.12%)p53.80( 60.27%)d18.22( 20.41%)
                                                  f16.25( 18.20%)
   227. (0.00001) RY*(19) C   5           s( 17.71%)p 0.13(  2.29%)d 1.17( 20.72%)
                                                  f 3.35( 59.27%)
   228. (0.00001) RY*(20) C   5           s( 10.31%)p 0.82(  8.41%)d 1.99( 20.50%)
                                                  f 5.90( 60.78%)
   229. (0.00000) RY*(21) C   5           s( 97.76%)p 0.00(  0.08%)d 0.02(  1.57%)
                                                  f 0.01(  0.60%)
   230. (0.00001) RY*(22) C   5           s(  3.38%)p 0.25(  0.85%)d 1.85(  6.24%)
                                                  f26.46( 89.53%)
   231. (0.00000) RY*(23) C   5           s(  0.25%)p10.55(  2.65%)d48.94( 12.29%)
                                                  f99.99( 84.81%)
   232. (0.00000) RY*(24) C   5           s(  0.85%)p 3.20(  2.71%)d16.65( 14.09%)
                                                  f97.28( 82.35%)
   233. (0.00000) RY*(25) C   5           s(  0.23%)p50.93( 11.80%)d63.19( 14.64%)
                                                  f99.99( 73.32%)
   234. (0.00000) RY*(26) C   5           s(  0.61%)p 0.44(  0.27%)d14.17(  8.63%)
                                                  f99.99( 90.50%)
   235. (0.00130) RY*( 1) C   6           s(  5.37%)p14.24( 76.51%)d 3.23( 17.37%)
                                                  f 0.14(  0.74%)
                                            0.0000  0.0033  0.2317  0.0014  0.0053
                                           -0.0029 -0.1933 -0.0575 -0.0108  0.0293
                                            0.0405 -0.0117 -0.8484  0.0435 -0.1605
                                            0.0315  0.0778  0.1085 -0.3460 -0.0578
                                           -0.0062  0.0515  0.0434  0.0390  0.0336
                                            0.0116  0.0244  0.0104  0.0560  0.0469
                                           -0.0119
   236. (0.00089) RY*( 2) C   6           s(  4.22%)p19.08( 80.55%)d 3.49( 14.71%)
                                                  f 0.12(  0.52%)
                                            0.0000 -0.0005  0.2016  0.0393 -0.0057
                                           -0.0104 -0.8162  0.0691 -0.0050  0.2216
                                            0.0495  0.0010  0.2868 -0.0251 -0.2971
                                           -0.1130  0.1177 -0.0837  0.0220  0.0649
                                            0.1242 -0.0450 -0.0001  0.0552  0.0136
                                            0.0345  0.0085  0.0332  0.0426 -0.0001
                                            0.0286
   237. (0.00032) RY*( 3) C   6           s( 13.52%)p 4.99( 67.48%)d 1.39( 18.85%)
                                                  f 0.01(  0.15%)
                                            0.0000  0.0058  0.3630 -0.0580 -0.0090
                                            0.0060  0.2797 -0.1765 -0.0020  0.6571
                                            0.2680 -0.0035  0.1705  0.1808  0.1317
                                            0.1440  0.0378  0.0775 -0.2727  0.1508
                                            0.0948 -0.1607 -0.1043  0.0126 -0.0247
                                           -0.0021  0.0199  0.0096 -0.0086 -0.0018
                                            0.0173
   238. (0.00030) RY*( 4) C   6           s(  2.48%)p 5.97( 14.82%)d32.18( 79.90%)
                                                  f 1.13(  2.80%)
                                            0.0000  0.0039  0.1332 -0.0841  0.0030
                                           -0.0132  0.0125  0.0741 -0.0188  0.3548
                                            0.0888  0.0107 -0.0306 -0.0849 -0.0812
                                           -0.1596 -0.2103  0.0607  0.2751 -0.1144
                                           -0.5964  0.3423  0.3503 -0.1861 -0.0688
                                            0.0056 -0.0315 -0.0475 -0.0406  0.1196
                                           -0.0633
   239. (0.00017) RY*( 5) C   6           s(  5.27%)p 2.08( 10.94%)d14.51( 76.45%)
                                                  f 1.39(  7.33%)
                                           -0.0000 -0.0105  0.2104 -0.0775  0.0481
                                           -0.0195  0.0231  0.0831  0.0210 -0.1359
                                           -0.1291  0.0087  0.0807 -0.2438  0.0320
                                           -0.0339 -0.4161  0.2276 -0.1847  0.2412
                                            0.3370 -0.0802  0.5460 -0.1646 -0.0699
                                           -0.0280  0.2092  0.0411  0.0415 -0.0375
                                            0.1381
   240. (0.00011) RY*( 6) C   6           s( 17.53%)p 2.84( 49.72%)d 1.57( 27.53%)
                                                  f 0.30(  5.22%)
                                           -0.0000  0.0028  0.3488  0.2314 -0.0088
                                            0.0015 -0.1466 -0.2993  0.0079 -0.3758
                                           -0.0574 -0.0087  0.2166  0.4411  0.2958
                                            0.0203  0.1285  0.1624 -0.1476 -0.2035
                                           -0.2058  0.1271  0.1372 -0.0628 -0.1785
                                            0.0197  0.1191  0.0235 -0.0508  0.0273
                                           -0.0434
   241. (0.00011) RY*( 7) C   6           s(  6.75%)p 0.80(  5.42%)d12.07( 81.44%)
                                                  f 0.95(  6.39%)
                                           -0.0000 -0.0032  0.2574  0.0290  0.0186
                                           -0.0021 -0.0072  0.0225  0.0246  0.1060
                                            0.0533 -0.0018 -0.1974 -0.0022  0.2745
                                            0.0923  0.1271 -0.1289  0.5929 -0.4132
                                            0.3465 -0.1561  0.1362 -0.1119  0.0767
                                           -0.0209  0.1249 -0.0775  0.0760 -0.0882
                                            0.1498
   242. (0.00009) RY*( 8) C   6           s( 13.37%)p 4.36( 58.36%)d 1.67( 22.35%)
                                                  f 0.44(  5.93%)
   243. (0.00007) RY*( 9) C   6           s( 13.13%)p 3.18( 41.83%)d 3.16( 41.49%)
                                                  f 0.27(  3.55%)
   244. (0.00005) RY*(10) C   6           s( 11.55%)p 1.41( 16.32%)d 5.20( 60.11%)
                                                  f 1.04( 12.03%)
   245. (0.00003) RY*(11) C   6           s( 14.65%)p 3.60( 52.80%)d 2.01( 29.40%)
                                                  f 0.21(  3.15%)
   246. (0.00003) RY*(12) C   6           s( 35.40%)p 0.34( 12.07%)d 1.20( 42.41%)
                                                  f 0.29( 10.12%)
   247. (0.00000) RY*(13) C   6           s(  4.54%)p 0.37(  1.67%)d20.49( 92.96%)
                                                  f 0.19(  0.84%)
   248. (0.00000) RY*(14) C   6           s( 99.27%)p 0.00(  0.45%)d 0.00(  0.15%)
                                                  f 0.00(  0.13%)
   249. (0.00000) RY*(15) C   6           s( 10.12%)p 0.77(  7.78%)d 8.05( 81.49%)
                                                  f 0.06(  0.61%)
   250. (0.00001) RY*(16) C   6           s(  8.78%)p 0.95(  8.30%)d 9.39( 82.39%)
                                                  f 0.06(  0.54%)
   251. (0.00000) RY*(17) C   6           s(  0.64%)p 2.39(  1.53%)d99.99( 97.73%)
                                                  f 0.17(  0.11%)
   252. (0.00001) RY*(18) C   6           s( 12.09%)p 5.26( 63.62%)d 0.94( 11.39%)
                                                  f 1.07( 12.91%)
   253. (0.00000) RY*(19) C   6           s( 12.58%)p 0.53(  6.66%)d 6.40( 80.53%)
                                                  f 0.02(  0.22%)
   254. (0.00000) RY*(20) C   6           s(  1.02%)p 3.37(  3.45%)d10.75( 11.02%)
                                                  f82.45( 84.51%)
   255. (0.00000) RY*(21) C   6           s(  0.65%)p 0.89(  0.58%)d 0.68(  0.44%)
                                                  f99.99( 98.33%)
   256. (0.00000) RY*(22) C   6           s(  2.24%)p 2.46(  5.50%)d 4.08(  9.13%)
                                                  f37.17( 83.13%)
   257. (0.00000) RY*(23) C   6           s(  0.55%)p 6.29(  3.46%)d 3.51(  1.93%)
                                                  f99.99( 94.06%)
   258. (0.00000) RY*(24) C   6           s(  0.94%)p 1.01(  0.96%)d 2.80(  2.65%)
                                                  f99.99( 95.45%)
   259. (0.00000) RY*(25) C   6           s(  0.99%)p 0.70(  0.69%)d 4.27(  4.21%)
                                                  f95.42( 94.11%)
   260. (0.00000) RY*(26) C   6           s(  2.41%)p 3.76(  9.07%)d 4.74( 11.42%)
                                                  f31.98( 77.10%)
   261. (0.00143) RY*( 1) C   7           s(  1.87%)p44.43( 83.19%)d 7.66( 14.35%)
                                                  f 0.32(  0.60%)
                                            0.0000  0.0033  0.1323  0.0348 -0.0015
                                           -0.0080  0.2952 -0.0245 -0.0102 -0.8312
                                           -0.0569 -0.0092 -0.2179  0.0479 -0.2640
                                            0.0370  0.0614  0.0261 -0.1873 -0.1035
                                           -0.0107 -0.0737 -0.0302 -0.1254 -0.0039
                                            0.0384 -0.0043 -0.0342 -0.0380 -0.0222
                                           -0.0366
   262. (0.00078) RY*( 2) C   7           s( 10.12%)p 7.33( 74.19%)d 1.50( 15.20%)
                                                  f 0.05(  0.49%)
                                            0.0000 -0.0018  0.3172  0.0230  0.0046
                                           -0.0145 -0.4191  0.0996 -0.0089 -0.2539
                                           -0.0109 -0.0014  0.6976 -0.0698 -0.1030
                                           -0.0805 -0.0491 -0.1103 -0.1160  0.0138
                                           -0.2163 -0.0681  0.1967  0.1287 -0.0275
                                           -0.0126 -0.0398 -0.0337 -0.0215 -0.0191
                                           -0.0210
   263. (0.00027) RY*( 3) C   7           s(  1.76%)p39.19( 69.08%)d15.78( 27.82%)
                                                  f 0.76(  1.34%)
                                            0.0000  0.0069  0.1115 -0.0701 -0.0152
                                           -0.0098  0.6373  0.1905 -0.0021  0.1604
                                            0.0379 -0.0146  0.4146  0.2215 -0.1382
                                            0.1375  0.3692 -0.1831  0.1870 -0.0859
                                           -0.0251  0.0972 -0.0745  0.1112  0.0542
                                            0.0639 -0.0499 -0.0185 -0.0518  0.0295
                                            0.0004
   264. (0.00023) RY*( 4) C   7           s(  2.49%)p 5.90( 14.69%)d31.08( 77.37%)
                                                  f 2.19(  5.45%)
                                           -0.0000 -0.0005  0.1327  0.0851 -0.0054
                                            0.0190  0.2911  0.0019 -0.0069  0.0496
                                            0.0231  0.0040  0.1788  0.1637  0.3133
                                           -0.0839 -0.2982  0.3094 -0.4918  0.3180
                                           -0.1153  0.1117 -0.3391 -0.0081 -0.1901
                                           -0.0975 -0.0676 -0.0609 -0.0217 -0.0043
                                            0.0083
   265. (0.00020) RY*( 5) C   7           s( 11.22%)p 0.15(  1.72%)d 7.08( 79.40%)
                                                  f 0.68(  7.67%)
                                           -0.0000 -0.0058  0.3337 -0.0175  0.0216
                                           -0.0062  0.0656  0.0436  0.0084  0.0830
                                           -0.0218  0.0298  0.0497 -0.0111 -0.3573
                                            0.2765 -0.5383  0.2415  0.3772 -0.0200
                                            0.2505 -0.1419 -0.1268 -0.0107 -0.0162
                                           -0.2260  0.0851 -0.0220  0.0061 -0.1298
                                           -0.0275
   266. (0.00013) RY*( 6) C   7           s(  1.59%)p26.70( 42.33%)d30.82( 48.87%)
                                                  f 4.55(  7.21%)
                                           -0.0000 -0.0058  0.1095  0.0495  0.0373
                                            0.0041  0.1964 -0.3264 -0.0100 -0.0349
                                           -0.2857  0.0089  0.0097 -0.4417  0.1545
                                           -0.0964 -0.0574  0.0196  0.3159 -0.1198
                                           -0.4849  0.3161 -0.0378 -0.0349 -0.0047
                                           -0.0993  0.1234 -0.2035  0.0556 -0.0210
                                           -0.0452
   267. (0.00012) RY*( 7) C   7           s(  0.41%)p37.49( 15.47%)d99.99( 77.01%)
                                                  f17.23(  7.11%)
                                           -0.0000 -0.0027  0.0547  0.0246  0.0228
                                            0.0034 -0.2050 -0.2234 -0.0177  0.1556
                                           -0.0192  0.0000 -0.1647 -0.1035 -0.4100
                                            0.2614  0.2056 -0.2408 -0.2300  0.1317
                                           -0.1735 -0.0226 -0.4894  0.3052 -0.0633
                                           -0.0935 -0.1058 -0.1528 -0.1365 -0.0156
                                           -0.0703
   268. (0.00009) RY*( 8) C   7           s( 26.91%)p 0.76( 20.35%)d 1.81( 48.83%)
                                                  f 0.15(  3.92%)
   269. (0.00006) RY*( 9) C   7           s( 17.64%)p 2.28( 40.15%)d 2.25( 39.67%)
                                                  f 0.14(  2.54%)
   270. (0.00004) RY*(10) C   7           s( 60.16%)p 0.34( 20.29%)d 0.25( 15.23%)
                                                  f 0.07(  4.33%)
   271. (0.00004) RY*(11) C   7           s(  4.93%)p15.48( 76.29%)d 3.59( 17.71%)
                                                  f 0.22(  1.07%)
   272. (0.00002) RY*(12) C   7           s(  2.84%)p 3.70( 10.50%)d26.52( 75.18%)
                                                  f 4.05( 11.48%)
   273. (0.00000) RY*(13) C   7           s(  2.67%)p 0.77(  2.04%)d35.61( 94.95%)
                                                  f 0.13(  0.35%)
   274. (0.00001) RY*(14) C   7           s( 26.49%)p 0.91( 24.06%)d 1.71( 45.16%)
                                                  f 0.16(  4.29%)
   275. (0.00000) RY*(15) C   7           s(  1.44%)p 5.57(  8.01%)d62.87( 90.37%)
                                                  f 0.13(  0.19%)
   276. (0.00001) RY*(16) C   7           s( 21.79%)p 3.28( 71.42%)d 0.29(  6.32%)
                                                  f 0.02(  0.46%)
   277. (0.00000) RY*(17) C   7           s(  0.84%)p11.31(  9.50%)d99.99( 89.47%)
                                                  f 0.23(  0.19%)
   278. (0.00000) RY*(18) C   7           s(  1.06%)p 5.49(  5.82%)d87.36( 92.76%)
                                                  f 0.33(  0.35%)
   279. (0.00000) RY*(19) C   7           s( 99.46%)p 0.00(  0.38%)d 0.00(  0.08%)
                                                  f 0.00(  0.08%)
   280. (0.00000) RY*(20) C   7           s(  0.04%)p55.72(  2.43%)d99.99( 13.97%)
                                                  f99.99( 83.56%)
   281. (0.00000) RY*(21) C   7           s(  1.36%)p 1.12(  1.52%)d 7.25(  9.85%)
                                                  f64.21( 87.27%)
   282. (0.00000) RY*(22) C   7           s(  0.48%)p 6.17(  2.94%)d 7.95(  3.79%)
                                                  f99.99( 92.79%)
   283. (0.00000) RY*(23) C   7           s(  2.32%)p 0.46(  1.07%)d 2.85(  6.62%)
                                                  f38.73( 89.99%)
   284. (0.00000) RY*(24) C   7           s(  0.07%)p 5.64(  0.42%)d41.70(  3.09%)
                                                  f99.99( 96.42%)
   285. (0.00000) RY*(25) C   7           s(  0.09%)p25.91(  2.34%)d60.32(  5.45%)
                                                  f99.99( 92.11%)
   286. (0.00000) RY*(26) C   7           s(  0.03%)p13.12(  0.33%)d36.63(  0.93%)
                                                  f99.99( 98.71%)
   287. (0.00667) RY*( 1) N   8           s(  9.97%)p 7.89( 78.63%)d 1.12( 11.15%)
                                                  f 0.03(  0.26%)
                                            0.0000 -0.0011  0.3133 -0.0384  0.0035
                                            0.0219 -0.8838  0.0121  0.0165  0.0082
                                           -0.0279 -0.0052 -0.0587 -0.0043 -0.1198
                                           -0.0778  0.0364  0.0313 -0.0502 -0.0275
                                           -0.2723 -0.0601  0.0853 -0.0214 -0.0096
                                           -0.0086  0.0133 -0.0041  0.0146  0.0447
                                            0.0019
   288. (0.00418) RY*( 2) N   8           s(  0.06%)p99.99( 98.75%)d14.40(  0.92%)
                                                  f 4.29(  0.27%)
                                            0.0000  0.0020  0.0187 -0.0168 -0.0016
                                           -0.0020  0.0727 -0.0227 -0.0009 -0.3109
                                           -0.0031  0.0026 -0.9402 -0.0309  0.0043
                                            0.0284  0.0410  0.0708 -0.0166  0.0242
                                           -0.0066 -0.0004  0.0218 -0.0158 -0.0143
                                           -0.0092  0.0061  0.0469  0.0100 -0.0038
                                            0.0091
   289. (0.00260) RY*( 3) N   8           s( 35.06%)p 1.37( 47.93%)d 0.47( 16.46%)
                                                  f 0.02(  0.55%)
                                            0.0000  0.0082  0.5921  0.0044 -0.0024
                                           -0.0055  0.2875  0.0394 -0.0021 -0.5839
                                           -0.0022 -0.0004  0.2296  0.0366  0.0570
                                            0.1619 -0.0124 -0.0715 -0.0426 -0.0243
                                           -0.3361 -0.0381  0.1118 -0.0235  0.0053
                                           -0.0485 -0.0164 -0.0056 -0.0060  0.0476
                                            0.0221
   290. (0.00169) RY*( 4) N   8           s( 50.08%)p 0.80( 39.85%)d 0.18(  9.15%)
                                                  f 0.02(  0.92%)
                                           -0.0000  0.0019  0.7069  0.0314  0.0056
                                           -0.0187  0.2122  0.0085 -0.0015  0.5710
                                            0.0168 -0.0006 -0.1621  0.0216 -0.0516
                                           -0.1565  0.0424  0.0343  0.0413  0.0150
                                            0.2432  0.0013 -0.0182  0.0013  0.0004
                                           -0.0658 -0.0118  0.0058 -0.0017  0.0649
                                            0.0225
   291. (0.00083) RY*( 5) N   8           s(  0.10%)p 2.90(  0.28%)d99.99( 96.76%)
                                                  f29.18(  2.86%)
                                            0.0000 -0.0012  0.0235  0.0206 -0.0007
                                           -0.0007  0.0099  0.0184 -0.0028  0.0233
                                           -0.0003 -0.0172 -0.0373  0.0129 -0.1773
                                            0.0176 -0.6835  0.0859  0.5050  0.1889
                                           -0.2036 -0.0549 -0.3383 -0.1077 -0.0253
                                            0.0560  0.0350  0.0750 -0.1204  0.0462
                                            0.0369
   292. (0.00065) RY*( 6) N   8           s(  3.16%)p 9.41( 29.71%)d20.26( 63.97%)
                                                  f 1.00(  3.17%)
                                           -0.0000 -0.0120  0.1445  0.1025  0.0059
                                           -0.0047 -0.2160 -0.0163 -0.0321 -0.4427
                                            0.1973  0.0089  0.1169 -0.0214  0.0485
                                           -0.2003  0.0480  0.0391  0.2431  0.0525
                                            0.6994  0.0004 -0.1953  0.0654  0.0228
                                            0.0572 -0.0343 -0.0046 -0.0294 -0.1052
                                            0.1214
   293. (0.00058) RY*( 7) N   8           s(  0.22%)p 7.78(  1.71%)d99.99( 96.59%)
                                                  f 6.77(  1.48%)
                                           -0.0000 -0.0030  0.0295  0.0361  0.0031
                                           -0.0019 -0.0273  0.0317 -0.0046 -0.0538
                                           -0.0363 -0.0090  0.0068 -0.1046 -0.1366
                                            0.0342 -0.6633  0.1066 -0.5479 -0.0898
                                            0.2885  0.0313  0.3114  0.0723 -0.0089
                                           -0.0419 -0.0442 -0.0704  0.0694 -0.0353
                                           -0.0062
   294. (0.00025) RY*( 8) N   8           s(  3.41%)p 0.36(  1.22%)d27.47( 93.73%)
                                                  f 0.48(  1.64%)
                                           -0.0000 -0.0399  0.0382  0.1760  0.0103
                                            0.0102 -0.0002 -0.0468  0.0147  0.0082
                                            0.0917 -0.0037 -0.0134 -0.0322  0.0664
                                           -0.0163  0.0164  0.0216 -0.5021  0.0473
                                           -0.1513 -0.1290 -0.7589  0.2490  0.0066
                                           -0.0254 -0.0546 -0.0513  0.0070 -0.0235
                                            0.0974
   295. (0.00022) RY*( 9) N   8           s(  2.58%)p 3.73(  9.60%)d32.92( 84.82%)
                                                  f 1.17(  3.00%)
                                            0.0000  0.0009  0.0395  0.1553  0.0095
                                           -0.0222 -0.0945  0.0713  0.0312  0.0686
                                           -0.2720 -0.0062 -0.0390 -0.0160  0.8840
                                           -0.0235 -0.1867  0.0323  0.0711 -0.0605
                                            0.0016 -0.1357  0.0347 -0.0452 -0.0492
                                           -0.0007  0.1094 -0.0966 -0.0057 -0.0789
                                           -0.0084
   296. (0.00010) RY*(10) N   8           s(  0.44%)p 7.16(  3.15%)d99.99( 93.81%)
                                                  f 5.92(  2.60%)
                                            0.0000  0.0026 -0.0435  0.0471 -0.0166
                                            0.0027  0.0529  0.1123 -0.0001 -0.0493
                                           -0.0577  0.0021 -0.0744 -0.0690 -0.0807
                                           -0.5227 -0.1252 -0.6772  0.0791 -0.3435
                                           -0.0870 -0.0898  0.0069  0.2104  0.0779
                                           -0.0333 -0.0153 -0.1001 -0.0446  0.0195
                                           -0.0788
   297. (0.00008) RY*(11) N   8           s(  0.37%)p65.89( 24.41%)d99.99( 62.68%)
                                                  f33.84( 12.54%)
   298. (0.00009) RY*(12) N   8           s(  2.08%)p 6.55( 13.65%)d38.23( 79.68%)
                                                  f 2.20(  4.59%)
   299. (0.00005) RY*(13) N   8           s(  0.29%)p99.99( 61.51%)d99.99( 29.40%)
                                                  f30.27(  8.79%)
   300. (0.00003) RY*(14) N   8           s(  2.83%)p 1.59(  4.51%)d 8.22( 23.30%)
                                                  f24.48( 69.36%)
   301. (0.00003) RY*(15) N   8           s(  5.01%)p 7.71( 38.67%)d 5.03( 25.23%)
                                                  f 6.20( 31.09%)
   302. (0.00002) RY*(16) N   8           s(  0.35%)p71.57( 24.77%)d90.74( 31.40%)
                                                  f99.99( 43.49%)
   303. (0.00002) RY*(17) N   8           s( 70.77%)p 0.04(  2.54%)d 0.19( 13.21%)
                                                  f 0.19( 13.48%)
   304. (0.00001) RY*(18) N   8           s(  3.14%)p 7.03( 22.07%)d14.96( 46.95%)
                                                  f 8.87( 27.84%)
   305. (0.00001) RY*(19) N   8           s(  0.63%)p13.49(  8.53%)d99.99( 80.97%)
                                                  f15.60(  9.87%)
   306. (0.00000) RY*(20) N   8           s(  0.00%)p 1.00( 10.96%)d 0.31(  3.44%)
                                                  f 7.81( 85.59%)
   307. (0.00000) RY*(21) N   8           s(  1.77%)p16.47( 29.19%)d 0.97(  1.72%)
                                                  f37.98( 67.31%)
   308. (0.00000) RY*(22) N   8           s(  1.44%)p 8.25( 11.88%)d 2.56(  3.68%)
                                                  f57.64( 83.00%)
   309. (0.00001) RY*(23) N   8           s(  6.65%)p 3.24( 21.53%)d 2.83( 18.83%)
                                                  f 7.97( 52.99%)
   310. (0.00000) RY*(24) N   8           s(  0.40%)p18.93(  7.50%)d18.34(  7.26%)
                                                  f99.99( 84.84%)
   311. (0.00000) RY*(25) N   8           s( 98.98%)p 0.00(  0.27%)d 0.00(  0.31%)
                                                  f 0.00(  0.44%)
   312. (0.00001) RY*(26) N   8           s(  0.41%)p18.53(  7.65%)d 9.63(  3.98%)
                                                  f99.99( 87.96%)
   313. (0.00388) RY*( 1) C   9           s(  3.00%)p27.57( 82.80%)d 4.72( 14.16%)
                                                  f 0.01(  0.04%)
                                            0.0000 -0.0011  0.1725  0.0160  0.0041
                                           -0.0023 -0.2729 -0.0232 -0.0008 -0.0520
                                            0.0500 -0.0227 -0.8352  0.2229 -0.0285
                                           -0.1226  0.0319 -0.0814 -0.3117  0.0128
                                            0.0580 -0.0065  0.1310  0.0152  0.0024
                                            0.0025 -0.0027  0.0152  0.0009  0.0083
                                            0.0092
   314. (0.00327) RY*( 2) C   9           s( 18.56%)p 3.85( 71.49%)d 0.53(  9.78%)
                                                  f 0.01(  0.18%)
                                            0.0000 -0.0014  0.4289  0.0363  0.0176
                                           -0.0076 -0.5333 -0.0783  0.0140  0.6154
                                           -0.1045  0.0054  0.1820 -0.0370 -0.0914
                                           -0.1760  0.0537  0.0926  0.0495  0.0155
                                           -0.1418 -0.0148 -0.1530  0.0245  0.0128
                                            0.0049 -0.0152 -0.0127  0.0102  0.0191
                                            0.0268
   315. (0.00178) RY*( 3) C   9           s( 14.02%)p 5.41( 75.80%)d 0.66(  9.32%)
                                                  f 0.06(  0.87%)
                                           -0.0000 -0.0025  0.3699 -0.0575  0.0085
                                           -0.0227  0.6862  0.2760 -0.0321  0.4150
                                            0.0829  0.0098 -0.1734  0.0088 -0.1737
                                            0.1432  0.0272 -0.0063 -0.0988  0.0624
                                           -0.0075  0.0373 -0.1513  0.0610  0.0182
                                           -0.0239 -0.0247 -0.0215  0.0007  0.0360
                                            0.0734
   316. (0.00100) RY*( 4) C   9           s( 52.03%)p 0.66( 34.38%)d 0.25( 13.25%)
                                                  f 0.01(  0.34%)
                                            0.0000 -0.0097  0.6873 -0.2148 -0.0408
                                            0.0297 -0.0548 -0.0582  0.0095 -0.5117
                                           -0.1979  0.0000  0.1614  0.0964  0.0686
                                            0.2717  0.1494 -0.1040  0.0080  0.0591
                                            0.0550  0.0555 -0.0908 -0.0545 -0.0263
                                           -0.0041  0.0305 -0.0324  0.0091 -0.0051
                                           -0.0240
   317. (0.00075) RY*( 5) C   9           s(  2.57%)p 4.72( 12.14%)d32.40( 83.31%)
                                                  f 0.77(  1.98%)
                                           -0.0000  0.0023  0.1600 -0.0039 -0.0092
                                            0.0002  0.0405 -0.2154 -0.0043 -0.0565
                                           -0.1567 -0.0175  0.0102 -0.2127 -0.2434
                                            0.0357 -0.8142  0.0845 -0.1580 -0.1675
                                           -0.0195  0.1353  0.1667  0.0555 -0.0653
                                            0.0460  0.0093  0.0757 -0.0755  0.0308
                                            0.0307
   318. (0.00058) RY*( 6) C   9           s(  8.78%)p 7.68( 67.50%)d 2.60( 22.82%)
                                                  f 0.10(  0.90%)
                                            0.0000 -0.0097 -0.0221  0.2932  0.0360
                                            0.0192 -0.2682  0.7537 -0.0024 -0.0785
                                           -0.0684 -0.0014  0.1521 -0.0259 -0.1699
                                            0.1569 -0.1159 -0.2851 -0.1883 -0.0682
                                            0.1536 -0.1078  0.0017  0.0680 -0.0137
                                            0.0198 -0.0304  0.0625 -0.0377  0.0318
                                            0.0335
   319. (0.00045) RY*( 7) C   9           s( 60.09%)p 0.55( 32.91%)d 0.11(  6.51%)
                                                  f 0.01(  0.49%)
                                           -0.0000 -0.0044  0.2123  0.7454 -0.0136
                                            0.0016  0.0092 -0.2427 -0.0114 -0.0964
                                            0.5045  0.0031 -0.0106 -0.0780 -0.0058
                                            0.2030  0.0164  0.0186  0.1338 -0.0177
                                            0.0043  0.0313 -0.0434  0.0462  0.0195
                                            0.0167 -0.0008 -0.0023  0.0258 -0.0171
                                           -0.0575
   320. (0.00026) RY*( 8) C   9           s( 13.19%)p 3.42( 45.05%)d 3.06( 40.37%)
                                                  f 0.11(  1.39%)
                                            0.0000 -0.0024 -0.1407  0.3346  0.0121
                                           -0.0014  0.0622 -0.2106  0.0037  0.0759
                                           -0.5532  0.0080 -0.0402 -0.2980 -0.0544
                                            0.2386  0.2458 -0.0717 -0.3384  0.3152
                                           -0.0835  0.1457  0.0608 -0.1803  0.0641
                                           -0.0382 -0.0397  0.0040  0.0255 -0.0339
                                            0.0704
   321. (0.00022) RY*( 9) C   9           s(  4.89%)p 5.15( 25.15%)d13.94( 68.11%)
                                                  f 0.38(  1.85%)
                                           -0.0000  0.0064  0.2121 -0.0547 -0.0290
                                           -0.0056  0.0772  0.0055 -0.0086  0.0872
                                            0.1791  0.0126  0.1011 -0.4419  0.3386
                                           -0.2494  0.0336 -0.0928 -0.1989  0.0965
                                            0.3318 -0.3446  0.4107 -0.2194 -0.0835
                                            0.0130  0.0907  0.0318 -0.0276 -0.0177
                                           -0.0324
   322. (0.00019) RY*(10) C   9           s(  0.34%)p49.70( 16.80%)d99.99( 80.03%)
                                                  f 8.38(  2.83%)
                                           -0.0000  0.0117  0.0402  0.0250  0.0317
                                           -0.0040  0.0793 -0.0207  0.0063  0.0189
                                            0.1907  0.0019  0.2591  0.2395  0.1881
                                           -0.2968  0.0025 -0.4316 -0.3171  0.0658
                                           -0.3314  0.4924  0.1725  0.0603 -0.0358
                                           -0.0134 -0.0470  0.1100 -0.1061 -0.0122
                                           -0.0338
   323. (0.00016) RY*(11) C   9           s(  2.74%)p 5.41( 14.83%)d27.95( 76.63%)
                                                  f 2.11(  5.80%)
                                           -0.0000  0.0210  0.1085  0.1228  0.0114
                                           -0.0093  0.0148  0.3570 -0.0048 -0.0378
                                           -0.0909  0.0027 -0.0825  0.0635  0.2492
                                            0.0611 -0.0838  0.4259  0.1460  0.0257
                                           -0.5306  0.0197  0.3597 -0.2806  0.0167
                                           -0.0611  0.0906 -0.0737  0.0315 -0.0466
                                           -0.1928
   324. (0.00012) RY*(12) C   9           s(  1.90%)p12.36( 23.53%)d36.39( 69.31%)
                                                  f 2.76(  5.26%)
                                           -0.0000  0.0059 -0.0024  0.1165 -0.0737
                                           -0.0169  0.1077 -0.1857 -0.0152  0.2174
                                           -0.2670  0.0029 -0.0293  0.2633  0.1310
                                            0.2089  0.0119 -0.4510  0.1809 -0.4885
                                           -0.1081 -0.3176  0.2067 -0.0452 -0.1902
                                            0.0273  0.1058 -0.0516 -0.0156 -0.0380
                                           -0.0093
   325. (0.00006) RY*(13) C   9           s(  3.62%)p 7.62( 27.58%)d18.48( 66.87%)
                                                  f 0.53(  1.93%)
   326. (0.00005) RY*(14) C   9           s(  9.08%)p 4.01( 36.40%)d 5.30( 48.11%)
                                                  f 0.70(  6.40%)
   327. (0.00004) RY*(15) C   9           s(  1.35%)p 3.74(  5.04%)d60.84( 81.95%)
                                                  f 8.66( 11.67%)
   328. (0.00004) RY*(16) C   9           s(  7.63%)p 1.67( 12.73%)d 8.28( 63.14%)
                                                  f 2.16( 16.50%)
   329. (0.00000) RY*(17) C   9           s(  0.26%)p11.49(  2.95%)d99.99( 96.68%)
                                                  f 0.46(  0.12%)
   330. (0.00000) RY*(18) C   9           s( 94.54%)p 0.01(  0.65%)d 0.04(  3.93%)
                                                  f 0.01(  0.88%)
   331. (0.00000) RY*(19) C   9           s(  0.12%)p16.56(  1.91%)d99.99( 97.42%)
                                                  f 4.83(  0.56%)
   332. (0.00001) RY*(20) C   9           s(  0.22%)p 3.26(  0.73%)d23.37(  5.25%)
                                                  f99.99( 93.79%)
   333. (0.00000) RY*(21) C   9           s(  0.17%)p 3.68(  0.64%)d11.57(  2.01%)
                                                  f99.99( 97.17%)
   334. (0.00000) RY*(22) C   9           s(  0.21%)p 3.50(  0.74%)d17.44(  3.69%)
                                                  f99.99( 95.36%)
   335. (0.00000) RY*(23) C   9           s(  0.21%)p21.90(  4.50%)d41.88(  8.61%)
                                                  f99.99( 86.68%)
   336. (0.00000) RY*(24) C   9           s(  0.15%)p 5.06(  0.78%)d21.91(  3.38%)
                                                  f99.99( 95.69%)
   337. (0.00000) RY*(25) C   9           s(  0.18%)p 4.01(  0.72%)d59.49( 10.67%)
                                                  f99.99( 88.44%)
   338. (0.00001) RY*(26) C   9           s(  0.26%)p 9.58(  2.47%)d55.92( 14.42%)
                                                  f99.99( 82.86%)
   339. (0.00388) RY*( 1) C  10           s(  3.00%)p27.57( 82.80%)d 4.71( 14.16%)
                                                  f 0.01(  0.04%)
                                           -0.0000 -0.0011  0.1725  0.0160  0.0041
                                            0.0023  0.2729  0.0232 -0.0008 -0.0520
                                            0.0500 -0.0227 -0.8352  0.2229  0.0285
                                            0.1226 -0.0319  0.0814 -0.3117  0.0128
                                            0.0580 -0.0065  0.1310  0.0152  0.0024
                                           -0.0025 -0.0027  0.0152 -0.0009 -0.0083
                                            0.0092
   340. (0.00327) RY*( 2) C  10           s( 18.56%)p 3.85( 71.49%)d 0.53(  9.78%)
                                                  f 0.01(  0.18%)
                                            0.0000 -0.0014  0.4289  0.0363  0.0176
                                            0.0076  0.5332  0.0783  0.0140  0.6154
                                           -0.1045  0.0054  0.1820 -0.0370  0.0914
                                            0.1760 -0.0537 -0.0926  0.0495  0.0155
                                           -0.1418 -0.0148 -0.1530  0.0245  0.0128
                                           -0.0049 -0.0152 -0.0127 -0.0102 -0.0191
                                            0.0268
   341. (0.00178) RY*( 3) C  10           s( 14.02%)p 5.41( 75.80%)d 0.66(  9.32%)
                                                  f 0.06(  0.87%)
                                           -0.0000 -0.0025  0.3699 -0.0575  0.0085
                                            0.0227 -0.6862 -0.2760 -0.0321  0.4150
                                            0.0829  0.0098 -0.1734  0.0088  0.1737
                                           -0.1432 -0.0272  0.0063 -0.0988  0.0624
                                           -0.0075  0.0373 -0.1513  0.0610  0.0182
                                            0.0239 -0.0247 -0.0215 -0.0007 -0.0360
                                            0.0734
   342. (0.00100) RY*( 4) C  10           s( 52.03%)p 0.66( 34.38%)d 0.25( 13.26%)
                                                  f 0.01(  0.34%)
                                           -0.0000 -0.0097  0.6873 -0.2148 -0.0408
                                           -0.0297  0.0548  0.0582  0.0095 -0.5117
                                           -0.1979  0.0000  0.1615  0.0965 -0.0686
                                           -0.2717 -0.1495  0.1040  0.0080  0.0591
                                            0.0550  0.0554 -0.0908 -0.0545 -0.0263
                                            0.0041  0.0305 -0.0324 -0.0091  0.0051
                                           -0.0240
   343. (0.00075) RY*( 5) C  10           s(  2.57%)p 4.72( 12.15%)d32.36( 83.30%)
                                                  f 0.77(  1.98%)
                                            0.0000  0.0023  0.1601 -0.0039 -0.0092
                                           -0.0002 -0.0405  0.2154 -0.0043 -0.0566
                                           -0.1567 -0.0175  0.0102 -0.2127  0.2434
                                           -0.0357  0.8141 -0.0845 -0.1580 -0.1674
                                           -0.0196  0.1353  0.1666  0.0555 -0.0653
                                           -0.0460  0.0093  0.0757  0.0755 -0.0308
                                            0.0306
   344. (0.00058) RY*( 6) C  10           s(  8.78%)p 7.69( 67.50%)d 2.60( 22.82%)
                                                  f 0.10(  0.90%)
                                           -0.0000 -0.0097 -0.0221  0.2932  0.0360
                                           -0.0192  0.2682 -0.7537 -0.0024 -0.0785
                                           -0.0684 -0.0014  0.1521 -0.0259  0.1699
                                           -0.1569  0.1159  0.2851 -0.1883 -0.0682
                                            0.1536 -0.1078  0.0017  0.0681 -0.0137
                                           -0.0198 -0.0304  0.0625  0.0377 -0.0318
                                            0.0335
   345. (0.00045) RY*( 7) C  10           s( 60.09%)p 0.55( 32.91%)d 0.11(  6.51%)
                                                  f 0.01(  0.49%)
                                           -0.0000 -0.0044  0.2122  0.7454 -0.0136
                                           -0.0016 -0.0092  0.2427 -0.0114 -0.0963
                                            0.5045  0.0031 -0.0106 -0.0781  0.0058
                                           -0.2030 -0.0164 -0.0186  0.1338 -0.0177
                                            0.0043  0.0313 -0.0433  0.0461  0.0195
                                           -0.0166 -0.0008 -0.0023 -0.0258  0.0171
                                           -0.0575
   346. (0.00026) RY*( 8) C  10           s( 13.19%)p 3.42( 45.05%)d 3.06( 40.37%)
                                                  f 0.11(  1.39%)
                                           -0.0000 -0.0024 -0.1408  0.3345  0.0122
                                            0.0014 -0.0621  0.2106  0.0037  0.0759
                                           -0.5533  0.0080 -0.0402 -0.2979  0.0545
                                           -0.2387 -0.2458  0.0716 -0.3383  0.3152
                                           -0.0836  0.1457  0.0606 -0.1802  0.0641
                                            0.0382 -0.0398  0.0039 -0.0255  0.0339
                                            0.0704
   347. (0.00022) RY*( 9) C  10           s(  4.88%)p 5.15( 25.15%)d13.95( 68.11%)
                                                  f 0.38(  1.85%)
                                            0.0000  0.0064  0.2121 -0.0546 -0.0290
                                            0.0056 -0.0772 -0.0055 -0.0086  0.0873
                                            0.1790  0.0126  0.1011 -0.4420 -0.3386
                                            0.2493 -0.0336  0.0928 -0.1991  0.0967
                                            0.3318 -0.3446  0.4106 -0.2194 -0.0835
                                           -0.0130  0.0907  0.0318  0.0276  0.0178
                                           -0.0324
   348. (0.00019) RY*(10) C  10           s(  0.34%)p49.67( 16.79%)d99.99( 80.04%)
                                                  f 8.37(  2.83%)
                                            0.0000  0.0117  0.0401  0.0251  0.0317
                                            0.0040 -0.0793  0.0208  0.0063  0.0189
                                            0.1906  0.0019  0.2591  0.2395 -0.1881
                                            0.2968 -0.0026  0.4315 -0.3171  0.0659
                                           -0.3314  0.4924  0.1725  0.0603 -0.0358
                                            0.0134 -0.0470  0.1100  0.1061  0.0122
                                           -0.0338
   349. (0.00016) RY*(11) C  10           s(  2.74%)p 5.41( 14.83%)d27.94( 76.63%)
                                                  f 2.11(  5.80%)
                                            0.0000  0.0210  0.1086  0.1228  0.0114
                                            0.0093 -0.0148 -0.3570 -0.0048 -0.0378
                                           -0.0909  0.0027 -0.0825  0.0634 -0.2492
                                           -0.0612  0.0838 -0.4258  0.1460  0.0257
                                           -0.5306  0.0196  0.3598 -0.2806  0.0167
                                            0.0611  0.0906 -0.0737 -0.0315  0.0466
                                           -0.1928
   350. (0.00012) RY*(12) C  10           s(  1.90%)p12.36( 23.53%)d36.41( 69.31%)
                                                  f 2.76(  5.26%)
                                            0.0000  0.0059 -0.0024  0.1164 -0.0738
                                            0.0169 -0.1077  0.1857 -0.0152  0.2174
                                           -0.2670  0.0029 -0.0293  0.2632 -0.1310
                                           -0.2089 -0.0120  0.4512  0.1809 -0.4885
                                           -0.1081 -0.3176  0.2067 -0.0452 -0.1902
                                           -0.0273  0.1058 -0.0516  0.0156  0.0380
                                           -0.0093
   351. (0.00006) RY*(13) C  10           s(  3.62%)p 7.62( 27.58%)d18.48( 66.87%)
                                                  f 0.53(  1.93%)
   352. (0.00005) RY*(14) C  10           s(  9.08%)p 4.01( 36.40%)d 5.30( 48.12%)
                                                  f 0.70(  6.40%)
   353. (0.00004) RY*(15) C  10           s(  1.35%)p 3.75(  5.05%)d60.85( 81.94%)
                                                  f 8.67( 11.67%)
   354. (0.00004) RY*(16) C  10           s(  7.63%)p 1.67( 12.73%)d 8.28( 63.14%)
                                                  f 2.16( 16.50%)
   355. (0.00000) RY*(17) C  10           s(  0.26%)p11.49(  2.95%)d99.99( 96.68%)
                                                  f 0.46(  0.12%)
   356. (0.00000) RY*(18) C  10           s( 94.54%)p 0.01(  0.65%)d 0.04(  3.93%)
                                                  f 0.01(  0.88%)
   357. (0.00000) RY*(19) C  10           s(  0.12%)p16.56(  1.91%)d99.99( 97.42%)
                                                  f 4.83(  0.56%)
   358. (0.00001) RY*(20) C  10           s(  0.22%)p 3.26(  0.73%)d23.37(  5.25%)
                                                  f99.99( 93.79%)
   359. (0.00000) RY*(21) C  10           s(  0.17%)p 3.69(  0.64%)d11.58(  2.01%)
                                                  f99.99( 97.17%)
   360. (0.00000) RY*(22) C  10           s(  0.21%)p 3.50(  0.74%)d17.44(  3.69%)
                                                  f99.99( 95.36%)
   361. (0.00000) RY*(23) C  10           s(  0.21%)p21.89(  4.50%)d41.87(  8.61%)
                                                  f99.99( 86.68%)
   362. (0.00000) RY*(24) C  10           s(  0.15%)p 5.06(  0.78%)d21.92(  3.38%)
                                                  f99.99( 95.69%)
   363. (0.00000) RY*(25) C  10           s(  0.18%)p 4.01(  0.72%)d59.49( 10.67%)
                                                  f99.99( 88.44%)
   364. (0.00001) RY*(26) C  10           s(  0.26%)p 9.58(  2.47%)d55.92( 14.42%)
                                                  f99.99( 82.86%)
   365. (0.00667) RY*( 1) N  11           s(  9.97%)p 7.89( 78.63%)d 1.12( 11.14%)
                                                  f 0.03(  0.26%)
                                           -0.0000 -0.0011  0.3133 -0.0384  0.0035
                                           -0.0219  0.8838 -0.0121  0.0164  0.0080
                                           -0.0279 -0.0056 -0.0592 -0.0043  0.1199
                                            0.0777 -0.0360 -0.0313 -0.0499 -0.0273
                                           -0.2724 -0.0602  0.0851 -0.0215 -0.0096
                                            0.0086  0.0134 -0.0040 -0.0145 -0.0447
                                            0.0019
   366. (0.00418) RY*( 2) N  11           s(  0.06%)p99.99( 98.71%)d14.72(  0.95%)
                                                  f 4.18(  0.27%)
                                            0.0000  0.0020  0.0189 -0.0169 -0.0016
                                            0.0020 -0.0734  0.0228 -0.0003 -0.3108
                                           -0.0031  0.0044 -0.9400 -0.0309 -0.0052
                                           -0.0286 -0.0441 -0.0707 -0.0194  0.0232
                                           -0.0058 -0.0001  0.0235 -0.0153 -0.0142
                                            0.0096  0.0059  0.0466 -0.0106  0.0040
                                            0.0089
   367. (0.00260) RY*( 3) N  11           s( 35.06%)p 1.37( 47.93%)d 0.47( 16.46%)
                                                  f 0.02(  0.55%)
                                            0.0000  0.0082  0.5920  0.0044 -0.0024
                                            0.0055 -0.2875 -0.0394 -0.0022 -0.5839
                                           -0.0022 -0.0006  0.2299  0.0366 -0.0569
                                           -0.1619  0.0130  0.0715 -0.0421 -0.0241
                                           -0.3363 -0.0382  0.1115 -0.0236  0.0053
                                            0.0484 -0.0164 -0.0055  0.0061 -0.0476
                                            0.0221
   368. (0.00169) RY*( 4) N  11           s( 50.10%)p 0.80( 39.84%)d 0.18(  9.14%)
                                                  f 0.02(  0.92%)
                                            0.0000  0.0019  0.7071  0.0315  0.0056
                                            0.0188 -0.2121 -0.0086 -0.0016  0.5710
                                            0.0169 -0.0010 -0.1618  0.0216  0.0522
                                            0.1565 -0.0400 -0.0344  0.0434  0.0157
                                            0.2425  0.0011 -0.0196  0.0009  0.0003
                                            0.0655 -0.0117  0.0060  0.0022 -0.0651
                                            0.0227
   369. (0.00079) RY*( 5) N  11           s(  0.05%)p 8.25(  0.44%)d99.99( 96.76%)
                                                  f51.21(  2.74%)
                                           -0.0000 -0.0008  0.0154  0.0172 -0.0009
                                            0.0005 -0.0175 -0.0188  0.0001  0.0364
                                           -0.0071 -0.0123 -0.0453  0.0133  0.1801
                                           -0.0278  0.6947 -0.0919  0.4853  0.1860
                                           -0.2265 -0.0543 -0.3273 -0.1085 -0.0264
                                           -0.0528  0.0350  0.0741  0.1177 -0.0483
                                            0.0324
   370. (0.00065) RY*( 6) N  11           s(  3.19%)p 9.27( 29.59%)d20.04( 64.01%)
                                                  f 1.00(  3.20%)
                                           -0.0000 -0.0121  0.1451  0.1034  0.0059
                                            0.0047  0.2156  0.0155 -0.0319 -0.4422
                                            0.1972  0.0090  0.1149 -0.0214 -0.0410
                                            0.1989 -0.0179 -0.0440  0.2583  0.0592
                                            0.6928 -0.0014 -0.2063  0.0618  0.0218
                                           -0.0589 -0.0333 -0.0022  0.0334  0.1038
                                            0.1227
   371. (0.00057) RY*( 7) N  11           s(  0.21%)p 8.17(  1.69%)d99.99( 96.56%)
                                                  f 7.46(  1.54%)
                                           -0.0000 -0.0029  0.0285  0.0352  0.0030
                                            0.0019  0.0262 -0.0316 -0.0045 -0.0514
                                           -0.0376 -0.0092  0.0070 -0.1048  0.1341
                                           -0.0348  0.6526 -0.1043 -0.5572 -0.0932
                                            0.2878  0.0322  0.3182  0.0736 -0.0086
                                            0.0430 -0.0445 -0.0715 -0.0715  0.0353
                                           -0.0076
   372. (0.00025) RY*( 8) N  11           s(  3.41%)p 0.36(  1.22%)d27.48( 93.73%)
                                                  f 0.48(  1.64%)
                                           -0.0000 -0.0399  0.0381  0.1760  0.0103
                                           -0.0102  0.0001  0.0467  0.0146  0.0084
                                            0.0915 -0.0039 -0.0133 -0.0325 -0.0668
                                            0.0165 -0.0178 -0.0207 -0.5036  0.0466
                                           -0.1509 -0.1289 -0.7579  0.2494  0.0066
                                            0.0256 -0.0547 -0.0516 -0.0073  0.0235
                                            0.0972
   373. (0.00022) RY*( 9) N  11           s(  2.58%)p 3.73(  9.60%)d32.92( 84.82%)
                                                  f 1.17(  3.00%)
                                            0.0000  0.0009  0.0395  0.1553  0.0095
                                            0.0222  0.0945 -0.0713  0.0312  0.0686
                                           -0.2720 -0.0062 -0.0390 -0.0160 -0.8840
                                            0.0236  0.1866 -0.0322  0.0710 -0.0606
                                            0.0016 -0.1357  0.0348 -0.0452 -0.0492
                                            0.0007  0.1094 -0.0966  0.0057  0.0789
                                           -0.0084
   374. (0.00010) RY*(10) N  11           s(  0.44%)p 7.11(  3.10%)d99.99( 93.87%)
                                                  f 5.96(  2.60%)
                                            0.0000  0.0026 -0.0439  0.0462 -0.0169
                                           -0.0027 -0.0537 -0.1120  0.0000 -0.0500
                                           -0.0557  0.0024 -0.0745 -0.0663  0.0811
                                            0.5275  0.1285  0.6723  0.0825 -0.3433
                                           -0.0893 -0.0912  0.0063  0.2105  0.0776
                                            0.0337 -0.0161 -0.0996  0.0456 -0.0180
                                           -0.0790
   375. (0.00008) RY*(11) N  11           s(  0.39%)p62.83( 24.53%)d99.99( 62.52%)
                                                  f32.17( 12.56%)
   376. (0.00009) RY*(12) N  11           s(  2.07%)p 6.55( 13.57%)d38.52( 79.79%)
                                                  f 2.21(  4.57%)
   377. (0.00005) RY*(13) N  11           s(  0.29%)p99.99( 61.51%)d99.99( 29.41%)
                                                  f30.31(  8.79%)
   378. (0.00003) RY*(14) N  11           s(  0.60%)p44.35( 26.75%)d42.06( 25.36%)
                                                  f78.41( 47.28%)
   379. (0.00003) RY*(15) N  11           s(  4.29%)p 9.85( 42.30%)d 4.77( 20.47%)
                                                  f 7.67( 32.93%)
   380. (0.00003) RY*(16) N  11           s(  4.59%)p 0.52(  2.39%)d 7.27( 33.37%)
                                                  f12.99( 59.66%)
   381. (0.00001) RY*(17) N  11           s(  1.72%)p13.23( 22.78%)d27.37( 47.13%)
                                                  f16.48( 28.37%)
   382. (0.00002) RY*(18) N  11           s( 70.34%)p 0.05(  3.53%)d 0.15( 10.61%)
                                                  f 0.22( 15.52%)
   383. (0.00001) RY*(19) N  11           s(  0.01%)p99.99(  5.17%)d99.99( 85.44%)
                                                  f99.99(  9.37%)
   384. (0.00000) RY*(20) N  11           s(  0.08%)p99.99( 10.82%)d39.90(  3.34%)
                                                  f99.99( 85.76%)
   385. (0.00000) RY*(21) N  11           s(  1.34%)p22.56( 30.25%)d 1.36(  1.82%)
                                                  f49.67( 66.59%)
   386. (0.00000) RY*(22) N  11           s(  1.74%)p 8.12( 14.16%)d 2.37(  4.14%)
                                                  f45.84( 79.96%)
   387. (0.00000) RY*(23) N  11           s(  6.47%)p 2.49( 16.14%)d 2.60( 16.81%)
                                                  f 9.36( 60.58%)
   388. (0.00000) RY*(24) N  11           s(  1.52%)p 6.20(  9.40%)d 5.37(  8.14%)
                                                  f53.35( 80.94%)
   389. (0.00000) RY*(25) N  11           s( 99.13%)p 0.00(  0.26%)d 0.00(  0.23%)
                                                  f 0.00(  0.38%)
   390. (0.00001) RY*(26) N  11           s(  0.54%)p11.42(  6.13%)d 6.33(  3.40%)
                                                  f99.99( 89.94%)
   391. (0.00496) RY*( 1) C  12           s(  3.32%)p27.69( 92.00%)d 1.37(  4.54%)
                                                  f 0.04(  0.14%)
                                            0.0000 -0.0034  0.1814  0.0174  0.0002
                                            0.0043  0.2548  0.0496  0.0165  0.9057
                                            0.0120 -0.0016 -0.1628 -0.0738 -0.0161
                                            0.0818 -0.0032 -0.0150  0.0351  0.0416
                                            0.0645  0.1425  0.0358  0.0974  0.0041
                                            0.0282 -0.0056 -0.0081  0.0157  0.0101
                                            0.0096
   392. (0.00273) RY*( 2) C  12           s(  2.10%)p42.65( 89.42%)d 3.69(  7.74%)
                                                  f 0.35(  0.74%)
                                            0.0000  0.0015  0.1447  0.0034  0.0004
                                            0.0013 -0.4890  0.0042  0.0055  0.2330
                                           -0.0380  0.0090  0.7610 -0.1418  0.0217
                                           -0.0624  0.0607  0.2271  0.0291  0.0496
                                            0.0796  0.0526  0.0286 -0.0676  0.0221
                                            0.0161  0.0273  0.0350  0.0035 -0.0613
                                            0.0300
   393. (0.00231) RY*( 3) C  12           s(  1.46%)p57.40( 83.96%)d 9.35( 13.67%)
                                                  f 0.62(  0.91%)
                                            0.0000  0.0018  0.1162 -0.0334 -0.0011
                                            0.0065 -0.7396 -0.0047 -0.0054  0.1239
                                           -0.1365 -0.0047 -0.4770  0.1759  0.0141
                                           -0.1030 -0.0452 -0.2491 -0.0379  0.1013
                                            0.0396  0.0721  0.0529 -0.2014 -0.0509
                                            0.0190 -0.0425  0.0056 -0.0272 -0.0550
                                            0.0236
   394. (0.00152) RY*( 4) C  12           s( 74.18%)p 0.22( 16.58%)d 0.11(  7.91%)
                                                  f 0.02(  1.33%)
                                            0.0000 -0.0008  0.8407 -0.1870  0.0092
                                           -0.0137  0.1149  0.1920  0.0097 -0.1872
                                            0.2492 -0.0037  0.0334  0.1313  0.0003
                                           -0.1269 -0.0290 -0.0960 -0.0383  0.1864
                                           -0.0455 -0.0722 -0.0507  0.0825 -0.0173
                                            0.0988  0.0506  0.0057  0.0187  0.0114
                                            0.0141
   395. (0.00109) RY*( 5) C  12           s( 13.07%)p 3.78( 49.38%)d 2.69( 35.20%)
                                                  f 0.18(  2.35%)
                                            0.0000 -0.0005 -0.2430  0.2672  0.0144
                                           -0.0005  0.0949  0.4352  0.0078  0.0848
                                            0.0207 -0.0070  0.1941  0.4999  0.1435
                                           -0.1776  0.0496 -0.2216 -0.0406  0.3740
                                            0.1578 -0.2124  0.1908  0.0159  0.0208
                                           -0.1173 -0.0477  0.0100 -0.0365  0.0430
                                           -0.0616
   396. (0.00084) RY*( 6) C  12           s(  2.58%)p11.60( 29.91%)d25.90( 66.80%)
                                                  f 0.28(  0.71%)
                                           -0.0000 -0.0050  0.1153 -0.1117  0.0002
                                           -0.0074  0.1627 -0.0180 -0.0043 -0.0346
                                           -0.3026 -0.0003  0.1624  0.3913 -0.1506
                                            0.5358  0.1000 -0.0797  0.0570  0.0106
                                           -0.1494  0.2556  0.0664 -0.4965  0.0199
                                           -0.0082 -0.0121 -0.0315 -0.0243 -0.0067
                                            0.0698
   397. (0.00069) RY*( 7) C  12           s(  0.38%)p99.99( 72.78%)d69.26( 26.29%)
                                                  f 1.44(  0.55%)
                                           -0.0000 -0.0002  0.0368  0.0494  0.0026
                                           -0.0148 -0.0681  0.7768 -0.0005 -0.0611
                                           -0.2985  0.0028 -0.1414 -0.0824  0.0110
                                            0.0403  0.0900  0.3252  0.0768 -0.2933
                                           -0.0555  0.1075 -0.1854  0.0799 -0.0545
                                            0.0141 -0.0182  0.0067 -0.0143 -0.0355
                                            0.0216
   398. (0.00059) RY*( 8) C  12           s(  5.34%)p12.07( 64.47%)d 5.41( 28.90%)
                                                  f 0.24(  1.29%)
                                            0.0000  0.0061 -0.1045  0.2060  0.0020
                                           -0.0008 -0.1004  0.2863  0.0138 -0.0603
                                            0.6962 -0.0059 -0.0308 -0.2514 -0.0737
                                            0.3100 -0.1057 -0.0874 -0.1151  0.0392
                                            0.0142  0.2911  0.1143 -0.2364  0.0550
                                           -0.0301 -0.0390  0.0364  0.0366 -0.0416
                                            0.0551
   399. (0.00037) RY*( 9) C  12           s(  1.34%)p17.84( 23.84%)d53.71( 71.77%)
                                                  f 2.28(  3.05%)
                                           -0.0000 -0.0052  0.1130  0.0104  0.0216
                                            0.0047  0.0393  0.0070  0.0077 -0.0837
                                           -0.1544  0.0121 -0.1269 -0.4355  0.3742
                                            0.1668  0.5391  0.0090 -0.0148  0.2527
                                            0.0181 -0.1673  0.3920 -0.1143 -0.0389
                                           -0.0450 -0.0645  0.1042 -0.0713  0.0827
                                           -0.0035
   400. (0.00028) RY*(10) C  12           s( 12.96%)p 0.79( 10.30%)d 5.58( 72.39%)
                                                  f 0.34(  4.35%)
                                           -0.0000 -0.0080  0.1689  0.3175  0.0160
                                           -0.0089  0.1382 -0.0866  0.0063 -0.0842
                                           -0.2532 -0.0193 -0.0670 -0.0156  0.0161
                                           -0.1439 -0.4190  0.3484 -0.4523  0.0284
                                            0.1536  0.1535  0.3681 -0.1339 -0.0510
                                           -0.0340 -0.0316  0.1201  0.0969 -0.1172
                                            0.0349
   401. (0.00024) RY*(11) C  12           s( 10.40%)p 2.01( 20.94%)d 6.02( 62.57%)
                                                  f 0.59(  6.10%)
                                            0.0000 -0.0059  0.1204  0.2988  0.0137
                                           -0.0105  0.1444  0.0592  0.0151 -0.0708
                                           -0.2244 -0.0001  0.1229 -0.3380 -0.1920
                                           -0.3427 -0.0405 -0.5351  0.2900 -0.1728
                                            0.0440  0.1563  0.0843 -0.1897  0.0689
                                           -0.0170 -0.0626 -0.1828 -0.0670 -0.1100
                                           -0.0447
   402. (0.00020) RY*(12) C  12           s( 10.32%)p 1.96( 20.26%)d 6.46( 66.62%)
                                                  f 0.27(  2.79%)
                                            0.0000  0.0021  0.1412  0.2874  0.0258
                                            0.0017 -0.0292 -0.1833  0.0264 -0.0656
                                            0.2288  0.0013 -0.1216  0.3099 -0.1225
                                           -0.0248  0.3480  0.3089  0.4034 -0.2577
                                            0.3861  0.0707  0.2184  0.0572 -0.0715
                                            0.0001 -0.0504 -0.0896 -0.0073 -0.1059
                                           -0.0312
   403. (0.00015) RY*(13) C  12           s( 27.32%)p 0.13(  3.60%)d 2.42( 66.11%)
                                                  f 0.11(  2.97%)
                                           -0.0000 -0.0043  0.0531  0.5200 -0.0005
                                           -0.0017 -0.0629 -0.1435 -0.0036 -0.0063
                                           -0.0001  0.0089 -0.0173  0.1048  0.0129
                                           -0.0842  0.2236  0.0690 -0.0351  0.1726
                                           -0.6510  0.2886 -0.1058  0.2231  0.0735
                                            0.0787  0.0694  0.0593 -0.0743  0.0630
                                           -0.0173
   404. (0.00010) RY*(14) C  12           s( 12.81%)p 0.29(  3.68%)d 5.90( 75.51%)
                                                  f 0.63(  8.01%)
                                            0.0000  0.0071  0.0897  0.3461 -0.0150
                                           -0.0103  0.0104 -0.0808  0.0025 -0.0382
                                           -0.1173 -0.0013 -0.0311 -0.1176 -0.2853
                                            0.1962  0.1346 -0.0443 -0.1586  0.2566
                                            0.3968 -0.1465 -0.5865 -0.0350 -0.0879
                                           -0.0743 -0.0262  0.2301 -0.0913  0.0070
                                            0.0696
   405. (0.00008) RY*(15) C  12           s(  0.55%)p 7.41(  4.05%)d99.99( 88.96%)
                                                  f11.76(  6.44%)
   406. (0.00006) RY*(16) C  12           s(  1.01%)p 3.90(  3.92%)d80.41( 80.85%)
                                                  f14.14( 14.22%)
   407. (0.00007) RY*(17) C  12           s(  9.75%)p 0.25(  2.44%)d 7.81( 76.11%)
                                                  f 1.20( 11.70%)
   408. (0.00003) RY*(18) C  12           s(  3.75%)p 0.36(  1.35%)d 3.27( 12.24%)
                                                  f22.07( 82.67%)
   409. (0.00001) RY*(19) C  12           s(  3.65%)p 1.71(  6.23%)d24.12( 88.05%)
                                                  f 0.57(  2.07%)
   410. (0.00001) RY*(20) C  12           s(  3.18%)p 0.08(  0.25%)d 2.80(  8.90%)
                                                  f27.57( 87.68%)
   411. (0.00000) RY*(21) C  12           s( 98.53%)p 0.00(  0.01%)d 0.00(  0.32%)
                                                  f 0.01(  1.14%)
   412. (0.00001) RY*(22) C  12           s(  0.65%)p 0.35(  0.23%)d 8.33(  5.42%)
                                                  f99.99( 93.70%)
   413. (0.00001) RY*(23) C  12           s(  0.91%)p 0.34(  0.31%)d12.46( 11.33%)
                                                  f96.24( 87.46%)
   414. (0.00000) RY*(24) C  12           s(  0.25%)p 0.94(  0.23%)d26.37(  6.46%)
                                                  f99.99( 93.06%)
   415. (0.00001) RY*(25) C  12           s(  0.01%)p 7.08(  0.07%)d99.99( 11.29%)
                                                  f99.99( 88.63%)
   416. (0.00000) RY*(26) C  12           s(  0.18%)p 0.31(  0.05%)d21.77(  3.84%)
                                                  f99.99( 95.93%)
   417. (0.00326) RY*( 1) C  13           s(  8.73%)p 8.85( 77.26%)d 1.57( 13.68%)
                                                  f 0.04(  0.33%)
                                           -0.0000  0.0000  0.2945  0.0237 -0.0045
                                            0.0280  0.7438 -0.0564 -0.0166 -0.4529
                                            0.0741 -0.0008  0.0223  0.0636 -0.1031
                                           -0.2327  0.0921 -0.0407 -0.0452  0.1355
                                            0.1572 -0.0191 -0.1202 -0.0441 -0.0419
                                            0.0177  0.0245  0.0095  0.0052  0.0194
                                            0.0112
   418. (0.00185) RY*( 2) C  13           s(  1.16%)p63.77( 73.85%)d21.18( 24.52%)
                                                  f 0.40(  0.46%)
                                           -0.0000  0.0029  0.0961  0.0482  0.0045
                                            0.0039 -0.2478  0.0335 -0.0054 -0.3901
                                            0.0772  0.0012  0.7119 -0.1047 -0.0350
                                           -0.0979 -0.1457 -0.0615  0.0756 -0.3299
                                            0.1863  0.0391  0.1944  0.1442  0.0450
                                            0.0430  0.0095 -0.0103  0.0133 -0.0014
                                           -0.0200
   419. (0.00140) RY*( 3) C  13           s(  1.29%)p48.50( 62.76%)d27.13( 35.11%)
                                                  f 0.64(  0.83%)
                                           -0.0000  0.0073  0.1045  0.0442  0.0043
                                            0.0086  0.4229  0.0307 -0.0081  0.5828
                                            0.0309 -0.0011  0.3236  0.0495 -0.0760
                                            0.1632  0.0106 -0.0530  0.0838 -0.4900
                                           -0.1112  0.0885 -0.1169 -0.1864  0.0273
                                           -0.0008  0.0437  0.0312  0.0635 -0.0148
                                            0.0211
   420. (0.00068) RY*( 4) C  13           s(  0.18%)p99.99( 19.20%)d99.99( 79.55%)
                                                  f 5.79(  1.06%)
                                           -0.0000  0.0041  0.0324  0.0134  0.0243
                                            0.0030 -0.0208 -0.0104  0.0057  0.0433
                                           -0.0895  0.0034  0.4157  0.0933  0.0224
                                            0.2597 -0.1520 -0.1977 -0.2383  0.5986
                                           -0.1132  0.2787  0.0068 -0.3997  0.0233
                                            0.0189  0.0331 -0.0771 -0.0421  0.0200
                                           -0.0227
   421. (0.00064) RY*( 5) C  13           s(  1.73%)p15.29( 26.41%)d40.55( 70.06%)
                                                  f 1.04(  1.80%)
                                            0.0000 -0.0034  0.1143  0.0442 -0.0474
                                            0.0076 -0.1399 -0.0274 -0.0025 -0.3761
                                           -0.0675 -0.0063 -0.3009  0.0846 -0.1902
                                            0.4385  0.1944 -0.1989  0.2179 -0.2989
                                            0.0418  0.3140  0.0351 -0.3955  0.0573
                                           -0.0130 -0.0469  0.0870  0.0460 -0.0246
                                           -0.0454
   422. (0.00047) RY*( 6) C  13           s( 35.53%)p 0.60( 21.22%)d 1.09( 38.81%)
                                                  f 0.12(  4.44%)
                                            0.0000  0.0017  0.5925  0.0634 -0.0140
                                           -0.0003 -0.1878  0.0583 -0.0066  0.0923
                                            0.3013 -0.0120 -0.0837 -0.2588  0.1553
                                           -0.2236  0.1833 -0.2404  0.0914  0.0824
                                           -0.3736  0.2285 -0.0475  0.1158  0.0692
                                           -0.0202  0.0823 -0.1230  0.1217 -0.0486
                                            0.0107
   423. (0.00035) RY*( 7) C  13           s( 27.31%)p 0.82( 22.30%)d 1.60( 43.60%)
                                                  f 0.25(  6.78%)
                                            0.0000  0.0029  0.5164  0.0801 -0.0010
                                           -0.0006 -0.0866 -0.0929 -0.0136  0.1398
                                           -0.1660 -0.0010 -0.1471  0.3714  0.0568
                                           -0.1127 -0.3854  0.2558  0.0994 -0.0096
                                            0.1613 -0.1198  0.3510 -0.1805  0.0242
                                            0.1701  0.0360 -0.0815 -0.0266 -0.1437
                                           -0.0950
   424. (0.00024) RY*( 8) C  13           s(  7.33%)p 2.16( 15.85%)d 9.72( 71.31%)
                                                  f 0.75(  5.50%)
                                            0.0000  0.0005  0.2620  0.0506 -0.0464
                                            0.0076 -0.1430  0.1085 -0.0220  0.2786
                                           -0.1804 -0.0109  0.1239 -0.0120 -0.1464
                                            0.0709  0.4964 -0.1120  0.1096  0.2395
                                            0.5692 -0.1337 -0.0410  0.1212 -0.0586
                                           -0.0179 -0.0945  0.1866  0.0018  0.0815
                                           -0.0289
   425. (0.00017) RY*( 9) C  13           s(  1.41%)p 8.02( 11.27%)d54.58( 76.75%)
                                                  f 7.52( 10.57%)
                                           -0.0000  0.0015 -0.0768  0.0777 -0.0461
                                            0.0108 -0.1028  0.0965  0.0085 -0.0210
                                           -0.3001  0.0010  0.0434  0.0161 -0.3189
                                           -0.3956 -0.0363 -0.3640  0.1608 -0.0005
                                           -0.2430 -0.4309 -0.1336 -0.2951  0.1600
                                           -0.1952 -0.0202 -0.0121 -0.0263 -0.1293
                                           -0.1549
   426. (0.00015) RY*(10) C  13           s( 10.55%)p 0.96( 10.18%)d 6.96( 73.40%)
                                                  f 0.56(  5.86%)
                                           -0.0000 -0.0043  0.3155  0.0651  0.0412
                                            0.0219 -0.1368 -0.0903  0.0066 -0.0416
                                            0.0911  0.0178 -0.0808 -0.2398 -0.1571
                                            0.2885 -0.2338 -0.0551 -0.5299 -0.1647
                                            0.0505 -0.3570 -0.3607 -0.0195 -0.1261
                                            0.0353 -0.1131 -0.0293 -0.1567  0.0559
                                           -0.0124
   427. (0.00012) RY*(11) C  13           s(  2.98%)p 8.84( 26.32%)d22.17( 66.05%)
                                                  f 1.56(  4.64%)
                                            0.0000  0.0010  0.1681 -0.0349  0.0178
                                            0.0151 -0.1484 -0.0299  0.0120 -0.1873
                                           -0.2093 -0.0194  0.2271  0.3303  0.1295
                                            0.1169  0.2535  0.4577  0.1431  0.0123
                                           -0.3640 -0.1500 -0.4243  0.0254 -0.0960
                                           -0.0255  0.1038  0.0905  0.0215  0.0617
                                            0.1154
   428. (0.00007) RY*(12) C  13           s(  3.29%)p 8.67( 28.50%)d16.51( 54.27%)
                                                  f 4.24( 13.95%)
   429. (0.00003) RY*(13) C  13           s( 49.91%)p 0.11(  5.32%)d 0.53( 26.25%)
                                                  f 0.37( 18.52%)
   430. (0.00003) RY*(14) C  13           s(  1.36%)p40.53( 55.30%)d23.96( 32.69%)
                                                  f 7.80( 10.64%)
   431. (0.00004) RY*(15) C  13           s(  1.53%)p19.03( 29.10%)d23.77( 36.35%)
                                                  f21.60( 33.03%)
   432. (0.00001) RY*(16) C  13           s( 11.78%)p 0.34(  4.00%)d 5.58( 65.73%)
                                                  f 1.57( 18.49%)
   433. (0.00001) RY*(17) C  13           s(  1.63%)p13.67( 22.29%)d44.39( 72.36%)
                                                  f 2.28(  3.72%)
   434. (0.00001) RY*(18) C  13           s(  1.12%)p53.81( 60.26%)d18.24( 20.42%)
                                                  f16.26( 18.20%)
   435. (0.00001) RY*(19) C  13           s( 17.71%)p 0.13(  2.29%)d 1.17( 20.72%)
                                                  f 3.35( 59.28%)
   436. (0.00001) RY*(20) C  13           s( 10.31%)p 0.82(  8.42%)d 1.99( 20.50%)
                                                  f 5.89( 60.78%)
   437. (0.00000) RY*(21) C  13           s( 97.76%)p 0.00(  0.08%)d 0.02(  1.57%)
                                                  f 0.01(  0.60%)
   438. (0.00001) RY*(22) C  13           s(  3.38%)p 0.25(  0.85%)d 1.84(  6.24%)
                                                  f26.45( 89.53%)
   439. (0.00000) RY*(23) C  13           s(  0.25%)p10.55(  2.65%)d48.93( 12.29%)
                                                  f99.99( 84.80%)
   440. (0.00000) RY*(24) C  13           s(  0.85%)p 3.20(  2.71%)d16.64( 14.09%)
                                                  f97.22( 82.35%)
   441. (0.00000) RY*(25) C  13           s(  0.23%)p50.97( 11.80%)d63.24( 14.64%)
                                                  f99.99( 73.33%)
   442. (0.00000) RY*(26) C  13           s(  0.61%)p 0.44(  0.27%)d14.17(  8.63%)
                                                  f99.99( 90.50%)
   443. (0.00143) RY*( 1) C  14           s(  1.87%)p44.43( 83.19%)d 7.66( 14.35%)
                                                  f 0.32(  0.60%)
                                            0.0000  0.0033  0.1323  0.0348 -0.0015
                                            0.0080 -0.2951  0.0245 -0.0102 -0.8312
                                           -0.0569 -0.0092 -0.2179  0.0479  0.2640
                                           -0.0370 -0.0614 -0.0261 -0.1873 -0.1035
                                           -0.0107 -0.0737 -0.0303 -0.1254 -0.0039
                                           -0.0384 -0.0043 -0.0342  0.0380  0.0222
                                           -0.0366
   444. (0.00078) RY*( 2) C  14           s( 10.12%)p 7.33( 74.19%)d 1.50( 15.20%)
                                                  f 0.05(  0.49%)
                                            0.0000 -0.0018  0.3172  0.0230  0.0046
                                            0.0145  0.4191 -0.0996 -0.0089 -0.2540
                                           -0.0108 -0.0014  0.6975 -0.0698  0.1030
                                            0.0805  0.0491  0.1103 -0.1160  0.0138
                                           -0.2164 -0.0680  0.1967  0.1287 -0.0275
                                            0.0126 -0.0398 -0.0337  0.0215  0.0191
                                           -0.0210
   445. (0.00027) RY*( 3) C  14           s(  1.76%)p39.18( 69.07%)d15.79( 27.83%)
                                                  f 0.76(  1.34%)
                                            0.0000  0.0069  0.1115 -0.0701 -0.0152
                                            0.0098 -0.6372 -0.1905 -0.0021  0.1604
                                            0.0379 -0.0146  0.4145  0.2214  0.1383
                                           -0.1376 -0.3692  0.1831  0.1870 -0.0860
                                           -0.0250  0.0971 -0.0744  0.1112  0.0542
                                           -0.0640 -0.0499 -0.0185  0.0518 -0.0295
                                            0.0004
   446. (0.00023) RY*( 4) C  14           s(  2.49%)p 5.91( 14.70%)d31.09( 77.36%)
                                                  f 2.19(  5.45%)
                                           -0.0000 -0.0005  0.1327  0.0851 -0.0054
                                           -0.0190 -0.2912 -0.0019 -0.0069  0.0496
                                            0.0231  0.0040  0.1788  0.1638 -0.3134
                                            0.0840  0.2981 -0.3093 -0.4918  0.3179
                                           -0.1153  0.1117 -0.3392 -0.0080 -0.1901
                                            0.0975 -0.0676 -0.0609  0.0217  0.0042
                                            0.0083
   447. (0.00020) RY*( 5) C  14           s( 11.22%)p 0.15(  1.72%)d 7.08( 79.39%)
                                                  f 0.68(  7.67%)
                                           -0.0000 -0.0058  0.3337 -0.0175  0.0216
                                            0.0062 -0.0656 -0.0436  0.0084  0.0830
                                           -0.0218  0.0298  0.0497 -0.0111  0.3572
                                           -0.2765  0.5383 -0.2416  0.3771 -0.0199
                                            0.2505 -0.1419 -0.1268 -0.0107 -0.0163
                                            0.2260  0.0851 -0.0220 -0.0061  0.1298
                                           -0.0275
   448. (0.00013) RY*( 6) C  14           s(  1.59%)p26.68( 42.33%)d30.80( 48.87%)
                                                  f 4.54(  7.21%)
                                           -0.0000 -0.0058  0.1095  0.0495  0.0373
                                           -0.0041 -0.1964  0.3264 -0.0100 -0.0349
                                           -0.2857  0.0089  0.0097 -0.4417 -0.1545
                                            0.0964  0.0574 -0.0196  0.3159 -0.1198
                                           -0.4849  0.3161 -0.0378 -0.0349 -0.0047
                                            0.0994  0.1234 -0.2035 -0.0556  0.0210
                                           -0.0452
   449. (0.00012) RY*( 7) C  14           s(  0.41%)p37.49( 15.47%)d99.99( 77.01%)
                                                  f17.23(  7.11%)
                                           -0.0000 -0.0027  0.0547  0.0246  0.0228
                                           -0.0034  0.2050  0.2234 -0.0177  0.1557
                                           -0.0192  0.0000 -0.1647 -0.1035  0.4100
                                           -0.2614 -0.2055  0.2408 -0.2299  0.1316
                                           -0.1735 -0.0226 -0.4894  0.3052 -0.0633
                                            0.0935 -0.1058 -0.1528  0.1364  0.0156
                                           -0.0703
   450. (0.00009) RY*( 8) C  14           s( 26.91%)p 0.76( 20.35%)d 1.81( 48.82%)
                                                  f 0.15(  3.92%)
   451. (0.00006) RY*( 9) C  14           s( 17.63%)p 2.28( 40.16%)d 2.25( 39.67%)
                                                  f 0.14(  2.54%)
   452. (0.00004) RY*(10) C  14           s( 60.15%)p 0.34( 20.29%)d 0.25( 15.24%)
                                                  f 0.07(  4.33%)
   453. (0.00004) RY*(11) C  14           s(  4.93%)p15.48( 76.29%)d 3.59( 17.71%)
                                                  f 0.22(  1.07%)
   454. (0.00002) RY*(12) C  14           s(  2.84%)p 3.69( 10.49%)d26.46( 75.19%)
                                                  f 4.04( 11.48%)
   455. (0.00000) RY*(13) C  14           s(  2.67%)p 0.77(  2.04%)d35.61( 94.95%)
                                                  f 0.13(  0.35%)
   456. (0.00001) RY*(14) C  14           s( 26.49%)p 0.91( 24.06%)d 1.70( 45.16%)
                                                  f 0.16(  4.29%)
   457. (0.00000) RY*(15) C  14           s(  1.44%)p 5.57(  8.00%)d62.88( 90.37%)
                                                  f 0.13(  0.19%)
   458. (0.00001) RY*(16) C  14           s( 21.79%)p 3.28( 71.43%)d 0.29(  6.32%)
                                                  f 0.02(  0.46%)
   459. (0.00000) RY*(17) C  14           s(  0.84%)p11.30(  9.50%)d99.99( 89.47%)
                                                  f 0.23(  0.19%)
   460. (0.00000) RY*(18) C  14           s(  1.06%)p 5.48(  5.82%)d87.35( 92.76%)
                                                  f 0.33(  0.35%)
   461. (0.00000) RY*(19) C  14           s( 99.46%)p 0.00(  0.38%)d 0.00(  0.08%)
                                                  f 0.00(  0.08%)
   462. (0.00000) RY*(20) C  14           s(  0.04%)p55.84(  2.43%)d99.99( 13.96%)
                                                  f99.99( 83.56%)
   463. (0.00000) RY*(21) C  14           s(  1.36%)p 1.12(  1.52%)d 7.25(  9.85%)
                                                  f64.23( 87.27%)
   464. (0.00000) RY*(22) C  14           s(  0.48%)p 6.16(  2.94%)d 7.94(  3.79%)
                                                  f99.99( 92.80%)
   465. (0.00000) RY*(23) C  14           s(  2.32%)p 0.46(  1.07%)d 2.85(  6.62%)
                                                  f38.73( 89.99%)
   466. (0.00000) RY*(24) C  14           s(  0.07%)p 5.65(  0.42%)d41.80(  3.09%)
                                                  f99.99( 96.42%)
   467. (0.00000) RY*(25) C  14           s(  0.09%)p25.91(  2.34%)d60.33(  5.45%)
                                                  f99.99( 92.11%)
   468. (0.00000) RY*(26) C  14           s(  0.03%)p13.13(  0.33%)d36.67(  0.93%)
                                                  f99.99( 98.71%)
   469. (0.00130) RY*( 1) C  15           s(  5.37%)p14.24( 76.51%)d 3.23( 17.37%)
                                                  f 0.14(  0.74%)
                                            0.0000  0.0033  0.2317  0.0014  0.0053
                                            0.0029  0.1933  0.0575 -0.0108  0.0294
                                            0.0405 -0.0117 -0.8484  0.0435  0.1605
                                           -0.0315 -0.0777 -0.1085 -0.3460 -0.0578
                                           -0.0062  0.0515  0.0433  0.0390  0.0336
                                           -0.0116  0.0244  0.0104 -0.0560 -0.0469
                                           -0.0119
   470. (0.00089) RY*( 2) C  15           s(  4.22%)p19.08( 80.55%)d 3.49( 14.71%)
                                                  f 0.12(  0.52%)
                                            0.0000 -0.0005  0.2016  0.0393 -0.0057
                                            0.0104  0.8161 -0.0691 -0.0050  0.2217
                                            0.0495  0.0010  0.2868 -0.0251  0.2971
                                            0.1130 -0.1177  0.0837  0.0219  0.0649
                                            0.1242 -0.0451 -0.0001  0.0552  0.0136
                                           -0.0345  0.0085  0.0332 -0.0426  0.0001
                                            0.0286
   471. (0.00032) RY*( 3) C  15           s( 13.52%)p 4.99( 67.47%)d 1.40( 18.86%)
                                                  f 0.01(  0.15%)
                                            0.0000  0.0058  0.3630 -0.0579 -0.0090
                                           -0.0060 -0.2797  0.1766 -0.0020  0.6570
                                            0.2680 -0.0035  0.1705  0.1809 -0.1317
                                           -0.1441 -0.0378 -0.0775 -0.2727  0.1508
                                            0.0950 -0.1608 -0.1045  0.0127 -0.0247
                                            0.0021  0.0199  0.0096  0.0086  0.0018
                                            0.0174
   472. (0.00030) RY*( 4) C  15           s(  2.49%)p 5.97( 14.84%)d32.12( 79.88%)
                                                  f 1.13(  2.80%)
                                            0.0000  0.0039  0.1333 -0.0841  0.0030
                                            0.0132 -0.0127 -0.0741 -0.0188  0.3550
                                            0.0889  0.0107 -0.0306 -0.0848  0.0811
                                            0.1596  0.2103 -0.0608  0.2750 -0.1143
                                           -0.5964  0.3422  0.3503 -0.1861 -0.0689
                                           -0.0056 -0.0315 -0.0475  0.0406 -0.1196
                                           -0.0633
   473. (0.00017) RY*( 5) C  15           s(  5.27%)p 2.08( 10.94%)d14.50( 76.45%)
                                                  f 1.39(  7.34%)
                                           -0.0000 -0.0105  0.2104 -0.0775  0.0481
                                            0.0195 -0.0231 -0.0831  0.0210 -0.1359
                                           -0.1291  0.0087  0.0807 -0.2438 -0.0320
                                            0.0339  0.4161 -0.2276 -0.1848  0.2412
                                            0.3370 -0.0802  0.5459 -0.1645 -0.0699
                                            0.0280  0.2092  0.0412 -0.0415  0.0375
                                            0.1382
   474. (0.00011) RY*( 6) C  15           s( 17.53%)p 2.84( 49.72%)d 1.57( 27.53%)
                                                  f 0.30(  5.22%)
                                           -0.0000  0.0028  0.3488  0.2314 -0.0088
                                           -0.0015  0.1466  0.2993  0.0079 -0.3758
                                           -0.0574 -0.0087  0.2165  0.4411 -0.2959
                                           -0.0203 -0.1286 -0.1624 -0.1475 -0.2036
                                           -0.2057  0.1271  0.1372 -0.0629 -0.1785
                                           -0.0197  0.1192  0.0235  0.0508 -0.0273
                                           -0.0434
   475. (0.00011) RY*( 7) C  15           s(  6.74%)p 0.80(  5.42%)d12.07( 81.44%)
                                                  f 0.95(  6.40%)
                                           -0.0000 -0.0032  0.2574  0.0290  0.0186
                                            0.0021  0.0071 -0.0225  0.0246  0.1061
                                            0.0530 -0.0018 -0.1974 -0.0023 -0.2742
                                           -0.0924 -0.1272  0.1289  0.5929 -0.4132
                                            0.3466 -0.1562  0.1362 -0.1119  0.0768
                                            0.0209  0.1249 -0.0776 -0.0760  0.0882
                                            0.1498
   476. (0.00009) RY*( 8) C  15           s( 13.37%)p 4.37( 58.37%)d 1.67( 22.34%)
                                                  f 0.44(  5.92%)
   477. (0.00007) RY*( 9) C  15           s( 13.14%)p 3.18( 41.82%)d 3.16( 41.49%)
                                                  f 0.27(  3.55%)
   478. (0.00005) RY*(10) C  15           s( 11.55%)p 1.41( 16.32%)d 5.20( 60.11%)
                                                  f 1.04( 12.03%)
   479. (0.00003) RY*(11) C  15           s( 14.65%)p 3.61( 52.81%)d 2.01( 29.40%)
                                                  f 0.21(  3.15%)
   480. (0.00003) RY*(12) C  15           s( 35.40%)p 0.34( 12.07%)d 1.20( 42.41%)
                                                  f 0.29( 10.12%)
   481. (0.00000) RY*(13) C  15           s(  4.54%)p 0.37(  1.67%)d20.49( 92.96%)
                                                  f 0.19(  0.84%)
   482. (0.00000) RY*(14) C  15           s( 99.27%)p 0.00(  0.45%)d 0.00(  0.15%)
                                                  f 0.00(  0.13%)
   483. (0.00000) RY*(15) C  15           s( 10.12%)p 0.77(  7.78%)d 8.06( 81.49%)
                                                  f 0.06(  0.61%)
   484. (0.00001) RY*(16) C  15           s(  8.77%)p 0.95(  8.29%)d 9.39( 82.40%)
                                                  f 0.06(  0.54%)
   485. (0.00000) RY*(17) C  15           s(  0.64%)p 2.39(  1.53%)d99.99( 97.73%)
                                                  f 0.17(  0.11%)
   486. (0.00001) RY*(18) C  15           s( 12.08%)p 5.26( 63.62%)d 0.94( 11.39%)
                                                  f 1.07( 12.91%)
   487. (0.00000) RY*(19) C  15           s( 12.59%)p 0.53(  6.66%)d 6.40( 80.53%)
                                                  f 0.02(  0.22%)
   488. (0.00000) RY*(20) C  15           s(  1.02%)p 3.37(  3.45%)d10.75( 11.02%)
                                                  f82.49( 84.51%)
   489. (0.00000) RY*(21) C  15           s(  0.65%)p 0.89(  0.58%)d 0.68(  0.44%)
                                                  f99.99( 98.33%)
   490. (0.00000) RY*(22) C  15           s(  2.24%)p 2.46(  5.50%)d 4.08(  9.13%)
                                                  f37.16( 83.13%)
   491. (0.00000) RY*(23) C  15           s(  0.55%)p 6.29(  3.46%)d 3.51(  1.93%)
                                                  f99.99( 94.06%)
   492. (0.00000) RY*(24) C  15           s(  0.94%)p 1.01(  0.96%)d 2.80(  2.65%)
                                                  f99.99( 95.45%)
   493. (0.00000) RY*(25) C  15           s(  0.99%)p 0.70(  0.69%)d 4.27(  4.21%)
                                                  f95.42( 94.11%)
   494. (0.00000) RY*(26) C  15           s(  2.41%)p 3.76(  9.07%)d 4.74( 11.42%)
                                                  f31.98( 77.09%)
   495. (0.00313) RY*( 1) C  16           s(  6.78%)p11.56( 78.32%)d 2.18( 14.78%)
                                                  f 0.02(  0.12%)
                                           -0.0000  0.0004  0.2599  0.0122 -0.0089
                                           -0.0008  0.0604  0.0261  0.0308  0.8714
                                           -0.0762 -0.0012 -0.1050 -0.0422 -0.0201
                                           -0.0579 -0.0584 -0.0854 -0.2147  0.0332
                                           -0.1501 -0.1978 -0.1325 -0.0833  0.0222
                                            0.0124 -0.0100 -0.0001 -0.0194 -0.0078
                                           -0.0035
   496. (0.00168) RY*( 2) C  16           s(  0.23%)p99.99( 81.93%)d77.00( 17.33%)
                                                  f 2.32(  0.52%)
                                            0.0000 -0.0028  0.0461  0.0080 -0.0071
                                           -0.0045 -0.8673  0.0765  0.0034  0.0182
                                           -0.0198  0.0001 -0.2342  0.0751  0.1825
                                           -0.1002  0.0145  0.0379  0.0406  0.0932
                                           -0.2240 -0.0696  0.2003  0.1511 -0.0525
                                           -0.0179  0.0162  0.0324 -0.0015 -0.0169
                                           -0.0232
   497. (0.00134) RY*( 3) C  16           s(  3.55%)p18.04( 64.12%)d 8.93( 31.72%)
                                                  f 0.17(  0.61%)
                                           -0.0000  0.0089  0.1695  0.0816  0.0077
                                           -0.0009  0.1980  0.0222  0.0128 -0.0820
                                            0.0171 -0.0032 -0.7694 -0.0484 -0.0029
                                            0.1257  0.0570  0.4495  0.0898 -0.2136
                                           -0.1227  0.1202 -0.0298 -0.1094 -0.0582
                                            0.0321 -0.0088 -0.0206 -0.0248  0.0169
                                           -0.0168
   498. (0.00076) RY*( 4) C  16           s(  1.56%)p 6.66( 10.40%)d55.29( 86.38%)
                                                  f 1.06(  1.65%)
                                            0.0000 -0.0014  0.1194  0.0323 -0.0181
                                            0.0014 -0.1938 -0.1165  0.0088  0.0134
                                            0.0142  0.0011  0.1590 -0.1649 -0.0792
                                            0.6323 -0.0038 -0.1639 -0.0912 -0.0500
                                           -0.2093  0.3642  0.1049 -0.4823 -0.0915
                                           -0.0092  0.0047  0.0536 -0.0693  0.0010
                                           -0.0193
   499. (0.00063) RY*( 5) C  16           s(  0.57%)p38.56( 22.10%)d99.99( 76.54%)
                                                  f 1.38(  0.79%)
                                           -0.0000 -0.0038 -0.0458  0.0600 -0.0039
                                           -0.0054 -0.0160 -0.0498  0.0030  0.2048
                                            0.0284 -0.0106  0.4159 -0.0492  0.1717
                                           -0.0464  0.0818  0.3805  0.1651 -0.6041
                                           -0.2617  0.2196  0.0021  0.2708  0.0018
                                           -0.0167  0.0677  0.0403 -0.0044  0.0272
                                           -0.0258
   500. (0.00047) RY*( 6) C  16           s( 42.17%)p 0.29( 12.26%)d 0.99( 41.95%)
                                                  f 0.09(  3.62%)
                                            0.0000  0.0015  0.6413  0.1009 -0.0137
                                           -0.0176  0.2226  0.0057  0.0157 -0.2025
                                            0.0921  0.0055  0.1338 -0.0712  0.3136
                                           -0.3132 -0.0043 -0.0858 -0.1017  0.1193
                                           -0.1968  0.0736  0.3805 -0.0477 -0.0794
                                            0.1368  0.1003  0.0256  0.0140 -0.0075
                                            0.0144
   501. (0.00038) RY*( 7) C  16           s( 12.49%)p 2.31( 28.87%)d 4.44( 55.52%)
                                                  f 0.25(  3.12%)
                                            0.0000 -0.0022  0.3326  0.1156 -0.0308
                                            0.0004 -0.1189  0.3295  0.0094 -0.0870
                                            0.0742  0.0067  0.2813  0.2714 -0.2673
                                            0.1753 -0.2859  0.5241 -0.1763  0.1407
                                            0.1349 -0.1234 -0.1106 -0.0075  0.0481
                                           -0.0121 -0.0856 -0.1097 -0.0915  0.0137
                                           -0.0279
   502. (0.00024) RY*( 8) C  16           s( 12.64%)p 0.89( 11.25%)d 5.35( 67.65%)
                                                  f 0.67(  8.46%)
                                           -0.0000 -0.0027  0.3482  0.0112  0.0706
                                            0.0072 -0.0360  0.2045  0.0106 -0.0811
                                           -0.1179 -0.0113 -0.0656  0.2105 -0.0862
                                            0.2197  0.4336 -0.3076 -0.1428 -0.1573
                                            0.1026  0.1778 -0.2890  0.4091  0.0444
                                            0.0507  0.0353  0.0870  0.0638 -0.2166
                                            0.1424
   503. (0.00015) RY*( 9) C  16           s( 11.67%)p 2.61( 30.45%)d 4.63( 54.00%)
                                                  f 0.33(  3.89%)
                                           -0.0000  0.0008  0.3371  0.0472  0.0286
                                            0.0147 -0.3005 -0.3195 -0.0007 -0.0048
                                            0.1117  0.0049  0.0387 -0.3129 -0.1606
                                           -0.2680  0.1068  0.0356  0.1777 -0.1761
                                            0.4852  0.0238 -0.2750 -0.2357  0.0550
                                            0.0494  0.0408 -0.0658  0.1282  0.1048
                                           -0.0008
   504. (0.00011) RY*(10) C  16           s(  1.61%)p15.21( 24.47%)d39.90( 64.21%)
                                                  f 6.04(  9.71%)
                                            0.0000  0.0067  0.1029 -0.0596 -0.0437
                                           -0.0148  0.0109  0.2757 -0.0126  0.0472
                                           -0.3700  0.0185 -0.0505 -0.1619  0.3183
                                            0.2849 -0.2454 -0.1371  0.1364 -0.2689
                                            0.4227 -0.1460  0.2878  0.0825  0.0815
                                           -0.0521  0.0660 -0.2376  0.0140  0.1492
                                           -0.0671
   505. (0.00010) RY*(11) C  16           s(  3.84%)p 5.41( 20.81%)d14.84( 57.06%)
                                                  f 4.76( 18.28%)
   506. (0.00007) RY*(12) C  16           s(  0.07%)p99.99( 37.47%)d99.99( 45.95%)
                                                  f99.99( 16.51%)
   507. (0.00005) RY*(13) C  16           s(  2.73%)p 6.72( 18.34%)d26.17( 71.41%)
                                                  f 2.76(  7.53%)
   508. (0.00005) RY*(14) C  16           s(  6.84%)p 2.43( 16.63%)d 6.24( 42.70%)
                                                  f 4.94( 33.83%)
   509. (0.00001) RY*(15) C  16           s( 90.62%)p 0.01(  1.23%)d 0.06(  5.78%)
                                                  f 0.03(  2.37%)
   510. (0.00001) RY*(16) C  16           s(  2.88%)p 9.19( 26.45%)d23.70( 68.19%)
                                                  f 0.86(  2.48%)
   511. (0.00001) RY*(17) C  16           s(  0.48%)p95.32( 45.72%)d99.99( 53.06%)
                                                  f 1.54(  0.74%)
   512. (0.00001) RY*(18) C  16           s(  0.87%)p23.55( 20.40%)d74.05( 64.12%)
                                                  f16.87( 14.61%)
   513. (0.00000) RY*(19) C  16           s( 97.96%)p 0.00(  0.17%)d 0.02(  1.72%)
                                                  f 0.00(  0.14%)
   514. (0.00000) RY*(20) C  16           s(  0.01%)p99.99(  2.62%)d99.99( 20.64%)
                                                  f99.99( 76.73%)
   515. (0.00001) RY*(21) C  16           s(  0.10%)p99.99( 34.40%)d99.99( 11.65%)
                                                  f99.99( 53.86%)
   516. (0.00001) RY*(22) C  16           s(  0.07%)p11.48(  0.81%)d99.99(  7.78%)
                                                  f99.99( 91.34%)
   517. (0.00000) RY*(23) C  16           s(  0.02%)p69.73(  1.60%)d99.99( 17.31%)
                                                  f99.99( 81.07%)
   518. (0.00001) RY*(24) C  16           s(  0.15%)p20.16(  2.93%)d60.85(  8.86%)
                                                  f99.99( 88.06%)
   519. (0.00000) RY*(25) C  16           s(  0.02%)p99.99(  4.75%)d99.99(  9.00%)
                                                  f99.99( 86.23%)
   520. (0.00001) RY*(26) C  16           s(  0.01%)p99.99(  1.95%)d99.99(  4.33%)
                                                  f99.99( 93.71%)
   521. (0.00137) RY*( 1) C  17           s(  4.80%)p16.27( 78.06%)d 3.39( 16.25%)
                                                  f 0.19(  0.89%)
                                            0.0000  0.0035  0.1277  0.1779  0.0024
                                           -0.0077 -0.8602 -0.0552  0.0138  0.1598
                                            0.0630  0.0095  0.0584 -0.0660  0.1318
                                           -0.0784  0.2076  0.0433 -0.0459 -0.0393
                                            0.2766  0.0441 -0.0682 -0.0851  0.0425
                                           -0.0341 -0.0234 -0.0496 -0.0101 -0.0406
                                           -0.0342
   522. (0.00092) RY*( 2) C  17           s(  8.30%)p 9.39( 77.89%)d 1.63( 13.50%)
                                                  f 0.04(  0.31%)
                                           -0.0000 -0.0013  0.1640  0.2368  0.0013
                                           -0.0007  0.1101 -0.0162  0.0123  0.3365
                                            0.1006 -0.0083 -0.8000  0.0540 -0.1440
                                           -0.0165  0.0773 -0.0743 -0.0324 -0.0108
                                            0.1626  0.0840  0.1337  0.2236  0.0229
                                           -0.0169  0.0257 -0.0221  0.0210 -0.0195
                                           -0.0172
   523. (0.00037) RY*( 3) C  17           s(  0.52%)p99.99( 82.15%)d33.14( 17.18%)
                                                  f 0.28(  0.15%)
                                           -0.0000 -0.0054  0.0686  0.0143  0.0156
                                           -0.0081  0.2093  0.1337 -0.0132  0.7350
                                            0.1933  0.0038  0.4157  0.0955 -0.1110
                                            0.0677  0.2871 -0.1188 -0.1635  0.0493
                                           -0.0869  0.1164 -0.0099 -0.0894  0.0230
                                            0.0099  0.0167  0.0135  0.0004 -0.0061
                                            0.0184
   524. (0.00027) RY*( 4) C  17           s(  3.39%)p 5.14( 17.45%)d22.60( 76.71%)
                                                  f 0.72(  2.45%)
                                           -0.0000  0.0001  0.1440  0.1147  0.0077
                                            0.0029  0.1873 -0.0104  0.0200  0.1882
                                            0.2685 -0.0106  0.1679  0.0552  0.1994
                                           -0.1013 -0.3897  0.3020  0.4417 -0.3554
                                            0.3839 -0.0695 -0.0051  0.0170 -0.0557
                                           -0.0038 -0.1087 -0.0525  0.0266 -0.0280
                                           -0.0727
   525. (0.00018) RY*( 5) C  17           s( 22.69%)p 0.24(  5.45%)d 2.70( 61.32%)
                                                  f 0.46( 10.54%)
                                           -0.0000 -0.0035  0.0956  0.4662  0.0197
                                           -0.0116  0.1717  0.0094 -0.0074 -0.0534
                                           -0.0450 -0.0218  0.0951 -0.1019  0.0595
                                           -0.1190 -0.2699  0.0820 -0.5184  0.2831
                                            0.2025 -0.1840 -0.3001 -0.0458 -0.0015
                                            0.1221  0.1874 -0.1356  0.1493 -0.1125
                                           -0.0454
   526. (0.00017) RY*( 6) C  17           s(  2.28%)p 6.62( 15.07%)d33.89( 77.19%)
                                                  f 2.40(  5.46%)
                                           -0.0000 -0.0042 -0.0497  0.1409  0.0205
                                            0.0018 -0.2010 -0.1178 -0.0003 -0.0091
                                            0.0959 -0.0208  0.0419  0.2915 -0.4050
                                            0.2988 -0.3794  0.1839 -0.1631 -0.0677
                                           -0.1366  0.1042  0.4535 -0.2728 -0.0534
                                            0.0633  0.0525 -0.0421  0.2051  0.0188
                                            0.0281
   527. (0.00011) RY*( 7) C  17           s( 29.97%)p 0.61( 18.41%)d 1.61( 48.17%)
                                                  f 0.12(  3.46%)
                                            0.0000  0.0059  0.1132  0.5350 -0.0256
                                           -0.0018  0.1169 -0.0070 -0.0056 -0.0878
                                           -0.1890  0.0217  0.0132 -0.3553 -0.2141
                                            0.2949  0.2455  0.0327  0.3328 -0.1768
                                           -0.1736  0.0112 -0.1523 -0.3033  0.0902
                                           -0.0781 -0.0763 -0.1045 -0.0093  0.0568
                                            0.0169
   528. (0.00007) RY*( 8) C  17           s( 17.28%)p 1.01( 17.42%)d 3.18( 54.93%)
                                                  f 0.60( 10.38%)
   529. (0.00005) RY*( 9) C  17           s(  7.53%)p 7.60( 57.23%)d 3.91( 29.47%)
                                                  f 0.77(  5.78%)
   530. (0.00004) RY*(10) C  17           s(  3.55%)p15.81( 56.09%)d 9.93( 35.23%)
                                                  f 1.45(  5.13%)
   531. (0.00003) RY*(11) C  17           s( 14.19%)p 2.89( 41.03%)d 2.09( 29.64%)
                                                  f 1.07( 15.14%)
   532. (0.00003) RY*(12) C  17           s( 12.50%)p 2.90( 36.27%)d 3.88( 48.52%)
                                                  f 0.22(  2.72%)
   533. (0.00000) RY*(13) C  17           s(  2.09%)p 1.74(  3.64%)d45.05( 94.08%)
                                                  f 0.09(  0.20%)
   534. (0.00001) RY*(14) C  17           s( 45.90%)p 1.07( 49.11%)d 0.09(  4.05%)
                                                  f 0.02(  0.95%)
   535. (0.00000) RY*(15) C  17           s(  0.41%)p 3.95(  1.63%)d99.99( 97.53%)
                                                  f 1.04(  0.43%)
   536. (0.00000) RY*(16) C  17           s(  1.23%)p 0.47(  0.58%)d79.57( 98.02%)
                                                  f 0.13(  0.16%)
   537. (0.00001) RY*(17) C  17           s(  4.98%)p 1.22(  6.08%)d17.71( 88.24%)
                                                  f 0.14(  0.70%)
   538. (0.00000) RY*(18) C  17           s( 99.20%)p 0.01(  0.58%)d 0.00(  0.14%)
                                                  f 0.00(  0.08%)
   539. (0.00001) RY*(19) C  17           s( 16.51%)p 1.11( 18.37%)d 3.90( 64.40%)
                                                  f 0.04(  0.72%)
   540. (0.00001) RY*(20) C  17           s(  0.50%)p 5.36(  2.65%)d17.22(  8.53%)
                                                  f99.99( 88.32%)
   541. (0.00000) RY*(21) C  17           s(  0.21%)p24.12(  5.05%)d13.48(  2.82%)
                                                  f99.99( 91.92%)
   542. (0.00000) RY*(22) C  17           s(  0.24%)p 5.85(  1.39%)d38.82(  9.25%)
                                                  f99.99( 89.12%)
   543. (0.00000) RY*(23) C  17           s(  0.70%)p 1.88(  1.32%)d19.40( 13.68%)
                                                  f99.99( 84.30%)
   544. (0.00000) RY*(24) C  17           s(  0.76%)p 5.15(  3.93%)d 6.25(  4.77%)
                                                  f99.99( 90.54%)
   545. (0.00000) RY*(25) C  17           s(  0.31%)p11.12(  3.42%)d15.46(  4.75%)
                                                  f99.99( 91.52%)
   546. (0.00000) RY*(26) C  17           s(  0.03%)p10.42(  0.27%)d42.86(  1.09%)
                                                  f99.99( 98.61%)
   547. (0.00127) RY*( 1) C  18           s(  3.32%)p23.25( 77.18%)d 5.50( 18.27%)
                                                  f 0.37(  1.24%)
                                            0.0000  0.0024  0.1813  0.0168  0.0064
                                           -0.0073  0.1925  0.0471  0.0119  0.2635
                                            0.0215  0.0064  0.8137 -0.0170  0.0520
                                            0.0986  0.2694  0.1270 -0.0553  0.0352
                                            0.2331 -0.0828  0.0974 -0.0807 -0.0277
                                           -0.0155 -0.0431  0.0491  0.0486  0.0684
                                           -0.0079
   548. (0.00097) RY*( 2) C  18           s(  9.04%)p 8.39( 75.80%)d 1.63( 14.70%)
                                                  f 0.05(  0.46%)
                                            0.0000  0.0010  0.3006  0.0060 -0.0028
                                           -0.0042  0.5398 -0.0274  0.0136  0.5280
                                           -0.0677 -0.0016 -0.4267  0.0151  0.1915
                                            0.0435  0.0676 -0.1200  0.0737  0.0668
                                            0.2411  0.0872 -0.0872  0.0786 -0.0046
                                           -0.0093 -0.0072  0.0514 -0.0304  0.0191
                                            0.0229
   549. (0.00032) RY*( 3) C  18           s(  1.73%)p16.22( 28.08%)d40.00( 69.26%)
                                                  f 0.53(  0.93%)
                                           -0.0000  0.0032  0.1251  0.0391 -0.0116
                                            0.0010  0.0180  0.0776 -0.0113 -0.1537
                                            0.0777  0.0240  0.0140 -0.4939  0.3943
                                           -0.3339  0.3050  0.0966 -0.1314  0.0476
                                           -0.2188 -0.1246 -0.4683  0.1449  0.0194
                                            0.0422  0.0044  0.0401 -0.0241 -0.0487
                                            0.0502
   550. (0.00024) RY*( 4) C  18           s(  6.46%)p11.46( 74.04%)d 2.84( 18.35%)
                                                  f 0.18(  1.16%)
                                            0.0000  0.0073  0.2510 -0.0353 -0.0177
                                           -0.0126  0.5038  0.2614  0.0069 -0.6067
                                           -0.1388 -0.0055 -0.0663 -0.1621 -0.3454
                                            0.0618  0.1153 -0.0556  0.0377 -0.0124
                                            0.0758 -0.0575  0.1038 -0.1501  0.0072
                                           -0.0282  0.0087 -0.0056  0.0054  0.0748
                                           -0.0707
   551. (0.00014) RY*( 5) C  18           s(  4.78%)p 9.94( 47.50%)d 8.71( 41.62%)
                                                  f 1.28(  6.11%)
                                            0.0000  0.0056  0.0618  0.2064 -0.0363
                                           -0.0081 -0.3118  0.0795  0.0050  0.2704
                                            0.0928  0.0027 -0.1739 -0.5093 -0.4060
                                            0.2886  0.1628  0.2041  0.1692 -0.1946
                                            0.1496 -0.0682 -0.0712 -0.0358  0.1095
                                           -0.0317  0.0005 -0.0750  0.0281  0.1083
                                           -0.1731
   552. (0.00015) RY*( 6) C  18           s( 21.69%)p 0.78( 16.85%)d 2.26( 48.98%)
                                                  f 0.58( 12.49%)
                                           -0.0000 -0.0075  0.4537  0.0957  0.0427
                                            0.0254 -0.1726 -0.2269 -0.0007 -0.0253
                                            0.2239 -0.0058 -0.1282 -0.1389  0.1598
                                           -0.0202  0.1029 -0.0630 -0.0523  0.0888
                                           -0.1998 -0.0130  0.5483 -0.3130  0.0657
                                            0.2656 -0.0873  0.0364  0.0606 -0.0356
                                            0.1900
   553. (0.00009) RY*( 7) C  18           s(  7.23%)p 2.96( 21.38%)d 9.10( 65.82%)
                                                  f 0.77(  5.57%)
   554. (0.00006) RY*( 8) C  18           s(  4.74%)p 0.98(  4.63%)d17.35( 82.22%)
                                                  f 1.77(  8.40%)
   555. (0.00007) RY*( 9) C  18           s( 14.25%)p 4.20( 59.84%)d 1.61( 22.88%)
                                                  f 0.21(  3.03%)
   556. (0.00004) RY*(10) C  18           s(  5.06%)p 5.07( 25.66%)d11.90( 60.28%)
                                                  f 1.78(  8.99%)
   557. (0.00002) RY*(11) C  18           s( 23.13%)p 1.82( 42.07%)d 1.36( 31.54%)
                                                  f 0.14(  3.26%)
   558. (0.00001) RY*(12) C  18           s(  9.07%)p 8.25( 74.86%)d 1.63( 14.81%)
                                                  f 0.14(  1.25%)
   559. (0.00000) RY*(13) C  18           s( 12.29%)p 0.68(  8.32%)d 6.41( 78.82%)
                                                  f 0.05(  0.57%)
   560. (0.00000) RY*(14) C  18           s( 99.56%)p 0.00(  0.10%)d 0.00(  0.29%)
                                                  f 0.00(  0.05%)
   561. (0.00000) RY*(15) C  18           s(  0.36%)p 2.44(  0.88%)d99.99( 98.52%)
                                                  f 0.65(  0.23%)
   562. (0.00001) RY*(16) C  18           s( 71.08%)p 0.35( 24.76%)d 0.06(  3.99%)
                                                  f 0.00(  0.17%)
   563. (0.00001) RY*(17) C  18           s(  0.04%)p84.43(  3.43%)d99.99( 96.50%)
                                                  f 0.83(  0.03%)
   564. (0.00000) RY*(18) C  18           s(  2.72%)p 2.02(  5.49%)d33.47( 91.08%)
                                                  f 0.26(  0.71%)
   565. (0.00000) RY*(19) C  18           s(  0.82%)p 1.95(  1.59%)d99.99( 97.54%)
                                                  f 0.06(  0.05%)
   566. (0.00000) RY*(20) C  18           s(  0.18%)p 9.81(  1.75%)d46.29(  8.28%)
                                                  f99.99( 89.78%)
   567. (0.00000) RY*(21) C  18           s(  1.33%)p 0.70(  0.94%)d 5.46(  7.28%)
                                                  f67.86( 90.45%)
   568. (0.00000) RY*(22) C  18           s(  0.08%)p12.96(  1.02%)d50.03(  3.93%)
                                                  f99.99( 94.98%)
   569. (0.00000) RY*(23) C  18           s(  0.10%)p12.92(  1.25%)d65.04(  6.30%)
                                                  f99.99( 92.36%)
   570. (0.00000) RY*(24) C  18           s(  0.39%)p 4.50(  1.76%)d11.33(  4.43%)
                                                  f99.99( 93.41%)
   571. (0.00000) RY*(25) C  18           s(  0.29%)p 2.67(  0.76%)d17.60(  5.03%)
                                                  f99.99( 93.92%)
   572. (0.00000) RY*(26) C  18           s(  0.31%)p 1.80(  0.57%)d27.84(  8.74%)
                                                  f99.99( 90.38%)
   573. (0.00677) RY*( 1) C  19           s(  1.91%)p49.07( 93.72%)d 2.27(  4.34%)
                                                  f 0.02(  0.03%)
                                           -0.0000  0.0371  0.1166  0.0642  0.0023
                                            0.0000 -0.0001 -0.0000  0.0390  0.9118
                                            0.0013 -0.0043 -0.3211  0.0346 -0.0004
                                           -0.0006 -0.0011 -0.0020  0.0376  0.0416
                                            0.0735  0.1688  0.0756 -0.0242 -0.0091
                                            0.0000  0.0139 -0.0035 -0.0000  0.0000
                                            0.0072
   574. (0.00440) RY*( 2) C  19           s( 74.64%)p 0.21( 15.91%)d 0.12(  9.29%)
                                                  f 0.00(  0.17%)
                                           -0.0000 -0.0263  0.8545 -0.1242  0.0016
                                            0.0001 -0.0020 -0.0005  0.0626 -0.2078
                                            0.1610  0.0001 -0.2858  0.0663 -0.0050
                                           -0.0082 -0.0150 -0.0266  0.0758 -0.0505
                                            0.2651 -0.1082 -0.0184 -0.0356 -0.0130
                                            0.0002  0.0117 -0.0144 -0.0006  0.0001
                                            0.0339
   575. (0.00352) RY*( 3) C  19           s( 10.29%)p 7.96( 81.87%)d 0.75(  7.75%)
                                                  f 0.01(  0.09%)
                                           -0.0000 -0.0032  0.3202 -0.0168  0.0025
                                           -0.0008  0.0165  0.0020  0.0103  0.2561
                                            0.0118 -0.0467  0.8426 -0.2013  0.0152
                                            0.0301  0.0539  0.0944 -0.1651 -0.0172
                                            0.1609 -0.0297  0.1005  0.0116 -0.0009
                                           -0.0015  0.0186  0.0145  0.0017  0.0001
                                            0.0191
   576. (0.00320) RY*( 4) C  19           s(  0.00%)p 1.00( 88.41%)d 0.12( 10.87%)
                                                  f 0.01(  0.72%)
                                            0.0000 -0.0000  0.0036  0.0000  0.0000
                                            0.0359 -0.9394 -0.0089  0.0002  0.0042
                                           -0.0001 -0.0002  0.0134 -0.0033  0.3113
                                           -0.0899 -0.0588  0.0171 -0.0027  0.0004
                                            0.0019 -0.0005  0.0016 -0.0001 -0.0000
                                            0.0712  0.0004  0.0004  0.0344 -0.0304
                                            0.0003
   577. (0.00131) RY*( 5) C  19           s(  0.06%)p29.69(  1.90%)d99.99( 97.86%)
                                                  f 2.72(  0.17%)
                                           -0.0000 -0.0003  0.0220  0.0125 -0.0002
                                            0.0055 -0.0364 -0.0569  0.0080  0.0327
                                           -0.0064  0.0213  0.1047 -0.0425 -0.2227
                                           -0.2309 -0.4529 -0.8106 -0.0258  0.0965
                                           -0.0238 -0.0251  0.0116 -0.0462 -0.0070
                                           -0.0030  0.0161  0.0259 -0.0237 -0.0007
                                            0.0139
   578. (0.00086) RY*( 6) C  19           s(  9.67%)p 0.04(  0.40%)d 9.20( 88.98%)
                                                  f 0.10(  0.95%)
                                           -0.0000 -0.0241  0.3021 -0.0684 -0.0135
                                           -0.0011  0.0067  0.0150  0.0245 -0.0249
                                            0.0249 -0.0058  0.0014 -0.0427  0.0222
                                            0.0036  0.0160  0.0303 -0.2739  0.1407
                                           -0.8033  0.3697 -0.0953 -0.0480 -0.0158
                                            0.0022  0.0020 -0.0401  0.0024  0.0010
                                            0.0872
   579. (0.00079) RY*( 7) C  19           s(  0.00%)p 1.00( 46.59%)d 1.11( 51.54%)
                                                  f 0.04(  1.86%)
                                            0.0000 -0.0006  0.0054 -0.0042 -0.0003
                                            0.0444 -0.2470 -0.6347 -0.0002 -0.0028
                                            0.0013 -0.0023 -0.0070  0.0043 -0.6448
                                            0.2814  0.1043  0.0938 -0.0060 -0.0141
                                           -0.0165  0.0149 -0.0036  0.0076  0.0009
                                           -0.1045 -0.0027 -0.0055 -0.0750 -0.0451
                                           -0.0000
   580. (0.00035) RY*( 8) C  19           s(  0.99%)p16.21( 16.02%)d81.10( 80.15%)
                                                  f 2.88(  2.84%)
                                            0.0000  0.0026  0.0235  0.0965  0.0031
                                            0.0002  0.0023 -0.0157  0.0033  0.0092
                                            0.0711  0.0199  0.0074 -0.3929  0.0181
                                            0.0299  0.0453  0.0788  0.4979  0.6028
                                           -0.1362 -0.2655  0.0080 -0.3026 -0.0529
                                           -0.0019  0.0733  0.1102  0.0010  0.0002
                                            0.0899
   581. (0.00028) RY*( 9) C  19           s(  4.17%)p20.26( 84.59%)d 2.47( 10.30%)
                                                  f 0.22(  0.94%)
                                           -0.0000 -0.0150  0.1554  0.1312 -0.0122
                                            0.0001 -0.0002 -0.0011  0.0161  0.0013
                                           -0.9021  0.0022 -0.0063  0.1784  0.0028
                                            0.0080  0.0135  0.0223 -0.0923  0.1222
                                            0.0147 -0.1596 -0.1876 -0.1339 -0.0355
                                           -0.0007  0.0488  0.0610  0.0001 -0.0001
                                           -0.0450
   582. (0.00028) RY*(10) C  19           s(  0.00%)p 1.00( 56.81%)d 0.75( 42.70%)
                                                  f 0.01(  0.49%)
                                            0.0000  0.0000  0.0003  0.0020  0.0000
                                            0.0046 -0.2140  0.7227 -0.0000 -0.0003
                                            0.0016  0.0001 -0.0008 -0.0049 -0.6232
                                           -0.0956  0.1547  0.0736  0.0059  0.0084
                                           -0.0020 -0.0034  0.0012 -0.0045 -0.0007
                                           -0.0271  0.0010  0.0014 -0.0348 -0.0540
                                            0.0012
   583. (0.00028) RY*(11) C  19           s(  2.95%)p 4.18( 12.34%)d27.68( 81.75%)
                                                  f 1.00(  2.96%)
                                           -0.0000  0.0038 -0.0697  0.1570  0.0019
                                            0.0001  0.0001 -0.0041  0.0006 -0.0576
                                            0.2113  0.0015 -0.0912  0.2590  0.0074
                                            0.0173  0.0284  0.0475 -0.6440  0.4409
                                            0.1660 -0.1398  0.2913 -0.2704 -0.0200
                                           -0.0014  0.0751  0.1526  0.0003 -0.0001
                                            0.0161
   584. (0.00014) RY*(12) C  19           s(  0.14%)p65.09(  9.08%)d99.99( 88.18%)
                                                  f18.70(  2.61%)
                                            0.0000 -0.0019  0.0325 -0.0174  0.0057
                                           -0.0000  0.0001 -0.0002 -0.0021 -0.1638
                                           -0.2310 -0.0048  0.0377  0.0955 -0.0007
                                           -0.0026 -0.0045 -0.0066  0.2740  0.0165
                                            0.0685  0.4879  0.7331 -0.1617  0.0860
                                            0.0004 -0.1146  0.0093  0.0001 -0.0000
                                            0.0739
   585. (0.00010) RY*(13) C  19           s( 48.21%)p 0.04(  1.83%)d 0.97( 46.92%)
                                                  f 0.06(  3.04%)
                                           -0.0000 -0.0036  0.1238  0.6828 -0.0236
                                           -0.0000  0.0002 -0.0003  0.0094  0.0163
                                            0.0750 -0.0075  0.0123  0.1101 -0.0011
                                           -0.0037 -0.0058 -0.0078  0.0982 -0.3014
                                           -0.3273 -0.3765  0.3288  0.1077 -0.0817
                                            0.0007  0.0517 -0.0828  0.0002 -0.0002
                                           -0.1192
   586. (0.00007) RY*(14) C  19           s( 41.35%)p 0.08(  3.20%)d 1.28( 52.86%)
                                                  f 0.06(  2.59%)
   587. (0.00007) RY*(15) C  19           s(  0.00%)p 1.00(  6.85%)d10.75( 73.69%)
                                                  f 2.84( 19.46%)
   588. (0.00005) RY*(16) C  19           s(  0.00%)p 1.00(  0.34%)d99.99( 97.29%)
                                                  f 7.03(  2.38%)
   589. (0.00004) RY*(17) C  19           s(  1.08%)p65.27( 70.76%)d17.56( 19.03%)
                                                  f 8.42(  9.13%)
   590. (0.00002) RY*(18) C  19           s(  1.41%)p 1.67(  2.35%)d62.25( 87.53%)
                                                  f 6.19(  8.71%)
   591. (0.00001) RY*(19) C  19           s(  2.96%)p 0.36(  1.08%)d 0.50(  1.48%)
                                                  f31.91( 94.48%)
   592. (0.00000) RY*(20) C  19           s(  0.04%)p31.68(  1.14%)d99.99(  6.07%)
                                                  f99.99( 92.76%)
   593. (0.00000) RY*(21) C  19           s(  0.00%)p 1.00(  0.34%)d53.19( 17.94%)
                                                  f99.99( 81.72%)
   594. (0.00000) RY*(22) C  19           s(  0.02%)p58.03(  0.89%)d99.99(  6.46%)
                                                  f99.99( 92.63%)
   595. (0.00000) RY*(23) C  19           s(  0.14%)p29.77(  4.03%)d73.81(  9.99%)
                                                  f99.99( 85.85%)
   596. (0.00000) RY*(24) C  19           s(  0.00%)p 0.00(  0.00%)d 1.00(  1.71%)
                                                  f57.61( 98.29%)
   597. (0.00001) RY*(25) C  19           s(  0.00%)p 1.00(  0.23%)d20.90(  4.75%)
                                                  f99.99( 95.03%)
   598. (0.00000) RY*(26) C  19           s( 99.62%)p 0.00(  0.03%)d 0.00(  0.25%)
                                                  f 0.00(  0.11%)
   599. (0.00286) RY*( 1)Ni  20           s(  0.43%)p 5.59(  2.39%)d99.99( 97.18%)
                                                  f 0.00(  0.00%)
                                            0.0000 -0.0045  0.0243 -0.0231  0.0553
                                           -0.0082  0.0000 -0.0000  0.0000  0.0000
                                           -0.0000  0.0000  0.0010  0.0042 -0.0157
                                           -0.0001 -0.0000  0.0066  0.1533 -0.0095
                                           -0.0002 -0.0000 -0.0000  0.0000  0.0000
                                            0.0001 -0.0000 -0.0030 -0.6962  0.0211
                                            0.0026 -0.2446  0.0146 -0.0001  0.6519
                                           -0.0403  0.0011  0.0000  0.0011 -0.0017
                                           -0.0000 -0.0000  0.0014
   600. (0.00257) RY*( 2)Ni  20           s(  0.00%)p 1.00(  1.32%)d74.54( 98.67%)
                                                  f 0.01(  0.01%)
                                            0.0000  0.0000  0.0000  0.0000 -0.0000
                                            0.0000  0.0000 -0.0120 -0.1016  0.0525
                                            0.0026  0.0000  0.0000 -0.0000 -0.0000
                                            0.0000  0.0000  0.0000  0.0000 -0.0000
                                            0.0000  0.0033  0.8876  0.0329  0.0035
                                            0.4436 -0.0311  0.0000 -0.0001  0.0000
                                            0.0000  0.0001 -0.0000  0.0000 -0.0001
                                            0.0000 -0.0000  0.0043 -0.0000  0.0000
                                           -0.0044  0.0076 -0.0000
   601. (0.00088) RY*( 3)Ni  20           s(  0.00%)p 1.00(  6.96%)d13.37( 93.03%)
                                                  f 0.00(  0.01%)
                                           -0.0000  0.0000  0.0000  0.0000 -0.0000
                                           -0.0000 -0.0000  0.0237 -0.1152 -0.2361
                                           -0.0028 -0.0000 -0.0000 -0.0000 -0.0000
                                            0.0000 -0.0000  0.0000 -0.0000  0.0000
                                           -0.0000  0.0053 -0.4298 -0.0339 -0.0065
                                            0.8610 -0.0555 -0.0000 -0.0000 -0.0000
                                            0.0000 -0.0000  0.0000  0.0000 -0.0001
                                           -0.0000 -0.0000 -0.0085 -0.0000  0.0000
                                            0.0060 -0.0056 -0.0000
   602. (0.00087) RY*( 4)Ni  20           s( 24.90%)p 0.95( 23.54%)d 2.07( 51.55%)
                                                  f 0.00(  0.00%)
                                           -0.0000  0.0156  0.4887  0.0943  0.0222
                                            0.0251 -0.0000 -0.0000 -0.0000  0.0000
                                            0.0000 -0.0000 -0.0173 -0.3877  0.0224
                                           -0.0031  0.0000 -0.0156 -0.2221  0.1862
                                           -0.0019 -0.0000  0.0001  0.0000 -0.0000
                                            0.0000 -0.0000 -0.0043  0.4411 -0.0413
                                            0.0043 -0.4273  0.0288  0.0026  0.3585
                                            0.0850  0.0020  0.0000  0.0016  0.0056
                                            0.0000  0.0000  0.0025
   603. (0.00076) RY*( 5)Ni  20           s( 21.87%)p 0.81( 17.71%)d 2.76( 60.39%)
                                                  f 0.00(  0.03%)
                                            0.0000  0.0078  0.4360  0.1681  0.0176
                                           -0.0019 -0.0000 -0.0000  0.0001  0.0000
                                           -0.0000  0.0000 -0.0095 -0.3534 -0.0631
                                           -0.0008 -0.0000  0.0140 -0.0706 -0.2071
                                            0.0002  0.0000  0.0000  0.0000  0.0000
                                           -0.0001  0.0000  0.0037 -0.4826  0.0797
                                            0.0006 -0.1661  0.0284  0.0074 -0.5727
                                            0.0906 -0.0057 -0.0000 -0.0167 -0.0007
                                           -0.0000 -0.0000 -0.0045
   604. (0.00065) RY*( 6)Ni  20           s(  0.00%)p 1.00( 96.49%)d 0.04(  3.49%)
                                                  f 0.00(  0.01%)
                                            0.0000  0.0000 -0.0001 -0.0000 -0.0000
                                            0.0000  0.0000 -0.0055  0.9821  0.0173
                                           -0.0045  0.0000  0.0000  0.0000 -0.0000
                                            0.0000  0.0000 -0.0000 -0.0001  0.0000
                                            0.0000  0.0113  0.0300  0.0991  0.0025
                                            0.1540 -0.0192 -0.0000  0.0001 -0.0000
                                            0.0000  0.0000  0.0000 -0.0000  0.0001
                                           -0.0000 -0.0000 -0.0022  0.0000 -0.0000
                                           -0.0104 -0.0058  0.0000
   605. (0.00056) RY*( 7)Ni  20           s( 23.05%)p 0.82( 18.89%)d 2.52( 57.99%)
                                                  f 0.00(  0.07%)
                                           -0.0000 -0.0093  0.4424 -0.1841 -0.0240
                                            0.0122  0.0000 -0.0000 -0.0000  0.0000
                                           -0.0000 -0.0000 -0.0084  0.0080  0.1732
                                           -0.0012 -0.0000  0.0064 -0.3858 -0.0995
                                            0.0021  0.0000 -0.0000  0.0000  0.0000
                                            0.0000 -0.0000 -0.0044 -0.1166 -0.1294
                                           -0.0030  0.7004 -0.0977  0.0056  0.2192
                                            0.0367  0.0005  0.0000  0.0102 -0.0160
                                           -0.0000  0.0000  0.0195
   606. (0.00048) RY*( 8)Ni  20           s(  9.82%)p 6.70( 65.74%)d 2.48( 24.37%)
                                                  f 0.01(  0.07%)
                                           -0.0000  0.0066  0.3034  0.0259  0.0727
                                           -0.0125 -0.0000 -0.0000  0.0001 -0.0000
                                           -0.0000 -0.0000 -0.0155 -0.1968 -0.0009
                                            0.0029  0.0000 -0.0105  0.7847  0.0510
                                           -0.0045  0.0000 -0.0000  0.0000 -0.0000
                                            0.0000 -0.0000  0.0093  0.1476  0.3187
                                            0.0015  0.3060 -0.1428 -0.0030  0.0634
                                           -0.0464  0.0049 -0.0000  0.0205  0.0157
                                            0.0000 -0.0000  0.0009
   607. (0.00033) RY*( 9)Ni  20           s( 49.84%)p 0.73( 36.37%)d 0.27( 13.23%)
                                                  f 0.01(  0.56%)
                                            0.0000  0.0070 -0.3740  0.5372 -0.2611
                                           -0.0407 -0.0000 -0.0000 -0.0000  0.0000
                                           -0.0000  0.0000 -0.0029 -0.5345 -0.2465
                                            0.0088 -0.0000  0.0019 -0.1261 -0.0355
                                            0.0005 -0.0000 -0.0000  0.0000  0.0000
                                           -0.0000  0.0000 -0.0023 -0.0218 -0.0089
                                            0.0050  0.2946 -0.1091  0.0030  0.1672
                                           -0.0707 -0.0484 -0.0000 -0.0334  0.0448
                                           -0.0000  0.0000 -0.0120
   608. (0.00021) RY*(10)Ni  20           s( 70.50%)p 0.37( 26.12%)d 0.04(  3.13%)
                                                  f 0.00(  0.25%)
                                           -0.0000 -0.0107  0.2039  0.7800  0.2339
                                            0.0117  0.0000 -0.0000  0.0000  0.0000
                                            0.0000 -0.0000  0.0046  0.4903  0.1378
                                            0.0124  0.0000 -0.0000 -0.0272  0.0312
                                            0.0014 -0.0000 -0.0000  0.0000 -0.0000
                                           -0.0000  0.0000 -0.0019  0.0180  0.0435
                                           -0.0018  0.0572  0.1487 -0.0033  0.0406
                                           -0.0450 -0.0070 -0.0000 -0.0144  0.0307
                                           -0.0000  0.0000 -0.0363
   609. (0.00013) RY*(11)Ni  20           s( 71.28%)p 0.32( 22.53%)d 0.08(  5.82%)
                                                  f 0.01(  0.37%)
                                            0.0000  0.0046 -0.2368  0.0040  0.8102
                                           -0.0141 -0.0000  0.0000 -0.0000 -0.0000
                                           -0.0000  0.0000 -0.0005 -0.3004  0.2802
                                            0.0099 -0.0000  0.0014 -0.0032 -0.2375
                                           -0.0071  0.0000  0.0000 -0.0000  0.0000
                                           -0.0000 -0.0000  0.0014  0.0433 -0.1980
                                            0.0030  0.0242 -0.1274 -0.0008  0.0113
                                            0.0134  0.0211  0.0000 -0.0088 -0.0396
                                            0.0000 -0.0000  0.0397
   610. (0.00008) RY*(12)Ni  20           s(  0.00%)p 1.00( 75.95%)d 0.30( 23.08%)
                                                  f 0.01(  0.97%)
   611. (0.00008) RY*(13)Ni  20           s(  7.34%)p 2.22( 16.26%)d10.22( 74.98%)
                                                  f 0.19(  1.43%)
   612. (0.00005) RY*(14)Ni  20           s( 14.71%)p 5.27( 77.44%)d 0.50(  7.38%)
                                                  f 0.03(  0.47%)
   613. (0.00005) RY*(15)Ni  20           s(  2.84%)p29.27( 83.13%)d 4.30( 12.22%)
                                                  f 0.64(  1.82%)
   614. (0.00005) RY*(16)Ni  20           s( 94.97%)p 0.01(  0.52%)d 0.04(  4.10%)
                                                  f 0.00(  0.41%)
   615. (0.00004) RY*(17)Ni  20           s(  0.00%)p 1.00( 13.52%)d 6.36( 85.95%)
                                                  f 0.04(  0.53%)
   616. (0.00002) RY*(18)Ni  20           s(  4.93%)p 1.19(  5.84%)d17.53( 86.38%)
                                                  f 0.58(  2.85%)
   617. (0.00001) RY*(19)Ni  20           s(  0.00%)p 1.00(  4.71%)d20.18( 95.07%)
                                                  f 0.05(  0.22%)
   618. (0.00002) RY*(20)Ni  20           s(  2.03%)p 0.91(  1.86%)d46.75( 95.08%)
                                                  f 0.50(  1.03%)
   619. (0.00000) RY*(21)Ni  20           s(  0.14%)p99.99( 99.26%)d 4.28(  0.60%)
                                                  f 0.00(  0.00%)
   620. (0.00000) RY*(22)Ni  20           s(  0.01%)p 1.00( 99.76%)d 0.00(  0.23%)
                                                  f 0.00(  0.01%)
   621. (0.00000) RY*(23)Ni  20           s(  0.00%)p 1.00( 99.81%)d 0.00(  0.19%)
                                                  f 0.00(  0.00%)
   622. (0.00000) RY*(24)Ni  20           s(  0.24%)p 1.91(  0.46%)d 4.18(  1.01%)
                                                  f99.99( 98.29%)
   623. (0.00000) RY*(25)Ni  20           s(  0.00%)p 1.00(  0.06%)d 1.08(  0.06%)
                                                  f99.99( 99.88%)
   624. (0.00000) RY*(26)Ni  20           s(  0.37%)p 2.64(  0.99%)d 3.87(  1.44%)
                                                  f99.99( 97.20%)
   625. (0.00000) RY*(27)Ni  20           s(  0.37%)p 0.35(  0.13%)d 4.34(  1.61%)
                                                  f99.99( 97.89%)
   626. (0.00000) RY*(28)Ni  20           s(  0.00%)p 1.00(  1.10%)d 0.13(  0.14%)
                                                  f89.84( 98.76%)
   627. (0.00000) RY*(29)Ni  20           s(  0.00%)p 1.00(  0.13%)d 2.09(  0.27%)
                                                  f99.99( 99.61%)
   628. (0.00000) RY*(30)Ni  20           s(  0.40%)p 2.75(  1.09%)d 3.18(  1.26%)
                                                  f99.99( 97.25%)
   629. (0.02357) RY*( 1) C  21           s( 65.22%)p 0.52( 34.10%)d 0.01(  0.64%)
                                                  f 0.00(  0.04%)
                                            0.0000  0.0843  0.8023  0.0353  0.0093
                                            0.0000 -0.0000  0.0000  0.0753 -0.2753
                                            0.0073  0.1597 -0.4831  0.0254 -0.0000
                                            0.0000 -0.0000  0.0000 -0.0149  0.0522
                                            0.0044 -0.0068 -0.0268  0.0517 -0.0063
                                            0.0000 -0.0170  0.0064  0.0000 -0.0000
                                            0.0025
   630. (0.00521) RY*( 2) C  21           s( 30.12%)p 2.27( 68.42%)d 0.03(  0.98%)
                                                  f 0.02(  0.48%)
                                            0.0000 -0.0130  0.5393  0.1002 -0.0120
                                            0.0000 -0.0000  0.0000  0.0313  0.3256
                                           -0.0186  0.0743  0.7538 -0.0558 -0.0000
                                            0.0000 -0.0000  0.0000 -0.0127  0.0569
                                           -0.0031 -0.0017 -0.0658  0.0453  0.0474
                                            0.0000  0.0482 -0.0149  0.0000 -0.0000
                                            0.0022
   631. (0.00188) RY*( 3) C  21           s(  0.28%)p99.99( 97.48%)d 5.42(  1.51%)
                                                  f 2.65(  0.74%)
                                            0.0000  0.0057  0.0435  0.0283  0.0075
                                           -0.0000  0.0001  0.0000 -0.0037  0.8878
                                           -0.0705  0.0075 -0.4230  0.0506  0.0000
                                            0.0000 -0.0000  0.0000  0.0551  0.0825
                                            0.0281  0.0285 -0.0299 -0.0522  0.0678
                                            0.0000 -0.0283  0.0429 -0.0000  0.0000
                                            0.0108
   632. (0.00177) RY*( 4) C  21           s(  0.00%)p 1.00( 95.52%)d 0.04(  4.03%)
                                                  f 0.00(  0.45%)
                                            0.0000 -0.0000  0.0000 -0.0000  0.0000
                                           -0.0054  0.9751  0.0664  0.0000 -0.0001
                                            0.0000  0.0000  0.0000 -0.0000  0.0969
                                            0.1704 -0.0313  0.0300 -0.0000 -0.0000
                                           -0.0000 -0.0000  0.0000  0.0000 -0.0000
                                           -0.0514  0.0000 -0.0000 -0.0424 -0.0072
                                           -0.0000
   633. (0.00118) RY*( 5) C  21           s(  0.07%)p68.00(  4.68%)d99.99( 89.38%)
                                                  f85.16(  5.86%)
                                            0.0000  0.0010  0.0257  0.0005  0.0051
                                            0.0000  0.0000 -0.0000  0.0437  0.0647
                                           -0.1939 -0.0143  0.0003  0.0541 -0.0001
                                           -0.0000 -0.0000  0.0000 -0.6251 -0.0681
                                            0.3375  0.0353  0.6075  0.1190 -0.1903
                                            0.0000  0.0570 -0.1341  0.0000 -0.0000
                                           -0.0346
   634. (0.00111) RY*( 6) C  21           s(  0.00%)p 1.00(  2.87%)d31.81( 91.35%)
                                                  f 2.01(  5.78%)
                                            0.0000 -0.0000  0.0000 -0.0000  0.0000
                                           -0.0457 -0.0627  0.1506  0.0000  0.0000
                                           -0.0000  0.0000 -0.0000 -0.0000  0.4138
                                            0.1104  0.8488  0.0978 -0.0000  0.0000
                                            0.0001  0.0000 -0.0000  0.0000  0.0000
                                           -0.1979  0.0000 -0.0000 -0.1338  0.0280
                                           -0.0000
   635. (0.00013) RY*( 7) C  21           s( 43.75%)p 0.36( 15.86%)d 0.83( 36.32%)
                                                  f 0.09(  4.07%)
                                           -0.0000  0.0106 -0.0998  0.6380 -0.1425
                                           -0.0000  0.0000  0.0001 -0.0055 -0.0893
                                           -0.3686 -0.0113 -0.0561 -0.1068 -0.0000
                                           -0.0001 -0.0000  0.0000 -0.2919  0.0783
                                            0.2116  0.0876 -0.4621 -0.0768  0.1523
                                            0.0000  0.1297 -0.0168 -0.0000 -0.0000
                                           -0.0210
   636. (0.00010) RY*( 8) C  21           s(  0.65%)p99.99( 82.75%)d23.74( 15.39%)
                                                  f 1.88(  1.22%)
                                            0.0000 -0.0091 -0.0056 -0.0481  0.0636
                                           -0.0000  0.0002 -0.0002  0.0007 -0.0731
                                           -0.6254  0.0015  0.0748  0.6522 -0.0005
                                           -0.0010  0.0004  0.0004  0.3140  0.1002
                                            0.0131  0.0952  0.0474  0.1838 -0.0233
                                           -0.0001 -0.0865  0.0583 -0.0001  0.0000
                                           -0.0271
   637. (0.00009) RY*( 9) C  21           s(  0.00%)p 1.00( 10.51%)d 8.44( 88.74%)
                                                  f 0.07(  0.75%)
   638. (0.00006) RY*(10) C  21           s(  0.00%)p 1.00( 88.79%)d 0.11(  9.68%)
                                                  f 0.02(  1.53%)
   639. (0.00006) RY*(11) C  21           s(  0.25%)p18.17(  4.55%)d99.99( 94.69%)
                                                  f 2.01(  0.50%)
   640. (0.00006) RY*(12) C  21           s( 50.83%)p 0.51( 25.74%)d 0.41( 20.86%)
                                                  f 0.05(  2.58%)
   641. (0.00003) RY*(13) C  21           s(  5.39%)p 9.90( 53.33%)d 5.29( 28.50%)
                                                  f 2.37( 12.78%)
   642. (0.00001) RY*(14) C  21           s(  1.15%)p 3.46(  3.98%)d81.85( 94.14%)
                                                  f 0.63(  0.73%)
   643. (0.00001) RY*(15) C  21           s(  1.08%)p 4.35(  4.70%)d87.23( 94.15%)
                                                  f 0.06(  0.07%)
   644. (0.00000) RY*(16) C  21           s(  0.06%)p 2.42(  0.14%)d99.99( 99.80%)
                                                  f 0.06(  0.00%)
   645. (0.00000) RY*(17) C  21           s(  0.00%)p 1.00(  0.02%)d99.99( 99.86%)
                                                  f 5.43(  0.12%)
   646. (0.00001) RY*(18) C  21           s(  0.00%)p 1.00(  0.81%)d99.99( 99.10%)
                                                  f 0.11(  0.09%)
   647. (0.00000) RY*(19) C  21           s( 94.94%)p 0.00(  0.04%)d 0.05(  4.87%)
                                                  f 0.00(  0.16%)
   648. (0.00000) RY*(20) C  21           s(  0.25%)p14.30(  3.61%)d45.38( 11.45%)
                                                  f99.99( 84.70%)
   649. (0.00000) RY*(21) C  21           s(  0.00%)p 1.00(  1.40%)d 3.64(  5.09%)
                                                  f66.77( 93.51%)
   650. (0.00001) RY*(22) C  21           s(  2.09%)p 1.82(  3.81%)d 1.86(  3.89%)
                                                  f43.20( 90.22%)
   651. (0.00000) RY*(23) C  21           s(  0.45%)p 0.69(  0.31%)d 4.71(  2.11%)
                                                  f99.99( 97.13%)
   652. (0.00000) RY*(24) C  21           s(  0.00%)p 1.00(  0.17%)d10.40(  1.82%)
                                                  f99.99( 98.01%)
   653. (0.00000) RY*(25) C  21           s(  0.00%)p 1.00(  0.12%)d 0.91(  0.11%)
                                                  f99.99( 99.77%)
   654. (0.00000) RY*(26) C  21           s(  0.19%)p 0.91(  0.17%)d 5.14(  0.96%)
                                                  f99.99( 98.68%)
   655. (0.00280) RY*( 1) O  22           s( 90.15%)p 0.05(  4.46%)d 0.06(  5.36%)
                                                  f 0.00(  0.03%)
                                            0.0000  0.0058  0.9494  0.0007  0.0069
                                           -0.0000  0.0000  0.0000 -0.0121  0.0971
                                            0.0796 -0.0312  0.0291  0.1638 -0.0000
                                            0.0000 -0.0000  0.0000 -0.1426  0.0146
                                            0.0335 -0.0049 -0.1785  0.0087  0.0070
                                            0.0000  0.0136 -0.0067  0.0000 -0.0000
                                           -0.0012
   656. (0.00192) RY*( 2) O  22           s(  0.51%)p99.99( 97.71%)d 3.41(  1.74%)
                                                  f 0.06(  0.03%)
                                            0.0000  0.0008  0.0715  0.0024 -0.0003
                                           -0.0000 -0.0007  0.0000 -0.0093 -0.8933
                                            0.0696  0.0009  0.4170 -0.0170 -0.0000
                                           -0.0000 -0.0000 -0.0001 -0.0543 -0.0746
                                            0.0219  0.0460  0.0218  0.0766  0.0150
                                           -0.0000 -0.0029  0.0081 -0.0000  0.0000
                                            0.0032
   657. (0.00190) RY*( 3) O  22           s(  0.00%)p 1.00( 98.26%)d 0.02(  1.71%)
                                                  f 0.00(  0.02%)
                                            0.0000  0.0000  0.0000  0.0000 -0.0000
                                            0.0089  0.9891 -0.0650 -0.0000 -0.0007
                                            0.0000  0.0000  0.0003 -0.0000  0.0075
                                            0.0494  0.0590  0.1056 -0.0000 -0.0001
                                            0.0000  0.0000  0.0000  0.0001  0.0000
                                            0.0109 -0.0000  0.0000  0.0101 -0.0036
                                            0.0000
   658. (0.00020) RY*( 4) O  22           s(  2.22%)p27.53( 61.07%)d16.02( 35.52%)
                                                  f 0.53(  1.19%)
                                           -0.0000 -0.0311  0.0909  0.1133  0.0108
                                            0.0000  0.0000 -0.0000  0.0214  0.3246
                                            0.0238  0.0494  0.7085  0.0024  0.0000
                                           -0.0000  0.0000  0.0000  0.3869  0.0149
                                           -0.0774 -0.0062  0.4463  0.0135 -0.0576
                                           -0.0000 -0.0866  0.0316 -0.0000  0.0000
                                            0.0058
   659. (0.00006) RY*( 5) O  22           s( 73.55%)p 0.24( 17.32%)d 0.12(  8.97%)
                                                  f 0.00(  0.16%)
   660. (0.00001) RY*( 6) O  22           s( 18.45%)p 4.25( 78.36%)d 0.06(  1.05%)
                                                  f 0.12(  2.14%)
   661. (0.00002) RY*( 7) O  22           s(  0.00%)p 1.00(  4.84%)d19.62( 94.90%)
                                                  f 0.05(  0.26%)
   662. (0.00002) RY*( 8) O  22           s(  0.00%)p 1.00(  8.00%)d11.36( 90.86%)
                                                  f 0.14(  1.14%)
   663. (0.00001) RY*( 9) O  22           s(  6.38%)p 3.42( 21.84%)d10.63( 67.83%)
                                                  f 0.62(  3.94%)
   664. (0.00001) RY*(10) O  22           s(  2.11%)p46.45( 97.80%)d 0.05(  0.10%)
                                                  f 0.00(  0.00%)
   665. (0.00001) RY*(11) O  22           s(  2.13%)p 7.65( 16.32%)d37.73( 80.53%)
                                                  f 0.47(  1.01%)
   666. (0.00000) RY*(12) O  22           s(  0.00%)p 1.00( 87.74%)d 0.14( 12.25%)
                                                  f 0.00(  0.01%)
   667. (0.00000) RY*(13) O  22           s(  0.00%)p 1.00(  1.26%)d78.19( 98.73%)
                                                  f 0.01(  0.01%)
   668. (0.00000) RY*(14) O  22           s( 99.98%)p 0.00(  0.02%)d 0.00(  0.01%)
                                                  f 0.00(  0.00%)
   669. (0.00000) RY*(15) O  22           s(  0.03%)p42.59(  1.30%)d99.99( 98.61%)
                                                  f 1.87(  0.06%)
   670. (0.00001) RY*(16) O  22           s(  2.89%)p 0.34(  0.98%)d33.32( 96.13%)
                                                  f 0.00(  0.01%)
   671. (0.00000) RY*(17) O  22           s(  0.08%)p 5.27(  0.41%)d99.99( 99.50%)
                                                  f 0.16(  0.01%)
   672. (0.00000) RY*(18) O  22           s(  0.00%)p 1.00(  0.23%)d99.99( 99.75%)
                                                  f 0.08(  0.02%)
   673. (0.00000) RY*(19) O  22           s(  0.42%)p 4.17(  1.75%)d99.99( 97.81%)
                                                  f 0.04(  0.02%)
   674. (0.00000) RY*(20) O  22           s(  0.80%)p 1.38(  1.11%)d 0.91(  0.73%)
                                                  f99.99( 97.36%)
   675. (0.00000) RY*(21) O  22           s(  0.00%)p 1.00(  0.11%)d 9.40(  1.04%)
                                                  f99.99( 98.85%)
   676. (0.00000) RY*(22) O  22           s(  0.34%)p 0.87(  0.30%)d12.62(  4.29%)
                                                  f99.99( 95.07%)
   677. (0.00000) RY*(23) O  22           s(  0.07%)p 6.77(  0.48%)d 7.11(  0.51%)
                                                  f99.99( 98.94%)
   678. (0.00000) RY*(24) O  22           s(  0.00%)p 1.00(  0.03%)d 2.99(  0.08%)
                                                  f99.99( 99.89%)
   679. (0.00000) RY*(25) O  22           s(  0.00%)p 0.00(  0.00%)d 1.00(  0.22%)
                                                  f99.99( 99.78%)
   680. (0.00000) RY*(26) O  22           s(  0.00%)p 0.00(  0.01%)d 1.00(  0.02%)
                                                  f99.99( 99.98%)
   681. (0.02369) RY*( 1) C  23           s( 65.08%)p 0.53( 34.24%)d 0.01(  0.63%)
                                                  f 0.00(  0.05%)
                                            0.0000  0.0841  0.8019  0.0248  0.0089
                                            0.1329 -0.4164  0.0242  0.0737 -0.2354
                                            0.0051 -0.0938  0.2843 -0.0155 -0.0032
                                            0.0355  0.0255 -0.0454 -0.0010 -0.0264
                                           -0.0271  0.0282  0.0041 -0.0062 -0.0072
                                           -0.0025 -0.0032  0.0029  0.0172  0.0043
                                           -0.0113
   682. (0.00534) RY*( 2) C  23           s( 29.82%)p 2.29( 68.21%)d 0.05(  1.35%)
                                                  f 0.02(  0.63%)
                                            0.0000 -0.0105  0.5423  0.0615 -0.0115
                                            0.0672  0.6101 -0.0448  0.0242  0.3654
                                           -0.0282 -0.0441 -0.4076  0.0178  0.0113
                                            0.0534  0.0553 -0.0333 -0.0123 -0.0218
                                           -0.0663  0.0315  0.0163  0.0050  0.0318
                                            0.0153  0.0042 -0.0541 -0.0200  0.0341
                                            0.0227
   683. (0.00221) RY*( 3) C  23           s(  0.13%)p99.99( 94.56%)d37.17(  4.72%)
                                                  f 4.68(  0.59%)
                                           -0.0000  0.0018 -0.0080  0.0347  0.0014
                                           -0.0076  0.4542  0.0265 -0.0053  0.1826
                                           -0.0206 -0.0093  0.8391  0.0240  0.0823
                                            0.0955 -0.0074  0.0087  0.0895  0.1291
                                           -0.0141 -0.0202 -0.0331 -0.0691 -0.0180
                                            0.0629  0.0257 -0.0087 -0.0022 -0.0101
                                           -0.0285
   684. (0.00176) RY*( 4) C  23           s(  0.23%)p99.99( 91.12%)d31.31(  7.30%)
                                                  f 5.77(  1.34%)
                                           -0.0000  0.0030 -0.0297  0.0379 -0.0000
                                            0.0006 -0.4618 -0.0265 -0.0148  0.8298
                                           -0.0416  0.0052  0.0780 -0.0234  0.0817
                                            0.0225  0.0814  0.0562 -0.1326 -0.0576
                                           -0.1651 -0.0712  0.0530 -0.0046  0.0078
                                            0.0007 -0.0106 -0.0749  0.0468  0.0730
                                           -0.0118
   685. (0.00122) RY*( 5) C  23           s(  0.24%)p41.52(  9.99%)d99.99( 84.56%)
                                                  f21.62(  5.20%)
                                            0.0000  0.0005  0.0479 -0.0046  0.0093
                                           -0.0069 -0.0756  0.0762  0.0439  0.2464
                                           -0.1588  0.0000  0.0067 -0.0217 -0.5379
                                           -0.0306 -0.2809 -0.0878  0.3995  0.0384
                                            0.5392  0.0869  0.0965 -0.0090  0.0276
                                           -0.0459  0.0045  0.1295 -0.0695 -0.1645
                                            0.0219
   686. (0.00115) RY*( 6) C  23           s(  0.03%)p99.99(  7.31%)d99.99( 87.57%)
                                                  f99.99(  5.09%)
                                           -0.0000 -0.0004 -0.0105  0.0136 -0.0023
                                            0.0206  0.0808 -0.1399  0.0038 -0.0676
                                            0.0271  0.0393  0.0856 -0.1798 -0.2605
                                           -0.0425 -0.3494 -0.0405 -0.2299 -0.0170
                                           -0.3413 -0.0627  0.7060  0.1015  0.0461
                                           -0.1788 -0.0933  0.0091  0.0192  0.0317
                                            0.0818
   687. (0.00018) RY*( 7) C  23           s(  0.59%)p75.90( 45.04%)d87.06( 51.66%)
                                                  f 4.55(  2.70%)
                                           -0.0000 -0.0011 -0.0042  0.0747  0.0181
                                            0.0003 -0.0084  0.3043 -0.0049 -0.0356
                                           -0.4814  0.0026 -0.0571 -0.3485 -0.0202
                                           -0.2089 -0.0999 -0.3005  0.0488  0.2227
                                           -0.3095 -0.2992 -0.2114 -0.3006  0.1096
                                            0.0389  0.0085  0.0060 -0.0281 -0.0389
                                            0.1052
   688. (0.00011) RY*( 8) C  23           s( 10.21%)p 1.11( 11.30%)d 7.30( 74.57%)
                                                  f 0.38(  3.92%)
                                            0.0000 -0.0089 -0.0304  0.3178  0.0125
                                           -0.0055 -0.0615  0.2441 -0.0009 -0.0262
                                           -0.1823  0.0040 -0.0965 -0.0797  0.4527
                                            0.4397 -0.0934 -0.0823  0.2038  0.2947
                                            0.1376  0.0655  0.2577  0.3375  0.0247
                                           -0.0743 -0.0113  0.0659  0.1222  0.1108
                                           -0.0365
   689. (0.00010) RY*( 9) C  23           s( 27.43%)p 0.45( 12.41%)d 2.01( 55.08%)
                                                  f 0.19(  5.08%)
                                           -0.0000  0.0132 -0.0743  0.4894 -0.1706
                                           -0.0015 -0.0455 -0.3044 -0.0019 -0.0775
                                           -0.1334  0.0016  0.0167  0.0728 -0.3072
                                            0.0377  0.5318  0.0288  0.2948  0.0921
                                           -0.2438  0.0757  0.0793  0.0675  0.0954
                                            0.0577  0.0024 -0.0506 -0.1396 -0.0309
                                            0.1240
   690. (0.00006) RY*(10) C  23           s( 19.13%)p 2.84( 54.35%)d 1.28( 24.58%)
                                                  f 0.10(  1.95%)
   691. (0.00006) RY*(11) C  23           s( 28.24%)p 1.53( 43.31%)d 0.93( 26.38%)
                                                  f 0.07(  2.07%)
   692. (0.00003) RY*(12) C  23           s( 10.57%)p 4.86( 51.43%)d 2.76( 29.16%)
                                                  f 0.84(  8.83%)
   693. (0.00004) RY*(13) C  23           s(  3.40%)p15.89( 54.03%)d11.95( 40.63%)
                                                  f 0.57(  1.93%)
   694. (0.00002) RY*(14) C  23           s(  1.21%)p 0.68(  0.82%)d54.07( 65.48%)
                                                  f26.82( 32.48%)
   695. (0.00000) RY*(15) C  23           s(  0.40%)p 5.92(  2.38%)d99.99( 96.67%)
                                                  f 1.39(  0.56%)
   696. (0.00000) RY*(16) C  23           s(  0.21%)p21.11(  4.43%)d99.99( 92.72%)
                                                  f12.59(  2.64%)
   697. (0.00001) RY*(17) C  23           s(  1.71%)p 2.96(  5.07%)d53.91( 92.33%)
                                                  f 0.52(  0.88%)
   698. (0.00000) RY*(18) C  23           s( 94.01%)p 0.00(  0.24%)d 0.06(  5.66%)
                                                  f 0.00(  0.09%)
   699. (0.00001) RY*(19) C  23           s(  0.03%)p84.71(  2.81%)d99.99( 96.40%)
                                                  f22.61(  0.75%)
   700. (0.00000) RY*(20) C  23           s(  0.46%)p 4.01(  1.84%)d 8.59(  3.95%)
                                                  f99.99( 93.75%)
   701. (0.00000) RY*(21) C  23           s(  0.07%)p28.71(  2.02%)d99.99(  9.35%)
                                                  f99.99( 88.56%)
   702. (0.00000) RY*(22) C  23           s(  0.02%)p 8.15(  0.17%)d54.85(  1.12%)
                                                  f99.99( 98.70%)
   703. (0.00000) RY*(23) C  23           s(  0.31%)p 6.95(  2.14%)d36.79( 11.33%)
                                                  f99.99( 86.22%)
   704. (0.00000) RY*(24) C  23           s(  1.76%)p 0.62(  1.09%)d12.81( 22.54%)
                                                  f42.39( 74.61%)
   705. (0.00000) RY*(25) C  23           s(  0.42%)p 4.14(  1.75%)d13.38(  5.65%)
                                                  f99.99( 92.18%)
   706. (0.00000) RY*(26) C  23           s(  0.89%)p 2.16(  1.93%)d 8.98(  8.04%)
                                                  f99.61( 89.14%)
   707. (0.00294) RY*( 1) O  24           s( 87.41%)p 0.08(  7.31%)d 0.06(  5.24%)
                                                  f 0.00(  0.04%)
                                            0.0000  0.0051  0.9349 -0.0016  0.0067
                                           -0.0272  0.0101  0.1279 -0.0080  0.2070
                                            0.0661  0.0173 -0.0168 -0.0899 -0.0838
                                            0.0158  0.1725 -0.0099  0.0552 -0.0108
                                           -0.1060 -0.0026  0.0271 -0.0088  0.0090
                                            0.0019  0.0003 -0.0097 -0.0103  0.0027
                                            0.0090
   708. (0.00228) RY*( 2) O  24           s(  3.24%)p29.27( 94.89%)d 0.57(  1.83%)
                                                  f 0.01(  0.03%)
                                           -0.0000  0.0011  0.1772  0.0316  0.0005
                                           -0.0021  0.3961 -0.0082 -0.0095 -0.8759
                                            0.0622  0.0021 -0.1443 -0.0074 -0.0566
                                           -0.0582 -0.0076 -0.0264  0.0497  0.0437
                                           -0.0065  0.0787 -0.0011  0.0192 -0.0035
                                            0.0012  0.0003 -0.0064  0.0093  0.0123
                                           -0.0007
   709. (0.00187) RY*( 3) O  24           s(  0.02%)p99.99( 98.25%)d99.99(  1.70%)
                                                  f 1.91(  0.03%)
                                           -0.0000  0.0003  0.0123 -0.0038  0.0003
                                           -0.0050 -0.5367  0.0451 -0.0016 -0.1031
                                            0.0053 -0.0072 -0.8238  0.0544 -0.0173
                                           -0.0344 -0.0258 -0.0391  0.0085 -0.0371
                                           -0.0226 -0.0400  0.0312  0.0939 -0.0023
                                            0.0133  0.0093  0.0011 -0.0046 -0.0016
                                           -0.0047
   710. (0.00020) RY*( 4) O  24           s(  1.00%)p61.94( 61.67%)d36.39( 36.23%)
                                                  f 1.11(  1.10%)
                                           -0.0000 -0.0314  0.0606  0.0720  0.0106
                                            0.0415  0.5793 -0.0071  0.0210  0.3171
                                            0.0287 -0.0291 -0.4203  0.0074  0.3292
                                            0.0020 -0.3938 -0.0231 -0.2178 -0.0041
                                            0.2244  0.0069 -0.0205 -0.0075 -0.0426
                                           -0.0192 -0.0093  0.0416  0.0636 -0.0032
                                           -0.0544
   711. (0.00008) RY*( 5) O  24           s( 47.11%)p 0.42( 19.70%)d 0.69( 32.58%)
                                                  f 0.01(  0.61%)
   712. (0.00005) RY*( 6) O  24           s( 28.64%)p 1.11( 31.66%)d 1.35( 38.59%)
                                                  f 0.04(  1.10%)
   713. (0.00002) RY*( 7) O  24           s(  1.11%)p 9.24( 10.23%)d78.29( 86.61%)
                                                  f 1.87(  2.06%)
   714. (0.00001) RY*( 8) O  24           s( 10.97%)p 7.04( 77.19%)d 1.08( 11.82%)
                                                  f 0.00(  0.02%)
   715. (0.00001) RY*( 9) O  24           s(  4.82%)p17.05( 82.25%)d 2.68( 12.92%)
                                                  f 0.00(  0.00%)
   716. (0.00001) RY*(10) O  24           s(  4.94%)p 3.65( 18.04%)d15.60( 77.03%)
                                                  f 0.00(  0.00%)
   717. (0.00001) RY*(11) O  24           s(  3.07%)p 8.00( 24.54%)d22.44( 68.78%)
                                                  f 1.18(  3.62%)
   718. (0.00000) RY*(12) O  24           s( 99.98%)p 0.00(  0.01%)d 0.00(  0.01%)
                                                  f 0.00(  0.00%)
   719. (0.00000) RY*(13) O  24           s(  0.07%)p99.99(  9.72%)d99.99( 90.20%)
                                                  f 0.04(  0.00%)
   720. (0.00001) RY*(14) O  24           s(  1.76%)p 6.04( 10.62%)d49.83( 87.62%)
                                                  f 0.00(  0.00%)
   721. (0.00000) RY*(15) O  24           s(  0.02%)p43.25(  0.98%)d99.99( 98.99%)
                                                  f 0.29(  0.01%)
   722. (0.00000) RY*(16) O  24           s(  0.02%)p37.78(  0.63%)d99.99( 99.36%)
                                                  f 0.10(  0.00%)
   723. (0.00000) RY*(17) O  24           s(  0.01%)p 1.00(  1.29%)d76.70( 98.70%)
                                                  f 0.00(  0.00%)
   724. (0.00000) RY*(18) O  24           s(  5.81%)p 8.70( 50.52%)d 7.52( 43.68%)
                                                  f 0.00(  0.00%)
   725. (0.00000) RY*(19) O  24           s(  0.01%)p 1.00(  1.19%)d83.20( 98.80%)
                                                  f 0.01(  0.01%)
   726. (0.00000) RY*(20) O  24           s(  0.02%)p 2.74(  0.05%)d86.84(  1.54%)
                                                  f99.99( 98.40%)
   727. (0.00000) RY*(21) O  24           s(  0.02%)p 4.36(  0.09%)d62.39(  1.34%)
                                                  f99.99( 98.54%)
   728. (0.00000) RY*(22) O  24           s(  0.01%)p 1.00(  0.08%)d 2.07(  0.17%)
                                                  f99.99( 99.75%)
   729. (0.00000) RY*(23) O  24           s(  0.03%)p 2.26(  0.08%)d66.88(  2.32%)
                                                  f99.99( 97.57%)
   730. (0.00000) RY*(24) O  24           s(  0.00%)p 1.00(  0.53%)d 1.85(  0.98%)
                                                  f99.99( 98.50%)
   731. (0.00000) RY*(25) O  24           s(  0.02%)p 5.25(  0.13%)d20.41(  0.49%)
                                                  f99.99( 99.36%)
   732. (0.00000) RY*(26) O  24           s(  0.02%)p 2.74(  0.05%)d43.85(  0.76%)
                                                  f99.99( 99.17%)
   733. (0.02369) RY*( 1) C  25           s( 65.08%)p 0.53( 34.24%)d 0.01(  0.63%)
                                                  f 0.00(  0.05%)
                                            0.0000  0.0841  0.8019  0.0248  0.0089
                                           -0.1329  0.4165 -0.0242  0.0737 -0.2354
                                            0.0051 -0.0938  0.2843 -0.0155  0.0032
                                           -0.0355 -0.0255  0.0453 -0.0010 -0.0264
                                           -0.0271  0.0282  0.0041 -0.0062 -0.0072
                                            0.0025 -0.0032  0.0029 -0.0172 -0.0043
                                           -0.0113
   734. (0.00534) RY*( 2) C  25           s( 29.82%)p 2.29( 68.21%)d 0.05(  1.35%)
                                                  f 0.02(  0.63%)
                                            0.0000 -0.0105  0.5424  0.0615 -0.0115
                                           -0.0672 -0.6102  0.0448  0.0242  0.3655
                                           -0.0283 -0.0441 -0.4075  0.0178 -0.0113
                                           -0.0534 -0.0553  0.0332 -0.0123 -0.0218
                                           -0.0663  0.0315  0.0163  0.0049  0.0318
                                           -0.0153  0.0042 -0.0541  0.0200 -0.0341
                                            0.0228
   735. (0.00221) RY*( 3) C  25           s(  0.13%)p99.99( 94.56%)d37.16(  4.72%)
                                                  f 4.68(  0.59%)
                                           -0.0000  0.0018 -0.0080  0.0346  0.0014
                                            0.0076 -0.4540 -0.0265 -0.0053  0.1826
                                           -0.0206 -0.0093  0.8392  0.0240 -0.0823
                                           -0.0955  0.0074 -0.0087  0.0895  0.1291
                                           -0.0142 -0.0202 -0.0331 -0.0691 -0.0180
                                           -0.0629  0.0257 -0.0087  0.0022  0.0101
                                           -0.0285
   736. (0.00176) RY*( 4) C  25           s(  0.23%)p99.99( 91.12%)d31.29(  7.30%)
                                                  f 5.77(  1.34%)
                                           -0.0000  0.0030 -0.0297  0.0380 -0.0000
                                           -0.0006  0.4619  0.0265 -0.0148  0.8298
                                           -0.0416  0.0052  0.0780 -0.0234 -0.0817
                                           -0.0225 -0.0813 -0.0561 -0.1325 -0.0576
                                           -0.1651 -0.0713  0.0530 -0.0046  0.0078
                                           -0.0007 -0.0106 -0.0749 -0.0468 -0.0730
                                           -0.0118
   737. (0.00122) RY*( 5) C  25           s(  0.24%)p41.52(  9.99%)d99.99( 84.56%)
                                                  f21.61(  5.20%)
                                            0.0000  0.0005  0.0479 -0.0047  0.0093
                                            0.0069  0.0756 -0.0762  0.0439  0.2464
                                           -0.1588  0.0000  0.0067 -0.0217  0.5378
                                            0.0306  0.2809  0.0878  0.3994  0.0384
                                            0.5393  0.0869  0.0964 -0.0090  0.0276
                                            0.0458  0.0044  0.1295  0.0695  0.1645
                                            0.0219
   738. (0.00115) RY*( 6) C  25           s(  0.03%)p99.99(  7.31%)d99.99( 87.57%)
                                                  f99.99(  5.09%)
                                           -0.0000 -0.0004 -0.0105  0.0136 -0.0023
                                           -0.0206 -0.0808  0.1399  0.0038 -0.0676
                                            0.0271  0.0393  0.0856 -0.1798  0.2605
                                            0.0425  0.3496  0.0406 -0.2300 -0.0170
                                           -0.3412 -0.0627  0.7059  0.1015  0.0460
                                            0.1788 -0.0933  0.0092 -0.0192 -0.0317
                                            0.0818
   739. (0.00018) RY*( 7) C  25           s(  0.59%)p75.93( 45.05%)d87.07( 51.66%)
                                                  f 4.55(  2.70%)
                                           -0.0000 -0.0011 -0.0042  0.0747  0.0181
                                           -0.0003  0.0084 -0.3043 -0.0049 -0.0356
                                           -0.4814  0.0026 -0.0571 -0.3485  0.0202
                                            0.2089  0.0999  0.3005  0.0489  0.2228
                                           -0.3095 -0.2991 -0.2114 -0.3006  0.1096
                                           -0.0389  0.0085  0.0061  0.0281  0.0389
                                            0.1052
   740. (0.00011) RY*( 8) C  25           s( 10.21%)p 1.11( 11.30%)d 7.31( 74.57%)
                                                  f 0.38(  3.92%)
                                            0.0000 -0.0089 -0.0304  0.3176  0.0125
                                            0.0055  0.0614 -0.2442 -0.0009 -0.0262
                                           -0.1822  0.0040 -0.0965 -0.0797 -0.4528
                                           -0.4397  0.0935  0.0823  0.2037  0.2947
                                            0.1377  0.0656  0.2578  0.3375  0.0247
                                            0.0743 -0.0113  0.0659 -0.1223 -0.1108
                                           -0.0366
   741. (0.00010) RY*( 9) C  25           s( 27.43%)p 0.45( 12.41%)d 2.01( 55.08%)
                                                  f 0.19(  5.08%)
                                           -0.0000  0.0132 -0.0743  0.4894 -0.1706
                                            0.0015  0.0455  0.3043 -0.0019 -0.0776
                                           -0.1335  0.0016  0.0167  0.0727  0.3072
                                           -0.0378 -0.5317 -0.0288  0.2948  0.0922
                                           -0.2437  0.0758  0.0796  0.0676  0.0955
                                           -0.0576  0.0023 -0.0505  0.1396  0.0309
                                            0.1240
   742. (0.00006) RY*(10) C  25           s( 19.14%)p 2.84( 54.33%)d 1.28( 24.58%)
                                                  f 0.10(  1.95%)
   743. (0.00006) RY*(11) C  25           s( 28.23%)p 1.53( 43.32%)d 0.93( 26.38%)
                                                  f 0.07(  2.07%)
   744. (0.00003) RY*(12) C  25           s( 10.58%)p 4.86( 51.43%)d 2.76( 29.16%)
                                                  f 0.84(  8.83%)
   745. (0.00004) RY*(13) C  25           s(  3.40%)p15.90( 54.04%)d11.96( 40.63%)
                                                  f 0.57(  1.93%)
   746. (0.00002) RY*(14) C  25           s(  1.21%)p 0.68(  0.82%)d54.09( 65.49%)
                                                  f26.83( 32.49%)
   747. (0.00000) RY*(15) C  25           s(  0.40%)p 5.92(  2.38%)d99.99( 96.67%)
                                                  f 1.39(  0.56%)
   748. (0.00000) RY*(16) C  25           s(  0.21%)p21.13(  4.43%)d99.99( 92.72%)
                                                  f12.60(  2.64%)
   749. (0.00001) RY*(17) C  25           s(  1.71%)p 2.96(  5.07%)d53.88( 92.33%)
                                                  f 0.52(  0.88%)
   750. (0.00000) RY*(18) C  25           s( 94.01%)p 0.00(  0.24%)d 0.06(  5.66%)
                                                  f 0.00(  0.09%)
   751. (0.00001) RY*(19) C  25           s(  0.03%)p84.72(  2.82%)d99.99( 96.40%)
                                                  f22.67(  0.75%)
   752. (0.00000) RY*(20) C  25           s(  0.46%)p 4.01(  1.84%)d 8.59(  3.95%)
                                                  f99.99( 93.75%)
   753. (0.00000) RY*(21) C  25           s(  0.07%)p28.78(  2.02%)d99.99(  9.34%)
                                                  f99.99( 88.57%)
   754. (0.00000) RY*(22) C  25           s(  0.02%)p 8.19(  0.17%)d55.19(  1.12%)
                                                  f99.99( 98.70%)
   755. (0.00000) RY*(23) C  25           s(  0.31%)p 6.94(  2.14%)d36.76( 11.33%)
                                                  f99.99( 86.22%)
   756. (0.00000) RY*(24) C  25           s(  1.76%)p 0.62(  1.09%)d12.81( 22.54%)
                                                  f42.40( 74.61%)
   757. (0.00000) RY*(25) C  25           s(  0.42%)p 4.14(  1.75%)d13.37(  5.65%)
                                                  f99.99( 92.17%)
   758. (0.00000) RY*(26) C  25           s(  0.90%)p 2.16(  1.93%)d 8.98(  8.04%)
                                                  f99.54( 89.13%)
   759. (0.00294) RY*( 1) O  26           s( 87.41%)p 0.08(  7.31%)d 0.06(  5.24%)
                                                  f 0.00(  0.04%)
                                           -0.0000  0.0051  0.9349 -0.0016  0.0067
                                            0.0272 -0.0101 -0.1280 -0.0080  0.2069
                                            0.0661  0.0173 -0.0168 -0.0899  0.0838
                                           -0.0158 -0.1725  0.0099  0.0552 -0.0108
                                           -0.1060 -0.0026  0.0271 -0.0088  0.0090
                                           -0.0019  0.0003 -0.0097  0.0103 -0.0027
                                            0.0090
   760. (0.00228) RY*( 2) O  26           s(  3.24%)p29.29( 94.90%)d 0.57(  1.83%)
                                                  f 0.01(  0.03%)
                                           -0.0000  0.0011  0.1772  0.0316  0.0005
                                            0.0021 -0.3962  0.0082 -0.0095 -0.8758
                                            0.0622  0.0021 -0.1443 -0.0073  0.0566
                                            0.0582  0.0077  0.0264  0.0497  0.0437
                                           -0.0065  0.0787 -0.0011  0.0192 -0.0035
                                           -0.0012  0.0003 -0.0064 -0.0093 -0.0123
                                           -0.0007
   761. (0.00187) RY*( 3) O  26           s(  0.02%)p99.99( 98.25%)d99.99(  1.70%)
                                                  f 1.92(  0.03%)
                                            0.0000  0.0003  0.0122 -0.0038  0.0003
                                            0.0050  0.5366 -0.0451 -0.0016 -0.1031
                                            0.0053 -0.0072 -0.8239  0.0544  0.0173
                                            0.0344  0.0259  0.0391  0.0085 -0.0371
                                           -0.0225 -0.0400  0.0312  0.0939 -0.0023
                                           -0.0133  0.0093  0.0011  0.0046  0.0016
                                           -0.0047
   762. (0.00020) RY*( 4) O  26           s(  1.00%)p61.96( 61.67%)d36.40( 36.23%)
                                                  f 1.11(  1.10%)
                                            0.0000 -0.0314  0.0606  0.0720  0.0106
                                           -0.0415 -0.5793  0.0071  0.0210  0.3172
                                            0.0287 -0.0291 -0.4202  0.0074 -0.3293
                                           -0.0020  0.3937  0.0231 -0.2178 -0.0041
                                            0.2244  0.0069 -0.0207 -0.0075 -0.0427
                                            0.0192 -0.0093  0.0416 -0.0636  0.0032
                                           -0.0544
   763. (0.00008) RY*( 5) O  26           s( 47.12%)p 0.42( 19.70%)d 0.69( 32.57%)
                                                  f 0.01(  0.61%)
   764. (0.00005) RY*( 6) O  26           s( 28.62%)p 1.11( 31.66%)d 1.35( 38.61%)
                                                  f 0.04(  1.10%)
   765. (0.00002) RY*( 7) O  26           s(  1.11%)p 9.25( 10.23%)d78.33( 86.61%)
                                                  f 1.87(  2.06%)
   766. (0.00001) RY*( 8) O  26           s( 10.97%)p 7.03( 77.18%)d 1.08( 11.82%)
                                                  f 0.00(  0.02%)
   767. (0.00001) RY*( 9) O  26           s(  4.82%)p17.06( 82.26%)d 2.68( 12.92%)
                                                  f 0.00(  0.00%)
   768. (0.00001) RY*(10) O  26           s(  4.94%)p 3.66( 18.05%)d15.60( 77.02%)
                                                  f 0.00(  0.00%)
   769. (0.00001) RY*(11) O  26           s(  3.06%)p 8.00( 24.53%)d22.44( 68.78%)
                                                  f 1.18(  3.62%)
   770. (0.00000) RY*(12) O  26           s( 99.98%)p 0.00(  0.01%)d 0.00(  0.01%)
                                                  f 0.00(  0.00%)
   771. (0.00000) RY*(13) O  26           s(  0.07%)p99.99(  9.72%)d99.99( 90.20%)
                                                  f 0.04(  0.00%)
   772. (0.00001) RY*(14) O  26           s(  1.76%)p 6.04( 10.62%)d49.83( 87.62%)
                                                  f 0.00(  0.00%)
   773. (0.00000) RY*(15) O  26           s(  0.02%)p43.24(  0.98%)d99.99( 98.99%)
                                                  f 0.29(  0.01%)
   774. (0.00000) RY*(16) O  26           s(  0.02%)p37.81(  0.63%)d99.99( 99.36%)
                                                  f 0.10(  0.00%)
   775. (0.00000) RY*(17) O  26           s(  0.01%)p 1.00(  1.29%)d76.71( 98.70%)
                                                  f 0.00(  0.00%)
   776. (0.00000) RY*(18) O  26           s(  5.81%)p 8.70( 50.51%)d 7.52( 43.68%)
                                                  f 0.00(  0.00%)
   777. (0.00000) RY*(19) O  26           s(  0.01%)p 1.00(  1.19%)d83.21( 98.80%)
                                                  f 0.01(  0.01%)
   778. (0.00000) RY*(20) O  26           s(  0.02%)p 2.74(  0.05%)d86.75(  1.54%)
                                                  f99.99( 98.40%)
   779. (0.00000) RY*(21) O  26           s(  0.02%)p 4.37(  0.09%)d62.42(  1.34%)
                                                  f99.99( 98.54%)
   780. (0.00000) RY*(22) O  26           s(  0.01%)p 1.00(  0.08%)d 2.06(  0.17%)
                                                  f99.99( 99.75%)
   781. (0.00000) RY*(23) O  26           s(  0.03%)p 2.26(  0.08%)d66.92(  2.32%)
                                                  f99.99( 97.57%)
   782. (0.00000) RY*(24) O  26           s(  0.00%)p 1.00(  0.53%)d 1.85(  0.98%)
                                                  f99.99( 98.50%)
   783. (0.00000) RY*(25) O  26           s(  0.02%)p 5.25(  0.13%)d20.42(  0.49%)
                                                  f99.99( 99.36%)
   784. (0.00000) RY*(26) O  26           s(  0.02%)p 2.74(  0.05%)d43.87(  0.76%)
                                                  f99.99( 99.17%)
   785. (0.00043) RY*( 1) H  27           s( 95.84%)p 0.04(  4.16%)
                                           -0.0018  0.9788  0.0168 -0.1427 -0.1413
                                            0.0356
   786. (0.00013) RY*( 2) H  27           s( 71.97%)p 0.39( 28.03%)
                                           -0.0024 -0.1190  0.8399 -0.4688 -0.2281
                                            0.0924
   787. (0.00011) RY*( 3) H  27           s(  2.13%)p45.89( 97.87%)
                                            0.0008 -0.0172  0.1450  0.5758 -0.7540
                                           -0.2805
   788. (0.00008) RY*( 4) H  27           s( 27.52%)p 2.63( 72.48%)
   789. (0.00000) RY*( 5) H  27           s(  2.57%)p37.98( 97.43%)
   790. (0.00058) RY*( 1) H  28           s( 97.92%)p 0.02(  2.08%)
                                           -0.0030  0.9895  0.0029 -0.1378 -0.0426
                                           -0.0018
   791. (0.00014) RY*( 2) H  28           s( 37.69%)p 1.65( 62.31%)
                                            0.0001 -0.0054  0.6139 -0.1120  0.2486
                                            0.7408
   792. (0.00011) RY*( 3) H  28           s( 41.58%)p 1.40( 58.42%)
                                           -0.0025 -0.0833  0.6394 -0.4985 -0.2554
                                           -0.5201
   793. (0.00009) RY*( 4) H  28           s( 22.76%)p 3.39( 77.24%)
   794. (0.00002) RY*( 5) H  28           s(  0.09%)p99.99( 99.91%)
   795. (0.00034) RY*( 1) H  29           s( 99.79%)p 0.00(  0.21%)
                                           -0.0004  0.9989 -0.0098  0.0008 -0.0304
                                           -0.0337
   796. (0.00023) RY*( 2) H  29           s( 84.89%)p 0.18( 15.11%)
                                           -0.0028  0.0153  0.9212 -0.0690 -0.1724
                                            0.3415
   797. (0.00014) RY*( 3) H  29           s(  0.52%)p99.99( 99.48%)
                                           -0.0026 -0.0185  0.0700 -0.8777 -0.1600
                                           -0.4460
   798. (0.00009) RY*( 4) H  29           s( 12.14%)p 7.24( 87.86%)
   799. (0.00002) RY*( 5) H  29           s(  2.68%)p36.28( 97.32%)
   800. (0.00079) RY*( 1) H  30           s( 99.85%)p 0.00(  0.15%)
                                           -0.0036  0.9992  0.0039 -0.0084  0.0200
                                            0.0328
   801. (0.00029) RY*( 2) H  30           s(  2.49%)p39.09( 97.51%)
                                           -0.0003  0.0233  0.1562  0.8743 -0.0934
                                           -0.4493
   802. (0.00019) RY*( 3) H  30           s( 71.16%)p 0.41( 28.84%)
                                           -0.0003 -0.0210  0.8433  0.1241  0.0990
                                            0.5130
   803. (0.00009) RY*( 4) H  30           s( 25.81%)p 2.87( 74.19%)
   804. (0.00001) RY*( 5) H  30           s(  0.72%)p99.99( 99.28%)
   805. (0.00069) RY*( 1) H  31           s( 98.43%)p 0.02(  1.57%)
                                           -0.0003  0.9921 -0.0065 -0.0706 -0.0345
                                           -0.0976
   806. (0.00017) RY*( 2) H  31           s( 61.39%)p 0.63( 38.61%)
                                           -0.0031  0.0435  0.7823  0.3374 -0.4287
                                            0.2974
   807. (0.00011) RY*( 3) H  31           s( 26.87%)p 2.72( 73.13%)
                                           -0.0012  0.0236  0.5178 -0.1334  0.8447
                                            0.0034
   808. (0.00012) RY*( 4) H  31           s(  7.11%)p13.06( 92.89%)
                                           -0.0034 -0.0894  0.2513  0.0981 -0.1322
                                           -0.9496
   809. (0.00002) RY*( 5) H  31           s(  6.23%)p15.06( 93.77%)
   810. (0.00099) RY*( 1) H  32           s( 97.77%)p 0.02(  2.23%)
                                           -0.0034  0.9888 -0.0076 -0.0259 -0.0928
                                           -0.1141
   811. (0.00023) RY*( 2) H  32           s( 68.12%)p 0.47( 31.88%)
                                           -0.0001  0.0543  0.8236  0.5045  0.0719
                                            0.2431
   812. (0.00010) RY*( 3) H  32           s(  1.77%)p55.34( 98.23%)
   813. (0.00007) RY*( 4) H  32           s( 31.63%)p 2.16( 68.37%)
   814. (0.00002) RY*( 5) H  32           s(  0.72%)p99.99( 99.28%)
   815. (0.00037) RY*( 1) H  33           s( 94.09%)p 0.06(  5.91%)
                                           -0.0014  0.9693  0.0368  0.1226 -0.1795
                                           -0.1088
   816. (0.00016) RY*( 2) H  33           s( 49.84%)p 1.01( 50.16%)
                                           -0.0011 -0.1733  0.6844  0.0126 -0.6898
                                           -0.1599
   817. (0.00011) RY*( 3) H  33           s( 11.11%)p 8.00( 88.89%)
                                           -0.0046 -0.0615  0.3275  0.6049  0.4774
                                           -0.5432
   818. (0.00008) RY*( 4) H  33           s( 40.06%)p 1.50( 59.94%)
   819. (0.00001) RY*( 5) H  33           s(  4.93%)p19.27( 95.07%)
   820. (0.00205) RY*( 1) H  34           s( 99.92%)p 0.00(  0.08%)
                                            0.0047  0.9996 -0.0011  0.0277  0.0042
                                            0.0010
   821. (0.00037) RY*( 2) H  34           s( 71.86%)p 0.39( 28.14%)
                                           -0.0056 -0.0125  0.8476  0.5059 -0.1519
                                            0.0496
   822. (0.00017) RY*( 3) H  34           s(  3.26%)p29.64( 96.74%)
                                           -0.0014  0.0087  0.1805 -0.3571  0.1142
                                            0.9093
   823. (0.00012) RY*( 4) H  34           s( 19.26%)p 4.19( 80.74%)
                                           -0.0043  0.0236  0.4382 -0.7788 -0.2678
                                           -0.3594
   824. (0.00002) RY*( 5) H  34           s(  5.76%)p16.37( 94.24%)
   825. (0.00066) RY*( 1) H  35           s( 99.16%)p 0.01(  0.84%)
                                           -0.0030  0.9957  0.0126 -0.0090 -0.0234
                                           -0.0880
   826. (0.00030) RY*( 2) H  35           s( 11.15%)p 7.97( 88.85%)
                                           -0.0002 -0.0542  0.3295 -0.3749  0.5444
                                           -0.6720
   827. (0.00017) RY*( 3) H  35           s( 64.36%)p 0.55( 35.64%)
                                           -0.0003 -0.0334  0.8015  0.3159 -0.4780
                                           -0.1678
   828. (0.00009) RY*( 4) H  35           s( 25.04%)p 2.99( 74.96%)
   829. (0.00001) RY*( 5) H  35           s(  0.33%)p99.99( 99.67%)
   830. (0.00069) RY*( 1) H  36           s( 98.08%)p 0.02(  1.92%)
                                           -0.0030  0.9903 -0.0038 -0.0403  0.1319
                                            0.0129
   831. (0.00014) RY*( 2) H  36           s( 35.32%)p 1.83( 64.68%)
                                           -0.0009  0.0632  0.5909  0.2677 -0.3075
                                           -0.6933
   832. (0.00011) RY*( 3) H  36           s(  1.67%)p58.92( 98.33%)
                                            0.0040  0.1165 -0.0557  0.3201 -0.8227
                                            0.4517
   833. (0.00007) RY*( 4) H  36           s( 64.56%)p 0.55( 35.44%)
   834. (0.00002) RY*( 5) H  36           s(  0.40%)p99.99( 99.60%)
   835. (0.00041) RY*( 1) H  37           s( 99.86%)p 0.00(  0.14%)
                                           -0.0009  0.9992 -0.0100 -0.0060  0.0087
                                            0.0363
   836. (0.00024) RY*( 2) H  37           s( 75.40%)p 0.33( 24.60%)
                                           -0.0012  0.0238  0.8680  0.3543 -0.0963
                                           -0.3334
   837. (0.00013) RY*( 3) H  37           s( 12.21%)p 7.19( 87.79%)
                                           -0.0041 -0.0140  0.3492 -0.4333  0.8022
                                            0.2160
   838. (0.00011) RY*( 4) H  37           s(  9.74%)p 9.27( 90.26%)
                                           -0.0010 -0.0040  0.3121 -0.7186 -0.5824
                                            0.2167
   839. (0.00002) RY*( 5) H  37           s(  2.82%)p34.52( 97.18%)
   840. (0.00042) RY*( 1) H  38           s( 95.90%)p 0.04(  4.10%)
                                           -0.0019  0.9792  0.0158  0.0350  0.1993
                                           -0.0050
   841. (0.00013) RY*( 2) H  38           s( 68.54%)p 0.46( 31.46%)
                                           -0.0037 -0.1050  0.8212 -0.2457  0.4910
                                           -0.1145
   842. (0.00010) RY*( 3) H  38           s( 10.32%)p 8.69( 89.68%)
   843. (0.00007) RY*( 4) H  38           s( 20.21%)p 3.95( 79.79%)
   844. (0.00001) RY*( 5) H  38           s(  5.05%)p18.79( 94.95%)
   845. (0.00095) RY*( 1) H  39           s( 99.02%)p 0.01(  0.98%)
                                           -0.0025  0.9951  0.0007  0.0052 -0.0126
                                            0.0979
   846. (0.00019) RY*( 2) H  39           s( 64.27%)p 0.56( 35.73%)
                                           -0.0015  0.0033  0.8017  0.2985 -0.5038
                                           -0.1201
   847. (0.00011) RY*( 3) H  39           s( 27.03%)p 2.70( 72.97%)
                                           -0.0040 -0.0446  0.5180 -0.0587  0.6610
                                            0.5379
   848. (0.00008) RY*( 4) H  39           s(  7.35%)p12.61( 92.65%)
   849. (0.00003) RY*( 5) H  39           s(  2.36%)p41.37( 97.64%)
   850. (0.00038) RY*( 1) H  40           s( 94.40%)p 0.06(  5.60%)
                                           -0.0010  0.9714  0.0216  0.2035 -0.0067
                                            0.1204
   851. (0.00014) RY*( 2) H  40           s( 60.43%)p 0.65( 39.57%)
                                           -0.0050 -0.1332  0.7659  0.2161 -0.1822
                                            0.5620
   852. (0.00010) RY*( 3) H  40           s( 12.29%)p 7.14( 87.71%)
                                           -0.0010  0.0002  0.3506  0.1320  0.8961
                                           -0.2380
   853. (0.00007) RY*( 4) H  40           s( 26.35%)p 2.80( 73.65%)
   854. (0.00001) RY*( 5) H  40           s(  6.56%)p14.25( 93.44%)
   855. (0.00078) RY*( 1) H  41           s( 99.28%)p 0.01(  0.72%)
                                           -0.0022  0.9964  0.0004  0.0292 -0.0215
                                            0.0768
   856. (0.00020) RY*( 2) H  41           s( 53.48%)p 0.87( 46.52%)
                                           -0.0001  0.0094  0.7312  0.5898  0.0300
                                           -0.3412
   857. (0.00012) RY*( 3) H  41           s( 14.11%)p 6.09( 85.89%)
                                           -0.0035 -0.0721  0.3686  0.0743  0.0616
                                            0.9217
   858. (0.00008) RY*( 4) H  41           s( 31.35%)p 2.19( 68.65%)
   859. (0.00002) RY*( 5) H  41           s(  1.82%)p54.05( 98.18%)
   860. (0.00042) RY*( 1) H  42           s( 98.86%)p 0.01(  1.14%)
                                           -0.0032  0.9943  0.0040 -0.0687  0.0540
                                            0.0614
   861. (0.00027) RY*( 2) H  42           s(  0.78%)p99.99( 99.22%)
                                            0.0007  0.0792 -0.0390  0.0436 -0.3330
                                           -0.9378
   862. (0.00006) RY*( 3) H  42           s(  5.32%)p17.79( 94.68%)
   863. (0.00006) RY*( 4) H  42           s( 80.87%)p 0.24( 19.13%)
   864. (0.00001) RY*( 5) H  42           s( 14.23%)p 6.03( 85.77%)
   865. (0.00042) RY*( 1) H  43           s( 98.86%)p 0.01(  1.14%)
                                           -0.0032  0.9943  0.0040  0.0687  0.0540
                                            0.0614
   866. (0.00027) RY*( 2) H  43           s(  0.78%)p99.99( 99.22%)
                                            0.0007  0.0791 -0.0390 -0.0436 -0.3330
                                           -0.9378
   867. (0.00006) RY*( 3) H  43           s(  5.32%)p17.79( 94.68%)
   868. (0.00006) RY*( 4) H  43           s( 80.87%)p 0.24( 19.13%)
   869. (0.00001) RY*( 5) H  43           s( 14.23%)p 6.03( 85.77%)
   870. (0.00205) RY*( 1) H  44           s( 99.92%)p 0.00(  0.08%)
                                            0.0047  0.9996 -0.0011 -0.0277  0.0042
                                            0.0010
   871. (0.00037) RY*( 2) H  44           s( 71.86%)p 0.39( 28.14%)
                                           -0.0056 -0.0125  0.8476 -0.5058 -0.1519
                                            0.0496
   872. (0.00017) RY*( 3) H  44           s(  3.26%)p29.64( 96.74%)
                                           -0.0014  0.0087  0.1805  0.3571  0.1141
                                            0.9093
   873. (0.00012) RY*( 4) H  44           s( 19.25%)p 4.19( 80.75%)
                                           -0.0043  0.0235  0.4381  0.7788 -0.2678
                                           -0.3595
   874. (0.00002) RY*( 5) H  44           s(  5.76%)p16.37( 94.24%)
   875. (0.00066) RY*( 1) H  45           s( 99.16%)p 0.01(  0.84%)
                                           -0.0030  0.9957  0.0126  0.0090 -0.0234
                                           -0.0880
   876. (0.00030) RY*( 2) H  45           s( 11.15%)p 7.97( 88.85%)
                                           -0.0002 -0.0542  0.3295  0.3749  0.5445
                                           -0.6719
   877. (0.00017) RY*( 3) H  45           s( 64.36%)p 0.55( 35.64%)
                                           -0.0003 -0.0334  0.8015 -0.3159 -0.4780
                                           -0.1678
   878. (0.00009) RY*( 4) H  45           s( 25.04%)p 2.99( 74.96%)
   879. (0.00001) RY*( 5) H  45           s(  0.33%)p99.99( 99.67%)
   880. (0.00038) RY*( 1) H  46           s( 94.40%)p 0.06(  5.60%)
                                           -0.0010  0.9714  0.0216 -0.2035 -0.0067
                                            0.1204
   881. (0.00014) RY*( 2) H  46           s( 60.43%)p 0.65( 39.57%)
                                           -0.0050 -0.1332  0.7659 -0.2161 -0.1822
                                            0.5620
   882. (0.00010) RY*( 3) H  46           s( 12.29%)p 7.14( 87.71%)
                                           -0.0010  0.0002  0.3506 -0.1320  0.8961
                                           -0.2380
   883. (0.00007) RY*( 4) H  46           s( 26.35%)p 2.80( 73.65%)
   884. (0.00001) RY*( 5) H  46           s(  6.56%)p14.25( 93.44%)
   885. (0.00095) RY*( 1) H  47           s( 99.02%)p 0.01(  0.98%)
                                           -0.0025  0.9951  0.0007 -0.0052 -0.0126
                                            0.0979
   886. (0.00019) RY*( 2) H  47           s( 64.26%)p 0.56( 35.74%)
                                           -0.0015  0.0033  0.8016 -0.2985 -0.5038
                                           -0.1201
   887. (0.00011) RY*( 3) H  47           s( 27.03%)p 2.70( 72.97%)
                                           -0.0040 -0.0447  0.5180  0.0586  0.6609
                                            0.5380
   888. (0.00008) RY*( 4) H  47           s(  7.35%)p12.60( 92.65%)
   889. (0.00003) RY*( 5) H  47           s(  2.36%)p41.36( 97.64%)
   890. (0.00078) RY*( 1) H  48           s( 99.28%)p 0.01(  0.72%)
                                           -0.0022  0.9964  0.0004 -0.0292 -0.0215
                                            0.0768
   891. (0.00020) RY*( 2) H  48           s( 53.48%)p 0.87( 46.52%)
                                           -0.0001  0.0094  0.7313 -0.5898  0.0300
                                           -0.3412
   892. (0.00012) RY*( 3) H  48           s( 14.10%)p 6.09( 85.90%)
                                           -0.0035 -0.0721  0.3685 -0.0743  0.0615
                                            0.9218
   893. (0.00008) RY*( 4) H  48           s( 31.35%)p 2.19( 68.65%)
   894. (0.00002) RY*( 5) H  48           s(  1.82%)p54.04( 98.18%)
   895. (0.00069) RY*( 1) H  49           s( 98.08%)p 0.02(  1.92%)
                                           -0.0030  0.9903 -0.0038  0.0403  0.1319
                                            0.0130
   896. (0.00014) RY*( 2) H  49           s( 35.32%)p 1.83( 64.68%)
                                           -0.0009  0.0632  0.5909 -0.2677 -0.3074
                                           -0.6933
   897. (0.00011) RY*( 3) H  49           s(  1.67%)p58.91( 98.33%)
                                            0.0040  0.1165 -0.0557 -0.3201 -0.8228
                                            0.4516
   898. (0.00007) RY*( 4) H  49           s( 64.55%)p 0.55( 35.45%)
   899. (0.00002) RY*( 5) H  49           s(  0.40%)p99.99( 99.60%)
   900. (0.00042) RY*( 1) H  50           s( 95.90%)p 0.04(  4.10%)
                                           -0.0019  0.9792  0.0158 -0.0350  0.1993
                                           -0.0050
   901. (0.00013) RY*( 2) H  50           s( 68.54%)p 0.46( 31.46%)
                                           -0.0037 -0.1050  0.8212  0.2457  0.4910
                                           -0.1145
   902. (0.00010) RY*( 3) H  50           s( 10.32%)p 8.69( 89.68%)
   903. (0.00007) RY*( 4) H  50           s( 20.21%)p 3.95( 79.79%)
   904. (0.00001) RY*( 5) H  50           s(  5.05%)p18.79( 94.95%)
   905. (0.00041) RY*( 1) H  51           s( 99.86%)p 0.00(  0.14%)
                                           -0.0009  0.9992 -0.0100  0.0060  0.0088
                                            0.0363
   906. (0.00024) RY*( 2) H  51           s( 75.40%)p 0.33( 24.60%)
                                           -0.0012  0.0238  0.8680 -0.3543 -0.0963
                                           -0.3334
   907. (0.00013) RY*( 3) H  51           s( 12.22%)p 7.19( 87.78%)
                                           -0.0041 -0.0140  0.3492  0.4333  0.8021
                                            0.2161
   908. (0.00011) RY*( 4) H  51           s(  9.74%)p 9.27( 90.26%)
                                           -0.0010 -0.0040  0.3120  0.7186 -0.5825
                                            0.2166
   909. (0.00002) RY*( 5) H  51           s(  2.82%)p34.52( 97.18%)
   910. (0.00079) RY*( 1) H  52           s( 99.85%)p 0.00(  0.15%)
                                           -0.0036  0.9992  0.0039  0.0084  0.0200
                                            0.0328
   911. (0.00029) RY*( 2) H  52           s(  2.50%)p39.06( 97.50%)
                                           -0.0003  0.0233  0.1563 -0.8743 -0.0934
                                           -0.4493
   912. (0.00019) RY*( 3) H  52           s( 71.16%)p 0.41( 28.84%)
                                           -0.0003 -0.0210  0.8433 -0.1240  0.0990
                                            0.5131
   913. (0.00009) RY*( 4) H  52           s( 25.81%)p 2.87( 74.19%)
   914. (0.00001) RY*( 5) H  52           s(  0.72%)p99.99( 99.28%)
   915. (0.00069) RY*( 1) H  53           s( 98.43%)p 0.02(  1.57%)
                                           -0.0003  0.9921 -0.0065  0.0706 -0.0345
                                           -0.0976
   916. (0.00017) RY*( 2) H  53           s( 61.39%)p 0.63( 38.61%)
                                           -0.0031  0.0435  0.7823 -0.3374 -0.4286
                                            0.2975
   917. (0.00011) RY*( 3) H  53           s( 26.86%)p 2.72( 73.14%)
                                           -0.0012  0.0236  0.5177  0.1335  0.8447
                                            0.0034
   918. (0.00012) RY*( 4) H  53           s(  7.12%)p13.05( 92.88%)
                                           -0.0034 -0.0894  0.2513 -0.0982 -0.1322
                                           -0.9496
   919. (0.00002) RY*( 5) H  53           s(  6.23%)p15.06( 93.77%)
   920. (0.00037) RY*( 1) H  54           s( 94.09%)p 0.06(  5.91%)
                                           -0.0014  0.9693  0.0368 -0.1226 -0.1795
                                           -0.1088
   921. (0.00016) RY*( 2) H  54           s( 49.84%)p 1.01( 50.16%)
                                           -0.0011 -0.1733  0.6844 -0.0126 -0.6898
                                           -0.1599
   922. (0.00011) RY*( 3) H  54           s( 11.11%)p 8.00( 88.89%)
                                           -0.0046 -0.0615  0.3275 -0.6049  0.4774
                                           -0.5432
   923. (0.00008) RY*( 4) H  54           s( 40.06%)p 1.50( 59.94%)
   924. (0.00001) RY*( 5) H  54           s(  4.93%)p19.27( 95.07%)
   925. (0.00099) RY*( 1) H  55           s( 97.77%)p 0.02(  2.23%)
                                           -0.0034  0.9888 -0.0076  0.0259 -0.0928
                                           -0.1141
   926. (0.00023) RY*( 2) H  55           s( 68.12%)p 0.47( 31.88%)
                                           -0.0001  0.0543  0.8236 -0.5045  0.0718
                                            0.2431
   927. (0.00010) RY*( 3) H  55           s(  1.78%)p55.29( 98.22%)
   928. (0.00007) RY*( 4) H  55           s( 31.63%)p 2.16( 68.37%)
   929. (0.00002) RY*( 5) H  55           s(  0.72%)p99.99( 99.28%)
   930. (0.00058) RY*( 1) H  56           s( 97.92%)p 0.02(  2.08%)
                                           -0.0030  0.9895  0.0029  0.1378 -0.0427
                                           -0.0018
   931. (0.00014) RY*( 2) H  56           s( 37.68%)p 1.65( 62.32%)
                                            0.0001 -0.0054  0.6138  0.1119  0.2485
                                            0.7409
   932. (0.00011) RY*( 3) H  56           s( 41.59%)p 1.40( 58.41%)
                                           -0.0025 -0.0833  0.6395  0.4985 -0.2553
                                           -0.5201
   933. (0.00009) RY*( 4) H  56           s( 22.76%)p 3.39( 77.24%)
   934. (0.00002) RY*( 5) H  56           s(  0.09%)p99.99( 99.91%)
   935. (0.00043) RY*( 1) H  57           s( 95.84%)p 0.04(  4.16%)
                                           -0.0018  0.9788  0.0168  0.1427 -0.1413
                                            0.0356
   936. (0.00013) RY*( 2) H  57           s( 71.97%)p 0.39( 28.03%)
                                           -0.0024 -0.1190  0.8399  0.4688 -0.2281
                                            0.0924
   937. (0.00011) RY*( 3) H  57           s(  2.13%)p45.87( 97.87%)
                                            0.0008 -0.0172  0.1450 -0.5757 -0.7540
                                           -0.2806
   938. (0.00008) RY*( 4) H  57           s( 27.52%)p 2.63( 72.48%)
   939. (0.00000) RY*( 5) H  57           s(  2.57%)p37.99( 97.43%)
   940. (0.00034) RY*( 1) H  58           s( 99.79%)p 0.00(  0.21%)
                                           -0.0004  0.9989 -0.0098 -0.0008 -0.0304
                                           -0.0337
   941. (0.00023) RY*( 2) H  58           s( 84.89%)p 0.18( 15.11%)
                                           -0.0028  0.0153  0.9212  0.0690 -0.1724
                                            0.3415
   942. (0.00014) RY*( 3) H  58           s(  0.52%)p99.99( 99.48%)
                                           -0.0026 -0.0185  0.0700  0.8776 -0.1600
                                           -0.4460
   943. (0.00009) RY*( 4) H  58           s( 12.14%)p 7.24( 87.86%)
   944. (0.00002) RY*( 5) H  58           s(  2.68%)p36.28( 97.32%)
   945. (0.01208) BD*( 1) C   1 - C   2  
                ( 50.82%)   0.7129* C   1 s( 29.64%)p 2.37( 70.24%)d 0.00(  0.11%)
                                                  f 0.00(  0.01%)
                                           -0.0003 -0.5444 -0.0033  0.0049  0.0002
                                            0.7941  0.0046 -0.0123  0.2632  0.0030
                                            0.0026 -0.0470 -0.0029 -0.0053 -0.0148
                                           -0.0026  0.0037 -0.0006  0.0006 -0.0001
                                           -0.0258 -0.0022  0.0147  0.0018 -0.0020
                                           -0.0072  0.0010 -0.0039 -0.0019  0.0056
                                            0.0052
                ( 49.18%)  -0.7013* C   2 s( 26.60%)p 2.76( 73.34%)d 0.00(  0.06%)
                                                  f 0.00(  0.00%)
                                            0.0001 -0.5155  0.0157 -0.0025  0.0001
                                           -0.8139 -0.0085 -0.0073 -0.2559  0.0045
                                            0.0013  0.0728 -0.0048 -0.0026 -0.0123
                                           -0.0028  0.0077 -0.0005  0.0057 -0.0005
                                           -0.0126 -0.0038  0.0122  0.0033  0.0019
                                            0.0028 -0.0024  0.0009  0.0014 -0.0001
                                           -0.0045
   946. (0.00671) BD*( 1) C   1 - H  27  
                ( 38.91%)   0.6238* C   1 s( 23.21%)p 3.30( 76.63%)d 0.01(  0.15%)
                                                  f 0.00(  0.01%)
                                            0.0001 -0.4817 -0.0003 -0.0030  0.0000
                                           -0.3859 -0.0025 -0.0027  0.0300 -0.0015
                                            0.0008 -0.7851  0.0072 -0.0026  0.0056
                                           -0.0015 -0.0214 -0.0014  0.0033 -0.0005
                                            0.0011 -0.0020 -0.0318  0.0012 -0.0038
                                           -0.0042  0.0023 -0.0041 -0.0023 -0.0003
                                            0.0018
                ( 61.09%)  -0.7816* H  27 s( 99.97%)p 0.00(  0.03%)
                                           -0.9998 -0.0012 -0.0001  0.0084 -0.0003
                                            0.0152
   947. (0.00987) BD*( 1) C   1 - H  28  
                ( 39.20%)   0.6261* C   1 s( 23.31%)p 3.28( 76.54%)d 0.01(  0.14%)
                                                  f 0.00(  0.01%)
                                            0.0000 -0.4828  0.0039 -0.0005 -0.0002
                                           -0.0393 -0.0072 -0.0029 -0.8265 -0.0000
                                           -0.0039  0.2839  0.0004 -0.0005  0.0048
                                           -0.0021 -0.0009  0.0002  0.0179  0.0013
                                            0.0310  0.0002  0.0091  0.0013 -0.0045
                                           -0.0025  0.0027 -0.0039 -0.0009  0.0010
                                            0.0030
                ( 60.80%)  -0.7798* H  28 s( 99.97%)p 0.00(  0.03%)
                                           -0.9998 -0.0020  0.0001  0.0024  0.0164
                                           -0.0051
   948. (0.00635) BD*( 1) C   1 - H  29  
                ( 39.03%)   0.6248* C   1 s( 23.79%)p 3.20( 76.06%)d 0.01(  0.14%)
                                                  f 0.00(  0.01%)
                                            0.0001 -0.4877 -0.0011 -0.0009 -0.0001
                                           -0.4653 -0.0038 -0.0031  0.4949 -0.0038
                                            0.0014  0.5469 -0.0017 -0.0014  0.0214
                                           -0.0006  0.0163  0.0023 -0.0222 -0.0013
                                            0.0099 -0.0024 -0.0095  0.0025 -0.0046
                                           -0.0033  0.0026 -0.0021 -0.0040 -0.0000
                                            0.0028
                ( 60.97%)  -0.7808* H  29 s( 99.97%)p 0.00(  0.03%)
                                           -0.9998 -0.0011  0.0001  0.0103 -0.0091
                                           -0.0110
   949. (0.01283) BD*( 1) C   2 - C   3  
                ( 49.12%)   0.7008* C   2 s( 26.92%)p 2.71( 73.01%)d 0.00(  0.06%)
                                                  f 0.00(  0.00%)
                                            0.0000 -0.5186  0.0146 -0.0035  0.0001
                                            0.4074  0.0005  0.0005 -0.4262  0.0035
                                            0.0003 -0.6183 -0.0105 -0.0105  0.0126
                                            0.0015  0.0162  0.0024 -0.0131 -0.0034
                                            0.0032  0.0007 -0.0014 -0.0020  0.0012
                                            0.0016 -0.0019  0.0026  0.0010 -0.0024
                                           -0.0038
                ( 50.88%)  -0.7133* C   3 s( 29.51%)p 2.38( 70.36%)d 0.00(  0.11%)
                                                  f 0.00(  0.01%)
                                           -0.0002 -0.5432  0.0008 -0.0038  0.0010
                                           -0.3818 -0.0030 -0.0015  0.4227  0.0033
                                            0.0049  0.6157  0.0002 -0.0080  0.0130
                                            0.0012  0.0199  0.0013 -0.0204 -0.0030
                                           -0.0026  0.0014 -0.0119 -0.0017 -0.0016
                                           -0.0084  0.0053 -0.0008 -0.0038  0.0014
                                            0.0049
   950. (0.03452) BD*( 1) C   2 - C   4  
                ( 50.63%)   0.7115* C   2 s( 26.18%)p 2.82( 73.69%)d 0.00(  0.12%)
                                                  f 0.00(  0.01%)
                                            0.0002  0.5115  0.0047 -0.0096 -0.0000
                                           -0.4128  0.0020  0.0044  0.0706 -0.0007
                                           -0.0011 -0.7493  0.0032  0.0064 -0.0008
                                           -0.0008  0.0241  0.0035 -0.0002 -0.0025
                                            0.0098 -0.0015  0.0221  0.0021 -0.0025
                                           -0.0081  0.0022 -0.0036 -0.0011  0.0012
                                            0.0031
                ( 49.37%)  -0.7027* C   4 s( 27.90%)p 2.58( 72.03%)d 0.00(  0.06%)
                                                  f 0.00(  0.01%)
                                           -0.0001  0.5282  0.0013  0.0040  0.0002
                                            0.4105 -0.0022  0.0031 -0.1157  0.0051
                                            0.0003  0.7337 -0.0060  0.0052  0.0011
                                           -0.0008  0.0158  0.0021 -0.0035 -0.0003
                                            0.0047 -0.0007  0.0161  0.0010  0.0010
                                            0.0055 -0.0020  0.0020  0.0024 -0.0019
                                           -0.0044
   951. (0.02714) BD*( 1) C   2 - H  30  
                ( 39.38%)   0.6275* C   2 s( 20.37%)p 3.90( 79.49%)d 0.01(  0.13%)
                                                  f 0.00(  0.01%)
                                           -0.0001  0.4507  0.0233  0.0028  0.0002
                                            0.0064  0.0009  0.0011 -0.8633  0.0134
                                            0.0050  0.2221 -0.0023  0.0010  0.0030
                                           -0.0013  0.0000  0.0003 -0.0125 -0.0012
                                           -0.0284 -0.0003 -0.0181  0.0017 -0.0018
                                           -0.0030  0.0017 -0.0034 -0.0018  0.0009
                                            0.0045
                ( 60.62%)  -0.7786* H  30 s( 99.97%)p 0.00(  0.03%)
                                            0.9998  0.0034  0.0006  0.0002  0.0181
                                           -0.0038
   952. (0.00681) BD*( 1) C   3 - H  31  
                ( 38.98%)   0.6243* C   3 s( 23.69%)p 3.22( 76.16%)d 0.01(  0.15%)
                                                  f 0.00(  0.01%)
                                           -0.0001  0.4867  0.0047 -0.0033  0.0000
                                           -0.8261  0.0031 -0.0049 -0.2637  0.0048
                                           -0.0001  0.0972  0.0007  0.0079  0.0221
                                            0.0000  0.0041 -0.0030 -0.0081  0.0027
                                            0.0238  0.0014 -0.0181 -0.0014  0.0010
                                            0.0052  0.0003  0.0042 -0.0013 -0.0029
                                           -0.0055
                ( 61.02%)  -0.7812* H  31 s( 99.97%)p 0.00(  0.03%)
                                            0.9999  0.0014  0.0000  0.0162  0.0040
                                           -0.0026
   953. (0.01019) BD*( 1) C   3 - H  32  
                ( 39.25%)   0.6265* C   3 s( 23.45%)p 3.26( 76.41%)d 0.01(  0.14%)
                                                  f 0.00(  0.00%)
                                            0.0000 -0.4841  0.0116 -0.0028 -0.0005
                                            0.0087  0.0062  0.0012 -0.8576 -0.0092
                                            0.0120  0.1676 -0.0077 -0.0041 -0.0002
                                            0.0003  0.0023 -0.0018  0.0135  0.0005
                                            0.0313  0.0007  0.0138  0.0019 -0.0018
                                           -0.0028  0.0027 -0.0028 -0.0008  0.0009
                                            0.0043
                ( 60.75%)  -0.7794* H  32 s( 99.98%)p 0.00(  0.02%)
                                           -0.9999 -0.0023 -0.0004 -0.0007  0.0131
                                           -0.0009
   954. (0.00579) BD*( 1) C   3 - H  33  
                ( 39.03%)   0.6248* C   3 s( 23.30%)p 3.29( 76.54%)d 0.01(  0.16%)
                                                  f 0.00(  0.01%)
                                            0.0001 -0.4826 -0.0077  0.0023 -0.0004
                                           -0.4123  0.0075 -0.0022  0.1190 -0.0030
                                            0.0006 -0.7623  0.0042 -0.0090  0.0028
                                            0.0004 -0.0315  0.0010  0.0150 -0.0020
                                           -0.0084  0.0007 -0.0158 -0.0028 -0.0029
                                           -0.0050  0.0007 -0.0032  0.0014  0.0010
                                            0.0047
                ( 60.97%)  -0.7808* H  33 s( 99.97%)p 0.00(  0.03%)
                                           -0.9998 -0.0009 -0.0001  0.0078 -0.0017
                                            0.0156
   955. (0.03763) BD*( 1) C   4 - C   5  
                ( 49.36%)   0.7025* C   4 s( 27.82%)p 2.59( 72.11%)d 0.00(  0.06%)
                                                  f 0.00(  0.01%)
                                            0.0001 -0.5275 -0.0031 -0.0036 -0.0003
                                           -0.3657  0.0002 -0.0055  0.4080 -0.0090
                                           -0.0023  0.6486 -0.0039  0.0071  0.0075
                                            0.0000  0.0126  0.0014 -0.0172  0.0003
                                            0.0035  0.0000 -0.0093 -0.0016 -0.0014
                                           -0.0047  0.0025 -0.0031 -0.0008  0.0015
                                            0.0034
                ( 50.64%)  -0.7116* C   5 s( 26.32%)p 2.79( 73.55%)d 0.00(  0.12%)
                                                  f 0.00(  0.01%)
                                           -0.0002 -0.5130 -0.0040  0.0097 -0.0001
                                            0.3997 -0.0035 -0.0041 -0.3303 -0.0036
                                            0.0028 -0.6830  0.0035  0.0062  0.0118
                                           -0.0000  0.0193  0.0036 -0.0186 -0.0033
                                           -0.0015 -0.0002 -0.0166 -0.0007  0.0008
                                            0.0072 -0.0052  0.0009  0.0035  0.0004
                                           -0.0035
   956. (0.04036) BD*( 1) C   4 - N   8  
                ( 63.39%)   0.7962* C   4 s( 22.24%)p 3.49( 77.72%)d 0.00(  0.03%)
                                                  f 0.00(  0.01%)
                                           -0.0001  0.4712  0.0170  0.0100 -0.0009
                                           -0.8339 -0.0149 -0.0116 -0.2726 -0.0052
                                           -0.0052  0.0843  0.0027  0.0002  0.0005
                                            0.0080  0.0002 -0.0018 -0.0009 -0.0013
                                            0.0056  0.0116 -0.0027 -0.0085  0.0025
                                            0.0007 -0.0052  0.0013  0.0005  0.0049
                                            0.0025
                ( 36.61%)  -0.6050* N   8 s( 33.15%)p 2.01( 66.72%)d 0.00(  0.11%)
                                                  f 0.00(  0.02%)
                                           -0.0001  0.5757  0.0068  0.0012 -0.0006
                                            0.7843  0.0146 -0.0088  0.2167 -0.0006
                                           -0.0020 -0.0696  0.0001  0.0009  0.0132
                                            0.0008 -0.0044 -0.0003 -0.0013  0.0009
                                            0.0247  0.0013 -0.0162  0.0007  0.0020
                                           -0.0082 -0.0022 -0.0012 -0.0017  0.0067
                                            0.0057
   957. (0.02574) BD*( 1) C   4 - H  34  
                ( 37.71%)   0.6141* C   4 s( 22.06%)p 3.53( 77.85%)d 0.00(  0.08%)
                                                  f 0.00(  0.01%)
                                            0.0002 -0.4693  0.0099  0.0153 -0.0001
                                            0.0356 -0.0038 -0.0062 -0.8625  0.0066
                                            0.0148  0.1815  0.0003 -0.0026  0.0067
                                           -0.0006 -0.0020  0.0008  0.0099  0.0018
                                            0.0226  0.0040  0.0126  0.0028 -0.0008
                                           -0.0061  0.0020 -0.0020 -0.0016  0.0018
                                            0.0039
                ( 62.29%)  -0.7892* H  34 s( 99.94%)p 0.00(  0.06%)
                                           -0.9997  0.0046 -0.0013 -0.0011  0.0238
                                           -0.0048
   958. (0.01701) BD*( 1) C   5 - C   6  
                ( 49.57%)   0.7041* C   5 s( 26.93%)p 2.71( 73.00%)d 0.00(  0.06%)
                                                  f 0.00(  0.00%)
                                           -0.0000 -0.5187  0.0144 -0.0036  0.0002
                                           -0.1711 -0.0098 -0.0069  0.8294  0.0094
                                            0.0072 -0.1123  0.0034  0.0013  0.0028
                                            0.0028 -0.0010  0.0008  0.0090  0.0008
                                            0.0174  0.0049  0.0141  0.0030 -0.0002
                                            0.0033 -0.0014  0.0002 -0.0006  0.0007
                                           -0.0044
                ( 50.43%)  -0.7101* C   6 s( 29.60%)p 2.37( 70.28%)d 0.00(  0.11%)
                                                  f 0.00(  0.01%)
                                           -0.0002 -0.5440 -0.0027  0.0053  0.0004
                                            0.1845 -0.0007 -0.0104 -0.8148 -0.0049
                                            0.0075  0.0685  0.0021  0.0028  0.0152
                                            0.0010 -0.0003 -0.0001  0.0064 -0.0012
                                            0.0245  0.0038  0.0150  0.0012 -0.0021
                                           -0.0065  0.0043 -0.0016 -0.0024 -0.0047
                                            0.0058
   959. (0.01278) BD*( 1) C   5 - C   7  
                ( 49.14%)   0.7010* C   5 s( 27.02%)p 2.70( 72.92%)d 0.00(  0.06%)
                                                  f 0.00(  0.00%)
                                            0.0000 -0.5196  0.0145 -0.0029  0.0001
                                            0.4445 -0.0041 -0.0016 -0.1365 -0.0044
                                           -0.0021  0.7161  0.0099  0.0093  0.0023
                                           -0.0004 -0.0173 -0.0047  0.0086  0.0005
                                           -0.0088 -0.0020 -0.0086 -0.0037  0.0001
                                            0.0034  0.0004  0.0018  0.0013  0.0014
                                           -0.0037
                ( 50.86%)  -0.7131* C   7 s( 29.44%)p 2.39( 70.43%)d 0.00(  0.12%)
                                                  f 0.00(  0.01%)
                                           -0.0002 -0.5425 -0.0055  0.0044  0.0004
                                           -0.4211 -0.0056 -0.0037  0.1257  0.0016
                                           -0.0038 -0.7148 -0.0031  0.0122  0.0076
                                           -0.0003 -0.0236 -0.0029  0.0103 -0.0010
                                           -0.0053 -0.0007 -0.0212 -0.0026 -0.0027
                                           -0.0086  0.0055 -0.0016  0.0010 -0.0002
                                            0.0048
   960. (0.02244) BD*( 1) C   5 - H  35  
                ( 39.07%)   0.6251* C   5 s( 19.79%)p 4.05( 80.07%)d 0.01(  0.13%)
                                                  f 0.00(  0.01%)
                                            0.0003 -0.4442 -0.0233 -0.0026 -0.0002
                                           -0.7816  0.0147  0.0038 -0.4275  0.0096
                                            0.0044  0.0821 -0.0021  0.0015 -0.0280
                                            0.0000 -0.0001  0.0018  0.0010  0.0008
                                           -0.0137 -0.0002  0.0188 -0.0004  0.0001
                                            0.0044 -0.0016  0.0029  0.0010  0.0006
                                           -0.0050
                ( 60.93%)  -0.7806* H  35 s( 99.96%)p 0.00(  0.04%)
                                           -0.9998 -0.0026 -0.0006  0.0157  0.0102
                                           -0.0004
   961. (0.01048) BD*( 1) C   6 - H  36  
                ( 39.23%)   0.6263* C   6 s( 23.59%)p 3.23( 76.26%)d 0.01(  0.14%)
                                                  f 0.00(  0.01%)
                                           -0.0000 -0.4857  0.0028  0.0006 -0.0003
                                            0.7240 -0.0021 -0.0004  0.4882  0.0064
                                            0.0051  0.0097 -0.0020  0.0025 -0.0292
                                           -0.0008  0.0001 -0.0004 -0.0018  0.0007
                                           -0.0192  0.0008  0.0138  0.0026 -0.0013
                                           -0.0066 -0.0016  0.0005 -0.0007 -0.0010
                                            0.0042
                ( 60.77%)  -0.7796* H  36 s( 99.97%)p 0.00(  0.03%)
                                           -0.9999 -0.0022 -0.0001 -0.0130 -0.0100
                                            0.0004
   962. (0.00682) BD*( 1) C   6 - H  37  
                ( 39.10%)   0.6253* C   6 s( 23.75%)p 3.20( 76.10%)d 0.01(  0.14%)
                                                  f 0.00(  0.01%)
                                            0.0001 -0.4874 -0.0011 -0.0014 -0.0001
                                           -0.4285 -0.0002 -0.0026  0.1654  0.0044
                                            0.0027 -0.7416  0.0022  0.0003  0.0001
                                            0.0021 -0.0231 -0.0026  0.0054  0.0014
                                           -0.0138  0.0027 -0.0252  0.0003 -0.0009
                                           -0.0075  0.0018 -0.0001  0.0010  0.0007
                                            0.0029
                ( 60.90%)  -0.7804* H  37 s( 99.97%)p 0.00(  0.03%)
                                           -0.9998 -0.0013  0.0000  0.0091 -0.0041
                                            0.0144
   963. (0.00671) BD*( 1) C   6 - H  38  
                ( 38.87%)   0.6235* C   6 s( 23.00%)p 3.34( 76.83%)d 0.01(  0.16%)
                                                  f 0.00(  0.01%)
                                            0.0001 -0.4796  0.0002 -0.0041 -0.0000
                                           -0.5065  0.0025 -0.0027  0.2608  0.0022
                                            0.0023  0.6661 -0.0071  0.0021  0.0061
                                            0.0013  0.0277  0.0006 -0.0123 -0.0009
                                           -0.0142  0.0018 -0.0203  0.0020 -0.0014
                                           -0.0069  0.0008  0.0003 -0.0022  0.0002
                                            0.0032
                ( 61.13%)  -0.7818* H  38 s( 99.97%)p 0.00(  0.03%)
                                           -0.9999 -0.0011 -0.0001  0.0096 -0.0058
                                           -0.0125
   964. (0.01050) BD*( 1) C   7 - H  39  
                ( 39.22%)   0.6263* C   7 s( 23.44%)p 3.26( 76.41%)d 0.01(  0.14%)
                                                  f 0.00(  0.01%)
                                           -0.0000  0.4841 -0.0042 -0.0010  0.0002
                                           -0.7778 -0.0039 -0.0016 -0.3982  0.0056
                                           -0.0053  0.0217 -0.0047 -0.0058  0.0256
                                            0.0009 -0.0096  0.0016  0.0001 -0.0013
                                            0.0154  0.0022 -0.0194 -0.0011 -0.0006
                                            0.0047 -0.0007 -0.0010  0.0021 -0.0006
                                           -0.0069
                ( 60.78%)  -0.7796* H  39 s( 99.97%)p 0.00(  0.03%)
                                            0.9998  0.0024  0.0002  0.0159  0.0065
                                            0.0012
   965. (0.00614) BD*( 1) C   7 - H  40  
                ( 39.04%)   0.6248* C   7 s( 23.26%)p 3.29( 76.57%)d 0.01(  0.16%)
                                                  f 0.00(  0.01%)
                                           -0.0001  0.4823 -0.0002  0.0046 -0.0000
                                            0.4444 -0.0056  0.0001 -0.3189  0.0040
                                            0.0003 -0.6830  0.0011 -0.0030 -0.0132
                                            0.0004 -0.0314  0.0013  0.0195 -0.0002
                                            0.0035  0.0000  0.0049  0.0033 -0.0009
                                            0.0039 -0.0028 -0.0001  0.0034  0.0003
                                           -0.0056
                ( 60.96%)  -0.7808* H  40 s( 99.97%)p 0.00(  0.03%)
                                            0.9998  0.0010  0.0001 -0.0083  0.0061
                                            0.0142
   966. (0.00698) BD*( 1) C   7 - H  41  
                ( 39.04%)   0.6248* C   7 s( 23.80%)p 3.20( 76.05%)d 0.01(  0.15%)
                                                  f 0.00(  0.01%)
                                            0.0001 -0.4878 -0.0001 -0.0004 -0.0001
                                            0.1355  0.0045 -0.0045 -0.8499  0.0031
                                           -0.0012  0.1403  0.0018  0.0064  0.0074
                                            0.0009  0.0068 -0.0028  0.0037  0.0012
                                            0.0302  0.0010  0.0204  0.0003 -0.0007
                                           -0.0028  0.0042 -0.0015 -0.0038 -0.0024
                                            0.0069
                ( 60.96%)  -0.7808* H  41 s( 99.97%)p 0.00(  0.03%)
                                           -0.9998 -0.0014  0.0002 -0.0040  0.0168
                                           -0.0048
   967. (0.03545) BD*( 1) N   8 - C   9  
                ( 38.00%)   0.6164* N   8 s( 31.08%)p 2.21( 68.67%)d 0.01(  0.23%)
                                                  f 0.00(  0.01%)
                                           -0.0001  0.5575 -0.0031 -0.0007  0.0004
                                           -0.1740 -0.0173  0.0036 -0.7739  0.0139
                                            0.0042  0.2386 -0.0034 -0.0014  0.0223
                                           -0.0003 -0.0073  0.0002 -0.0235  0.0012
                                           -0.0260 -0.0023 -0.0231  0.0033 -0.0057
                                            0.0015  0.0051 -0.0057  0.0029  0.0042
                                            0.0043
                ( 62.00%)  -0.7874* C   9 s( 28.60%)p 2.49( 71.35%)d 0.00(  0.04%)
                                                  f 0.00(  0.00%)
                                           -0.0001  0.5347  0.0036  0.0081 -0.0021
                                            0.3179  0.0294  0.0044  0.7410  0.0201
                                            0.0096 -0.2488 -0.0070 -0.0039 -0.0035
                                            0.0117  0.0012 -0.0039 -0.0028 -0.0067
                                            0.0041 -0.0131 -0.0058 -0.0032 -0.0016
                                            0.0011  0.0014 -0.0012  0.0000 -0.0012
                                            0.0006
   968. (0.02845) BD*( 1) N   8 - C  19  
                ( 34.61%)   0.5883* N   8 s( 35.55%)p 1.81( 64.23%)d 0.01(  0.21%)
                                                  f 0.00(  0.01%)
                                            0.0001 -0.5962  0.0082  0.0009 -0.0002
                                            0.5939  0.0102 -0.0080 -0.5118  0.0159
                                            0.0031  0.1648 -0.0053 -0.0007  0.0307
                                            0.0019 -0.0092 -0.0007  0.0106 -0.0017
                                           -0.0161  0.0017  0.0267 -0.0036 -0.0031
                                           -0.0053  0.0033  0.0001 -0.0041 -0.0030
                                           -0.0061
                ( 65.39%)  -0.8086* C  19 s( 27.64%)p 2.62( 72.30%)d 0.00(  0.05%)
                                                  f 0.00(  0.00%)
                                            0.0004 -0.5232 -0.0513 -0.0036  0.0001
                                           -0.7059 -0.0330 -0.0162  0.4543  0.0078
                                            0.0049 -0.1301  0.0004 -0.0029 -0.0136
                                            0.0121  0.0030 -0.0035  0.0057  0.0021
                                            0.0073 -0.0038  0.0058  0.0058 -0.0002
                                           -0.0038  0.0002 -0.0003 -0.0031 -0.0020
                                            0.0007
   969. (0.44853) BD*( 2) N   8 - C  19  
                ( 23.51%)   0.4849* N   8 s(  0.00%)p 1.00( 99.93%)d 0.00(  0.04%)
                                                  f 0.00(  0.02%)
                                            0.0000 -0.0055 -0.0013 -0.0005 -0.0001
                                            0.0019  0.0004 -0.0005 -0.2984 -0.0002
                                           -0.0047 -0.9539 -0.0013 -0.0150  0.0058
                                           -0.0008  0.0190 -0.0026 -0.0029 -0.0005
                                           -0.0002  0.0004  0.0018  0.0007  0.0113
                                           -0.0009  0.0089 -0.0038  0.0018 -0.0008
                                           -0.0011
                ( 76.49%)  -0.8746* C  19 s(  0.02%)p99.99( 99.78%)d12.85(  0.20%)
                                                  f 0.21(  0.00%)
                                            0.0000  0.0118  0.0034 -0.0024  0.0000
                                           -0.0027 -0.0009 -0.0003 -0.2657 -0.0059
                                            0.0029 -0.9621 -0.0343  0.0188 -0.0040
                                           -0.0065 -0.0118 -0.0211  0.0217  0.0211
                                           -0.0067 -0.0073 -0.0143 -0.0117  0.0037
                                            0.0001  0.0041  0.0014 -0.0005  0.0001
                                            0.0007
   970. (0.00883) BD*( 1) C   9 - C  10  
                ( 50.00%)   0.7071* C   9 s( 36.96%)p 1.70( 62.90%)d 0.00(  0.13%)
                                                  f 0.00(  0.01%)
                                            0.0000 -0.6079 -0.0076 -0.0032 -0.0006
                                            0.7864  0.0198 -0.0055  0.0902  0.0318
                                            0.0085 -0.0285 -0.0105 -0.0023  0.0068
                                           -0.0044 -0.0021  0.0013  0.0049 -0.0031
                                           -0.0256 -0.0061  0.0227 -0.0016 -0.0008
                                           -0.0056  0.0006 -0.0011 -0.0007  0.0056
                                            0.0017
                ( 50.00%)  -0.7071* C  10 s( 36.96%)p 1.70( 62.90%)d 0.00(  0.13%)
                                                  f 0.00(  0.01%)
                                            0.0000 -0.6079 -0.0076 -0.0032 -0.0006
                                           -0.7864 -0.0198  0.0055  0.0902  0.0318
                                            0.0085 -0.0285 -0.0105 -0.0023 -0.0068
                                            0.0044  0.0021 -0.0013  0.0049 -0.0031
                                           -0.0256 -0.0061  0.0227 -0.0016 -0.0008
                                            0.0056  0.0006 -0.0011  0.0007 -0.0056
                                            0.0017
   971. (0.26941) BD*( 2) C   9 - C  10  
                ( 50.00%)   0.7071* C   9 s(  0.00%)p 1.00( 99.92%)d 0.00(  0.05%)
                                                  f 0.00(  0.03%)
                                           -0.0000 -0.0015  0.0003  0.0000 -0.0000
                                           -0.0036 -0.0009  0.0007  0.3205 -0.0088
                                            0.0009  0.9464 -0.0260  0.0037 -0.0066
                                           -0.0020 -0.0207 -0.0052  0.0047 -0.0011
                                           -0.0017  0.0003 -0.0027  0.0003 -0.0111
                                            0.0026 -0.0078  0.0067 -0.0041  0.0019
                                            0.0023
                ( 50.00%)  -0.7071* C  10 s(  0.00%)p 1.00( 99.92%)d 0.00(  0.05%)
                                                  f 0.00(  0.03%)
                                           -0.0000 -0.0015  0.0003  0.0000 -0.0000
                                            0.0036  0.0009 -0.0007  0.3205 -0.0088
                                            0.0009  0.9464 -0.0260  0.0037  0.0066
                                            0.0020  0.0207  0.0052  0.0047 -0.0011
                                           -0.0017  0.0003 -0.0027  0.0003 -0.0111
                                           -0.0026 -0.0078  0.0067  0.0041 -0.0019
                                            0.0023
   972. (0.01169) BD*( 1) C   9 - H  42  
                ( 37.18%)   0.6097* C   9 s( 34.33%)p 1.91( 65.61%)d 0.00(  0.05%)
                                                  f 0.00(  0.01%)
                                            0.0004 -0.5859  0.0051  0.0065 -0.0007
                                           -0.5271  0.0127  0.0107  0.5814 -0.0046
                                            0.0001 -0.1998  0.0014 -0.0009  0.0175
                                            0.0057 -0.0062 -0.0018  0.0071  0.0007
                                            0.0030  0.0005  0.0085  0.0007  0.0038
                                            0.0044 -0.0034  0.0008  0.0048  0.0045
                                            0.0040
                ( 62.82%)  -0.7926* H  42 s( 99.94%)p 0.00(  0.06%)
                                           -0.9997 -0.0016  0.0000  0.0148 -0.0172
                                            0.0059
   973. (0.03545) BD*( 1) C  10 - N  11  
                ( 62.00%)   0.7874* C  10 s( 28.60%)p 2.49( 71.35%)d 0.00(  0.04%)
                                                  f 0.00(  0.00%)
                                            0.0001 -0.5347 -0.0036 -0.0081  0.0021
                                            0.3179  0.0294  0.0044 -0.7410 -0.0201
                                           -0.0096  0.2488  0.0070  0.0039 -0.0035
                                            0.0117  0.0012 -0.0039  0.0028  0.0067
                                           -0.0041  0.0131  0.0058  0.0032  0.0016
                                            0.0011 -0.0014  0.0012  0.0000 -0.0012
                                           -0.0006
                ( 38.00%)  -0.6164* N  11 s( 31.08%)p 2.21( 68.67%)d 0.01(  0.23%)
                                                  f 0.00(  0.01%)
                                            0.0001 -0.5575  0.0031  0.0007 -0.0004
                                           -0.1740 -0.0173  0.0036  0.7741 -0.0139
                                           -0.0042 -0.2382  0.0034  0.0014  0.0223
                                           -0.0003 -0.0073  0.0002  0.0235 -0.0012
                                            0.0260  0.0023  0.0231 -0.0033  0.0057
                                            0.0015 -0.0051  0.0057  0.0029  0.0042
                                           -0.0043
   974. (0.01169) BD*( 1) C  10 - H  43  
                ( 37.18%)   0.6097* C  10 s( 34.33%)p 1.91( 65.61%)d 0.00(  0.05%)
                                                  f 0.00(  0.01%)
                                           -0.0004  0.5859 -0.0051 -0.0065  0.0007
                                           -0.5271  0.0127  0.0107 -0.5814  0.0046
                                           -0.0001  0.1998 -0.0014  0.0009  0.0175
                                            0.0057 -0.0062 -0.0018 -0.0071 -0.0007
                                           -0.0030 -0.0005 -0.0085 -0.0007 -0.0038
                                            0.0044  0.0034 -0.0008  0.0048  0.0045
                                           -0.0040
                ( 62.82%)  -0.7926* H  43 s( 99.94%)p 0.00(  0.06%)
                                            0.9997  0.0016 -0.0000  0.0148  0.0172
                                           -0.0059
   975. (0.04036) BD*( 1) N  11 - C  12  
                ( 36.61%)   0.6050* N  11 s( 33.15%)p 2.01( 66.72%)d 0.00(  0.11%)
                                                  f 0.00(  0.02%)
                                           -0.0001  0.5757  0.0068  0.0012 -0.0006
                                           -0.7843 -0.0146  0.0088  0.2166 -0.0006
                                           -0.0020 -0.0699  0.0001  0.0009 -0.0132
                                           -0.0008  0.0044  0.0003 -0.0013  0.0009
                                            0.0247  0.0013 -0.0162  0.0007  0.0020
                                            0.0082 -0.0022 -0.0012  0.0017 -0.0067
                                            0.0057
                ( 63.39%)  -0.7962* C  12 s( 22.24%)p 3.49( 77.72%)d 0.00(  0.03%)
                                                  f 0.00(  0.01%)
                                           -0.0001  0.4712  0.0170  0.0100 -0.0009
                                            0.8339  0.0149  0.0116 -0.2726 -0.0052
                                           -0.0052  0.0843  0.0027  0.0002 -0.0005
                                           -0.0080 -0.0002  0.0018 -0.0009 -0.0013
                                            0.0056  0.0116 -0.0027 -0.0085  0.0025
                                           -0.0007 -0.0052  0.0013 -0.0005 -0.0049
                                            0.0025
   976. (0.02845) BD*( 1) N  11 - C  19  
                ( 34.61%)   0.5883* N  11 s( 35.55%)p 1.81( 64.23%)d 0.01(  0.21%)
                                                  f 0.00(  0.01%)
                                            0.0001 -0.5962  0.0082  0.0009 -0.0002
                                           -0.5938 -0.0102  0.0080 -0.5117  0.0159
                                            0.0031  0.1651 -0.0053 -0.0007 -0.0307
                                           -0.0019  0.0092  0.0007  0.0106 -0.0017
                                           -0.0161  0.0017  0.0267 -0.0036 -0.0031
                                            0.0053  0.0033  0.0001  0.0041  0.0030
                                           -0.0061
                ( 65.39%)  -0.8086* C  19 s( 27.64%)p 2.62( 72.31%)d 0.00(  0.05%)
                                                  f 0.00(  0.00%)
                                            0.0004 -0.5232 -0.0513 -0.0036  0.0001
                                            0.7059  0.0330  0.0162  0.4533  0.0078
                                            0.0050 -0.1338  0.0003 -0.0028  0.0136
                                           -0.0121 -0.0030  0.0034  0.0058  0.0021
                                            0.0072 -0.0038  0.0058  0.0058 -0.0002
                                            0.0038  0.0002 -0.0003  0.0031  0.0020
                                            0.0007
   977. (0.03763) BD*( 1) C  12 - C  13  
                ( 49.36%)   0.7025* C  12 s( 27.82%)p 2.59( 72.11%)d 0.00(  0.06%)
                                                  f 0.00(  0.01%)
                                            0.0001 -0.5275 -0.0031 -0.0036 -0.0003
                                            0.3657 -0.0002  0.0055  0.4080 -0.0090
                                           -0.0023  0.6486 -0.0039  0.0071 -0.0075
                                           -0.0000 -0.0126 -0.0014 -0.0172  0.0003
                                            0.0035  0.0000 -0.0094 -0.0016 -0.0014
                                            0.0047  0.0025 -0.0031  0.0008 -0.0015
                                            0.0034
                ( 50.64%)  -0.7116* C  13 s( 26.32%)p 2.79( 73.55%)d 0.00(  0.12%)
                                                  f 0.00(  0.01%)
                                           -0.0002 -0.5130 -0.0040  0.0097 -0.0001
                                           -0.3997  0.0035  0.0041 -0.3303 -0.0036
                                            0.0028 -0.6830  0.0035  0.0062 -0.0118
                                            0.0000 -0.0193 -0.0036 -0.0186 -0.0033
                                           -0.0015 -0.0002 -0.0166 -0.0007  0.0008
                                           -0.0072 -0.0052  0.0009 -0.0035 -0.0004
                                           -0.0035
   978. (0.03452) BD*( 1) C  12 - C  16  
                ( 49.37%)   0.7027* C  12 s( 27.90%)p 2.58( 72.03%)d 0.00(  0.06%)
                                                  f 0.00(  0.01%)
                                            0.0001 -0.5282 -0.0013 -0.0040 -0.0002
                                            0.4105 -0.0022  0.0031  0.1158 -0.0051
                                           -0.0003 -0.7337  0.0060 -0.0052  0.0011
                                           -0.0008  0.0158  0.0021  0.0035  0.0003
                                           -0.0047  0.0007 -0.0161 -0.0010 -0.0010
                                            0.0055  0.0020 -0.0020  0.0024 -0.0019
                                            0.0044
                ( 50.63%)  -0.7115* C  16 s( 26.18%)p 2.82( 73.69%)d 0.00(  0.12%)
                                                  f 0.00(  0.01%)
                                           -0.0002 -0.5115 -0.0047  0.0096  0.0000
                                           -0.4128  0.0020  0.0044 -0.0707  0.0007
                                            0.0011  0.7493 -0.0032 -0.0064 -0.0008
                                           -0.0008  0.0241  0.0035  0.0002  0.0025
                                           -0.0098  0.0015 -0.0221 -0.0021  0.0025
                                           -0.0081 -0.0022  0.0036 -0.0011  0.0012
                                           -0.0031
   979. (0.02575) BD*( 1) C  12 - H  44  
                ( 37.71%)   0.6141* C  12 s( 22.06%)p 3.53( 77.85%)d 0.00(  0.08%)
                                                  f 0.00(  0.01%)
                                            0.0002 -0.4693  0.0099  0.0153 -0.0001
                                           -0.0356  0.0038  0.0062 -0.8626  0.0066
                                            0.0148  0.1815  0.0003 -0.0026 -0.0067
                                            0.0006  0.0020 -0.0008  0.0099  0.0018
                                            0.0226  0.0040  0.0126  0.0028 -0.0008
                                            0.0061  0.0020 -0.0020  0.0016 -0.0018
                                            0.0039
                ( 62.29%)  -0.7892* H  44 s( 99.94%)p 0.00(  0.06%)
                                           -0.9997  0.0046 -0.0013  0.0011  0.0238
                                           -0.0048
   980. (0.01278) BD*( 1) C  13 - C  14  
                ( 49.14%)   0.7010* C  13 s( 27.02%)p 2.70( 72.92%)d 0.00(  0.06%)
                                                  f 0.00(  0.00%)
                                            0.0000 -0.5196  0.0145 -0.0029  0.0001
                                           -0.4445  0.0041  0.0016 -0.1365 -0.0044
                                           -0.0021  0.7160  0.0099  0.0093 -0.0023
                                            0.0004  0.0173  0.0047  0.0086  0.0005
                                           -0.0088 -0.0020 -0.0086 -0.0037  0.0001
                                           -0.0034  0.0004  0.0018 -0.0013 -0.0014
                                           -0.0037
                ( 50.86%)  -0.7131* C  14 s( 29.44%)p 2.39( 70.43%)d 0.00(  0.12%)
                                                  f 0.00(  0.01%)
                                           -0.0002 -0.5425 -0.0055  0.0044  0.0004
                                            0.4211  0.0056  0.0037  0.1258  0.0016
                                           -0.0038 -0.7148 -0.0031  0.0122 -0.0076
                                            0.0003  0.0236  0.0029  0.0103 -0.0010
                                           -0.0053 -0.0007 -0.0212 -0.0026 -0.0027
                                            0.0086  0.0055 -0.0016 -0.0010  0.0002
                                            0.0048
   981. (0.01701) BD*( 1) C  13 - C  15  
                ( 49.57%)   0.7041* C  13 s( 26.93%)p 2.71( 73.00%)d 0.00(  0.06%)
                                                  f 0.00(  0.00%)
                                           -0.0000 -0.5187  0.0144 -0.0036  0.0002
                                            0.1711  0.0098  0.0069  0.8294  0.0094
                                            0.0072 -0.1122  0.0034  0.0013 -0.0028
                                           -0.0028  0.0010 -0.0008  0.0090  0.0008
                                            0.0174  0.0049  0.0141  0.0030 -0.0002
                                           -0.0033 -0.0014  0.0002  0.0006 -0.0007
                                           -0.0044
                ( 50.43%)  -0.7101* C  15 s( 29.60%)p 2.37( 70.28%)d 0.00(  0.11%)
                                                  f 0.00(  0.01%)
                                           -0.0002 -0.5440 -0.0027  0.0053  0.0004
                                           -0.1845  0.0007  0.0104 -0.8148 -0.0049
                                            0.0075  0.0684  0.0021  0.0028 -0.0152
                                           -0.0010  0.0003  0.0001  0.0064 -0.0012
                                            0.0245  0.0038  0.0150  0.0012 -0.0021
                                            0.0065  0.0043 -0.0016  0.0024  0.0047
                                            0.0058
   982. (0.02244) BD*( 1) C  13 - H  45  
                ( 39.07%)   0.6251* C  13 s( 19.79%)p 4.05( 80.07%)d 0.01(  0.13%)
                                                  f 0.00(  0.01%)
                                           -0.0003  0.4442  0.0233  0.0026  0.0002
                                           -0.7816  0.0147  0.0038  0.4275 -0.0096
                                           -0.0044 -0.0821  0.0021 -0.0015 -0.0280
                                            0.0000 -0.0001  0.0018 -0.0010 -0.0008
                                            0.0137  0.0002 -0.0188  0.0004 -0.0001
                                            0.0044  0.0016 -0.0029  0.0010  0.0006
                                            0.0050
                ( 60.93%)  -0.7806* H  45 s( 99.96%)p 0.00(  0.04%)
                                            0.9998  0.0026  0.0006  0.0157 -0.0102
                                            0.0004
   983. (0.00614) BD*( 1) C  14 - H  46  
                ( 39.04%)   0.6248* C  14 s( 23.26%)p 3.29( 76.57%)d 0.01(  0.16%)
                                                  f 0.00(  0.01%)
                                           -0.0001  0.4823 -0.0002  0.0046 -0.0000
                                           -0.4444  0.0056 -0.0001 -0.3188  0.0040
                                            0.0003 -0.6830  0.0011 -0.0030  0.0132
                                           -0.0004  0.0314 -0.0013  0.0195 -0.0002
                                            0.0035  0.0000  0.0049  0.0033 -0.0009
                                           -0.0039 -0.0028 -0.0001 -0.0034 -0.0003
                                           -0.0056
                ( 60.96%)  -0.7808* H  46 s( 99.97%)p 0.00(  0.03%)
                                            0.9998  0.0010  0.0001  0.0083  0.0061
                                            0.0142
   984. (0.01050) BD*( 1) C  14 - H  47  
                ( 39.22%)   0.6263* C  14 s( 23.44%)p 3.26( 76.41%)d 0.01(  0.14%)
                                                  f 0.00(  0.01%)
                                            0.0000 -0.4841  0.0042  0.0010 -0.0002
                                           -0.7778 -0.0039 -0.0016  0.3982 -0.0057
                                            0.0053 -0.0216  0.0047  0.0058  0.0256
                                            0.0009 -0.0096  0.0016 -0.0001  0.0013
                                           -0.0154 -0.0022  0.0194  0.0011  0.0006
                                            0.0047  0.0007  0.0010  0.0021 -0.0006
                                            0.0069
                ( 60.78%)  -0.7796* H  47 s( 99.97%)p 0.00(  0.03%)
                                           -0.9998 -0.0024 -0.0002  0.0159 -0.0065
                                           -0.0012
   985. (0.00698) BD*( 1) C  14 - H  48  
                ( 39.04%)   0.6248* C  14 s( 23.80%)p 3.20( 76.05%)d 0.01(  0.15%)
                                                  f 0.00(  0.01%)
                                            0.0001 -0.4878 -0.0001 -0.0004 -0.0001
                                           -0.1354 -0.0045  0.0045 -0.8499  0.0031
                                           -0.0012  0.1402  0.0018  0.0064 -0.0074
                                           -0.0009 -0.0068  0.0028  0.0037  0.0012
                                            0.0302  0.0010  0.0204  0.0003 -0.0007
                                            0.0028  0.0042 -0.0015  0.0038  0.0024
                                            0.0069
                ( 60.96%)  -0.7808* H  48 s( 99.97%)p 0.00(  0.03%)
                                           -0.9998 -0.0014  0.0002  0.0040  0.0168
                                           -0.0048
   986. (0.01048) BD*( 1) C  15 - H  49  
                ( 39.23%)   0.6263* C  15 s( 23.59%)p 3.23( 76.26%)d 0.01(  0.14%)
                                                  f 0.00(  0.01%)
                                           -0.0000 -0.4857  0.0028  0.0006 -0.0003
                                           -0.7240  0.0021  0.0004  0.4882  0.0064
                                            0.0051  0.0098 -0.0020  0.0025  0.0292
                                            0.0008 -0.0001  0.0004 -0.0018  0.0007
                                           -0.0192  0.0008  0.0138  0.0026 -0.0013
                                            0.0066 -0.0016  0.0005  0.0007  0.0010
                                            0.0042
                ( 60.77%)  -0.7796* H  49 s( 99.97%)p 0.00(  0.03%)
                                           -0.9999 -0.0022 -0.0001  0.0130 -0.0100
                                            0.0004
   987. (0.00671) BD*( 1) C  15 - H  50  
                ( 38.87%)   0.6235* C  15 s( 23.00%)p 3.34( 76.83%)d 0.01(  0.16%)
                                                  f 0.00(  0.01%)
                                            0.0001 -0.4796  0.0002 -0.0041 -0.0000
                                            0.5065 -0.0025  0.0027  0.2608  0.0022
                                            0.0023  0.6661 -0.0071  0.0021 -0.0061
                                           -0.0013 -0.0277 -0.0006 -0.0123 -0.0009
                                           -0.0142  0.0018 -0.0203  0.0020 -0.0014
                                            0.0069  0.0008  0.0003  0.0022 -0.0002
                                            0.0032
                ( 61.13%)  -0.7818* H  50 s( 99.97%)p 0.00(  0.03%)
                                           -0.9999 -0.0011 -0.0001 -0.0096 -0.0058
                                           -0.0125
   988. (0.00682) BD*( 1) C  15 - H  51  
                ( 39.10%)   0.6253* C  15 s( 23.75%)p 3.20( 76.10%)d 0.01(  0.14%)
                                                  f 0.00(  0.01%)
                                            0.0001 -0.4874 -0.0011 -0.0014 -0.0001
                                            0.4285  0.0002  0.0026  0.1654  0.0044
                                            0.0027 -0.7416  0.0022  0.0003 -0.0001
                                           -0.0021  0.0231  0.0026  0.0054  0.0014
                                           -0.0138  0.0027 -0.0252  0.0003 -0.0009
                                            0.0075  0.0018 -0.0001 -0.0010 -0.0007
                                            0.0029
                ( 60.90%)  -0.7804* H  51 s( 99.97%)p 0.00(  0.03%)
                                           -0.9998 -0.0013  0.0000 -0.0091 -0.0041
                                            0.0144
   989. (0.01283) BD*( 1) C  16 - C  17  
                ( 49.12%)   0.7008* C  16 s( 26.92%)p 2.71( 73.01%)d 0.00(  0.06%)
                                                  f 0.00(  0.00%)
                                            0.0000 -0.5186  0.0146 -0.0035  0.0001
                                           -0.4074 -0.0005 -0.0005 -0.4262  0.0035
                                            0.0003 -0.6183 -0.0105 -0.0105 -0.0126
                                           -0.0015 -0.0162 -0.0024 -0.0131 -0.0034
                                            0.0031  0.0007 -0.0014 -0.0020  0.0012
                                           -0.0016 -0.0019  0.0026 -0.0010  0.0024
                                           -0.0038
                ( 50.88%)  -0.7133* C  17 s( 29.51%)p 2.38( 70.36%)d 0.00(  0.11%)
                                                  f 0.00(  0.01%)
                                           -0.0002 -0.5432  0.0008 -0.0038  0.0010
                                            0.3818  0.0030  0.0015  0.4226  0.0033
                                            0.0049  0.6157  0.0002 -0.0080 -0.0130
                                           -0.0012 -0.0199 -0.0013 -0.0204 -0.0030
                                           -0.0026  0.0014 -0.0119 -0.0017 -0.0016
                                            0.0084  0.0053 -0.0008  0.0038 -0.0014
                                            0.0049
   990. (0.01208) BD*( 1) C  16 - C  18  
                ( 49.18%)   0.7013* C  16 s( 26.60%)p 2.76( 73.34%)d 0.00(  0.06%)
                                                  f 0.00(  0.00%)
                                            0.0001 -0.5155  0.0157 -0.0025  0.0001
                                            0.8139  0.0085  0.0073 -0.2559  0.0045
                                            0.0013  0.0728 -0.0048 -0.0026  0.0123
                                            0.0028 -0.0077  0.0005  0.0057 -0.0005
                                           -0.0126 -0.0038  0.0122  0.0033  0.0019
                                           -0.0028 -0.0024  0.0009 -0.0014  0.0001
                                           -0.0045
                ( 50.82%)  -0.7129* C  18 s( 29.64%)p 2.37( 70.24%)d 0.00(  0.11%)
                                                  f 0.00(  0.01%)
                                           -0.0003 -0.5444 -0.0033  0.0049  0.0002
                                           -0.7941 -0.0046  0.0123  0.2633  0.0030
                                            0.0026 -0.0470 -0.0029 -0.0053  0.0148
                                            0.0026 -0.0037  0.0006  0.0006 -0.0001
                                           -0.0258 -0.0022  0.0147  0.0018 -0.0020
                                            0.0072  0.0010 -0.0039  0.0019 -0.0056
                                            0.0052
   991. (0.02714) BD*( 1) C  16 - H  52  
                ( 39.38%)   0.6275* C  16 s( 20.37%)p 3.90( 79.49%)d 0.01(  0.13%)
                                                  f 0.00(  0.01%)
                                           -0.0001  0.4507  0.0233  0.0028  0.0002
                                           -0.0064 -0.0009 -0.0011 -0.8634  0.0134
                                            0.0050  0.2220 -0.0023  0.0010 -0.0030
                                            0.0013 -0.0000 -0.0003 -0.0125 -0.0012
                                           -0.0284 -0.0003 -0.0181  0.0017 -0.0018
                                            0.0030  0.0017 -0.0034  0.0018 -0.0009
                                            0.0045
                ( 60.62%)  -0.7786* H  52 s( 99.97%)p 0.00(  0.03%)
                                            0.9998  0.0034  0.0006 -0.0002  0.0181
                                           -0.0038
   992. (0.00681) BD*( 1) C  17 - H  53  
                ( 38.98%)   0.6243* C  17 s( 23.69%)p 3.22( 76.16%)d 0.01(  0.15%)
                                                  f 0.00(  0.01%)
                                            0.0001 -0.4867 -0.0047  0.0033 -0.0000
                                           -0.8261  0.0031 -0.0049  0.2637 -0.0048
                                            0.0001 -0.0972 -0.0007 -0.0079  0.0221
                                            0.0000  0.0041 -0.0030  0.0081 -0.0027
                                           -0.0238 -0.0014  0.0181  0.0014 -0.0010
                                            0.0052 -0.0003 -0.0042 -0.0013 -0.0029
                                            0.0055
                ( 61.02%)  -0.7812* H  53 s( 99.97%)p 0.00(  0.03%)
                                           -0.9999 -0.0014 -0.0000  0.0162 -0.0040
                                            0.0026
   993. (0.00579) BD*( 1) C  17 - H  54  
                ( 39.03%)   0.6248* C  17 s( 23.30%)p 3.29( 76.54%)d 0.01(  0.16%)
                                                  f 0.00(  0.01%)
                                            0.0001 -0.4826 -0.0077  0.0023 -0.0004
                                            0.4123 -0.0075  0.0022  0.1190 -0.0030
                                            0.0006 -0.7623  0.0042 -0.0090 -0.0028
                                           -0.0004  0.0315 -0.0010  0.0150 -0.0020
                                           -0.0084  0.0007 -0.0158 -0.0028 -0.0029
                                            0.0050  0.0007 -0.0032 -0.0014 -0.0010
                                            0.0047
                ( 60.97%)  -0.7808* H  54 s( 99.97%)p 0.00(  0.03%)
                                           -0.9998 -0.0009 -0.0001 -0.0078 -0.0017
                                            0.0156
   994. (0.01019) BD*( 1) C  17 - H  55  
                ( 39.25%)   0.6265* C  17 s( 23.45%)p 3.26( 76.41%)d 0.01(  0.14%)
                                                  f 0.00(  0.00%)
                                            0.0000 -0.4841  0.0116 -0.0028 -0.0005
                                           -0.0087 -0.0062 -0.0012 -0.8577 -0.0092
                                            0.0120  0.1675 -0.0077 -0.0041  0.0002
                                           -0.0003 -0.0023  0.0018  0.0135  0.0005
                                            0.0313  0.0007  0.0138  0.0019 -0.0018
                                            0.0028  0.0027 -0.0028  0.0008 -0.0009
                                            0.0043
                ( 60.75%)  -0.7794* H  55 s( 99.98%)p 0.00(  0.02%)
                                           -0.9999 -0.0023 -0.0004  0.0007  0.0131
                                           -0.0009
   995. (0.00987) BD*( 1) C  18 - H  56  
                ( 39.20%)   0.6261* C  18 s( 23.31%)p 3.28( 76.54%)d 0.01(  0.14%)
                                                  f 0.00(  0.01%)
                                            0.0000 -0.4828  0.0039 -0.0005 -0.0002
                                            0.0393  0.0072  0.0029 -0.8266 -0.0000
                                           -0.0039  0.2839  0.0004 -0.0005 -0.0048
                                            0.0021  0.0009 -0.0002  0.0179  0.0013
                                            0.0310  0.0002  0.0091  0.0013 -0.0045
                                            0.0025  0.0027 -0.0039  0.0009 -0.0010
                                            0.0030
                ( 60.80%)  -0.7798* H  56 s( 99.97%)p 0.00(  0.03%)
                                           -0.9998 -0.0020  0.0001 -0.0024  0.0164
                                           -0.0051
   996. (0.00671) BD*( 1) C  18 - H  57  
                ( 38.91%)   0.6238* C  18 s( 23.21%)p 3.30( 76.63%)d 0.01(  0.15%)
                                                  f 0.00(  0.01%)
                                            0.0001 -0.4817 -0.0003 -0.0030  0.0000
                                            0.3859  0.0025  0.0027  0.0300 -0.0015
                                            0.0008 -0.7851  0.0072 -0.0026 -0.0056
                                            0.0015  0.0214  0.0014  0.0033 -0.0005
                                            0.0011 -0.0020 -0.0318  0.0012 -0.0038
                                            0.0042  0.0023 -0.0041  0.0023  0.0003
                                            0.0018
                ( 61.09%)  -0.7816* H  57 s( 99.97%)p 0.00(  0.03%)
                                           -0.9998 -0.0012 -0.0001 -0.0084 -0.0003
                                            0.0152
   997. (0.00635) BD*( 1) C  18 - H  58  
                ( 39.03%)   0.6248* C  18 s( 23.79%)p 3.20( 76.06%)d 0.01(  0.14%)
                                                  f 0.00(  0.01%)
                                            0.0001 -0.4877 -0.0011 -0.0009 -0.0001
                                            0.4653  0.0038  0.0031  0.4949 -0.0038
                                            0.0014  0.5470 -0.0017 -0.0014 -0.0214
                                            0.0006 -0.0163 -0.0023 -0.0222 -0.0013
                                            0.0098 -0.0024 -0.0096  0.0025 -0.0046
                                            0.0033  0.0026 -0.0021  0.0040  0.0000
                                            0.0028
                ( 60.97%)  -0.7808* H  58 s( 99.97%)p 0.00(  0.03%)
                                           -0.9998 -0.0011  0.0001 -0.0103 -0.0091
                                           -0.0110
   998. (0.01351) BD*( 1) C  19 -Ni  20  
                ( 22.96%)   0.4791* C  19 s( 45.06%)p 1.22( 54.93%)d 0.00(  0.01%)
                                                  f 0.00(  0.00%)
                                           -0.0009 -0.6703  0.0352  0.0033 -0.0001
                                           -0.0000 -0.0000 -0.0000 -0.7148  0.0475
                                            0.0047  0.1894 -0.0137  0.0009 -0.0001
                                           -0.0001 -0.0003 -0.0005 -0.0013 -0.0008
                                            0.0094  0.0013  0.0066 -0.0035 -0.0009
                                            0.0000  0.0024 -0.0009 -0.0000  0.0000
                                            0.0047
                ( 77.04%)  -0.8777*Ni  20 s( 23.50%)p 3.11( 73.02%)d 0.15(  3.48%)
                                                  f 0.00(  0.00%)
                                            0.0007 -0.4845  0.0176 -0.0002 -0.0018
                                           -0.0019  0.0000  0.0000 -0.0000  0.0000
                                           -0.0000  0.0009  0.8490 -0.0241  0.0015
                                           -0.0000  0.0004 -0.0939  0.0063 -0.0004
                                           -0.0000 -0.0000  0.0000 -0.0000 -0.0000
                                           -0.0000  0.0000  0.0434  0.0066 -0.0009
                                            0.1580 -0.0018  0.0010  0.0887  0.0003
                                           -0.0030  0.0007  0.0000 -0.0009  0.0009
                                           -0.0000  0.0000 -0.0019
   999. (0.00912) BD*( 1)Ni  20 - C  21  
                ( 74.64%)   0.8640*Ni  20 s( 25.37%)p 2.82( 71.50%)d 0.12(  3.12%)
                                                  f 0.00(  0.00%)
                                           -0.0033  0.5036  0.0064  0.0005 -0.0019
                                            0.0002  0.0000  0.0001 -0.0000 -0.0000
                                            0.0000 -0.0004  0.3539  0.0046  0.0035
                                           -0.0001  0.0003  0.7679  0.0053  0.0002
                                            0.0002  0.0000  0.0000  0.0000  0.0000
                                           -0.0000 -0.0000  0.0983  0.0151  0.0039
                                           -0.0099  0.0009 -0.0017  0.1453  0.0108
                                            0.0010  0.0031  0.0000  0.0038 -0.0008
                                            0.0000 -0.0000 -0.0001
                ( 25.36%)  -0.5036* C  21 s( 69.12%)p 0.45( 30.82%)d 0.00(  0.04%)
                                                  f 0.00(  0.02%)
                                            0.0011  0.8296  0.0544 -0.0025 -0.0003
                                           -0.0000  0.0000  0.0000 -0.2343  0.0098
                                            0.0058 -0.5021  0.0310  0.0083  0.0000
                                            0.0000  0.0000  0.0000  0.0003  0.0129
                                            0.0003 -0.0026  0.0000  0.0148 -0.0075
                                           -0.0000 -0.0118  0.0044 -0.0000  0.0000
                                            0.0007
  1000. (0.01010) BD*( 1)Ni  20 - C  23  
                ( 74.94%)   0.8657*Ni  20 s( 25.53%)p 2.81( 71.61%)d 0.11(  2.86%)
                                                  f 0.00(  0.00%)
                                           -0.0029  0.5052  0.0016  0.0001 -0.0000
                                           -0.0008  0.0005  0.6932  0.0045  0.0013
                                            0.0000 -0.0007  0.2275  0.0079  0.0019
                                           -0.0000  0.0001 -0.4286 -0.0044 -0.0015
                                           -0.0000  0.0546  0.0156  0.0033 -0.1266
                                           -0.0115 -0.0007 -0.0280 -0.0123 -0.0002
                                            0.0892  0.0078 -0.0008 -0.0140 -0.0022
                                            0.0009  0.0017  0.0010  0.0002 -0.0027
                                           -0.0022  0.0016  0.0020
                ( 25.06%)  -0.5006* C  23 s( 69.45%)p 0.44( 30.50%)d 0.00(  0.04%)
                                                  f 0.00(  0.02%)
                                            0.0011  0.8316  0.0548 -0.0015 -0.0003
                                           -0.4132  0.0233  0.0069 -0.2206  0.0102
                                            0.0035  0.2907 -0.0179 -0.0046 -0.0007
                                            0.0086  0.0001 -0.0133  0.0004 -0.0057
                                            0.0008  0.0086  0.0001 -0.0016 -0.0061
                                           -0.0023 -0.0010  0.0072  0.0074 -0.0027
                                           -0.0066
  1001. (0.01010) BD*( 1)Ni  20 - C  25  
                ( 74.94%)   0.8657*Ni  20 s( 25.53%)p 2.81( 71.61%)d 0.11(  2.86%)
                                                  f 0.00(  0.00%)
                                           -0.0029  0.5052  0.0016  0.0001 -0.0000
                                           -0.0008 -0.0005 -0.6933 -0.0045 -0.0013
                                           -0.0000 -0.0007  0.2275  0.0079  0.0019
                                           -0.0000  0.0001 -0.4286 -0.0044 -0.0015
                                           -0.0000 -0.0546 -0.0157 -0.0033  0.1266
                                            0.0115  0.0007 -0.0280 -0.0123 -0.0002
                                            0.0892  0.0078 -0.0008 -0.0140 -0.0022
                                            0.0009  0.0017 -0.0010  0.0002 -0.0027
                                            0.0022 -0.0016  0.0020
                ( 25.06%)  -0.5006* C  25 s( 69.45%)p 0.44( 30.50%)d 0.00(  0.04%)
                                                  f 0.00(  0.02%)
                                            0.0011  0.8316  0.0548 -0.0015 -0.0003
                                            0.4132 -0.0234 -0.0069 -0.2206  0.0102
                                            0.0035  0.2907 -0.0179 -0.0046  0.0007
                                           -0.0086 -0.0001  0.0133  0.0004 -0.0057
                                            0.0008  0.0086  0.0001 -0.0016 -0.0061
                                            0.0023 -0.0010  0.0072 -0.0074  0.0027
                                           -0.0066
  1002. (0.01390) BD*( 1) C  21 - O  22  
                ( 70.05%)   0.8369* C  21 s( 33.83%)p 1.95( 66.03%)d 0.00(  0.11%)
                                                  f 0.00(  0.03%)
                                           -0.0002  0.5489 -0.1923  0.0059  0.0012
                                            0.0000  0.0000  0.0000  0.2565  0.0252
                                            0.0025  0.7689  0.0516  0.0025  0.0000
                                           -0.0000  0.0000 -0.0000  0.0150 -0.0126
                                           -0.0026  0.0024  0.0227 -0.0130  0.0080
                                            0.0000  0.0134 -0.0052  0.0000 -0.0000
                                           -0.0008
                ( 29.95%)  -0.5473* O  22 s( 46.45%)p 1.14( 52.83%)d 0.01(  0.69%)
                                                  f 0.00(  0.02%)
                                            0.0000  0.6815 -0.0111  0.0004  0.0006
                                            0.0000 -0.0000  0.0000 -0.3844  0.0059
                                            0.0031 -0.6167  0.0111  0.0052  0.0000
                                           -0.0000  0.0000  0.0000  0.0587  0.0009
                                           -0.0150 -0.0002  0.0571  0.0010 -0.0065
                                           -0.0000 -0.0124  0.0053 -0.0000  0.0000
                                            0.0011
  1003. (0.15014) BD*( 2) C  21 - O  22  
                ( 76.31%)   0.8736* C  21 s(  0.29%)p99.99( 99.49%)d 0.73(  0.21%)
                                                  f 0.00(  0.00%)
                                           -0.0001  0.0511 -0.0180  0.0020  0.0002
                                            0.0001  0.0000  0.0000  0.9330  0.0074
                                            0.0081 -0.3526  0.0041 -0.0030  0.0000
                                            0.0000  0.0000 -0.0000  0.0311  0.0001
                                           -0.0181 -0.0008 -0.0289 -0.0022  0.0031
                                           -0.0000  0.0007  0.0009 -0.0000  0.0000
                                            0.0005
                ( 23.69%)  -0.4867* O  22 s(  0.38%)p99.99( 99.15%)d 1.20(  0.45%)
                                                  f 0.06(  0.02%)
                                            0.0000  0.0614 -0.0019  0.0003  0.0001
                                            0.0001 -0.0000  0.0000  0.8742 -0.0042
                                            0.0001 -0.4766  0.0035  0.0003 -0.0000
                                            0.0000 -0.0000  0.0000 -0.0382  0.0003
                                            0.0244 -0.0002  0.0497 -0.0002 -0.0126
                                            0.0000  0.0033 -0.0068  0.0000 -0.0000
                                           -0.0022
  1004. (0.14633) BD*( 3) C  21 - O  22  
                ( 76.26%)   0.8732* C  21 s(  0.00%)p 1.00( 99.78%)d 0.00(  0.21%)
                                                  f 0.00(  0.00%)
                                           -0.0000 -0.0000  0.0000 -0.0000 -0.0000
                                            0.9989  0.0035  0.0074 -0.0001 -0.0000
                                           -0.0000  0.0000 -0.0000  0.0000  0.0199
                                            0.0037  0.0417  0.0005 -0.0000  0.0000
                                            0.0000  0.0000  0.0000  0.0000 -0.0000
                                           -0.0020 -0.0000  0.0000 -0.0019  0.0011
                                            0.0000
                ( 23.74%)  -0.4873* O  22 s(  0.00%)p 1.00( 99.53%)d 0.00(  0.45%)
                                                  f 0.00(  0.02%)
                                           -0.0000 -0.0000  0.0000  0.0000 -0.0000
                                            0.9976 -0.0054 -0.0003 -0.0001  0.0000
                                           -0.0000  0.0001 -0.0000 -0.0000 -0.0282
                                            0.0001 -0.0608  0.0004  0.0000 -0.0000
                                           -0.0000  0.0000 -0.0000 -0.0000  0.0000
                                            0.0115 -0.0000  0.0000  0.0090 -0.0025
                                            0.0000
  1005. (0.02626) BD*( 1) C  23 - O  24  
                ( 70.49%)   0.8396* C  23 s( 31.46%)p 2.17( 68.40%)d 0.00(  0.12%)
                                                  f 0.00(  0.03%)
                                            0.0002 -0.5281  0.1890 -0.0035 -0.0011
                                           -0.6130 -0.0382 -0.0012 -0.0801 -0.0222
                                           -0.0036  0.5468  0.0285  0.0061 -0.0065
                                            0.0078  0.0235 -0.0117  0.0061 -0.0083
                                           -0.0140  0.0067 -0.0039 -0.0028 -0.0071
                                           -0.0025 -0.0015  0.0064  0.0098 -0.0008
                                           -0.0082
                ( 29.51%)  -0.5432* O  24 s( 43.71%)p 1.27( 55.59%)d 0.02(  0.67%)
                                                  f 0.00(  0.02%)
                                           -0.0000 -0.6611  0.0108 -0.0006 -0.0006
                                            0.4924 -0.0091 -0.0035  0.5097 -0.0064
                                           -0.0029 -0.2313  0.0058  0.0030 -0.0524
                                           -0.0006  0.0470  0.0010  0.0335  0.0007
                                           -0.0202 -0.0006  0.0148  0.0002  0.0066
                                            0.0005  0.0006 -0.0040 -0.0099 -0.0014
                                            0.0081
  1006. (0.14357) BD*( 2) C  23 - O  24  
                ( 75.97%)   0.8716* C  23 s(  1.02%)p97.28( 98.77%)d 0.21(  0.21%)
                                                  f 0.00(  0.00%)
                                           -0.0001  0.0949 -0.0339 -0.0008  0.0002
                                            0.5420  0.0114  0.0034  0.3382  0.0080
                                            0.0038  0.7611  0.0024  0.0064  0.0205
                                           -0.0004  0.0152  0.0019  0.0072  0.0029
                                            0.0113 -0.0015 -0.0354  0.0003  0.0007
                                            0.0024  0.0021 -0.0010 -0.0019  0.0009
                                            0.0001
                ( 24.03%)  -0.4902* O  24 s(  1.40%)p70.16( 98.12%)d 0.33(  0.46%)
                                                  f 0.02(  0.02%)
                                            0.0000  0.1182 -0.0020 -0.0002  0.0001
                                            0.3426 -0.0013  0.0006  0.2318 -0.0004
                                            0.0008  0.9000 -0.0064 -0.0006 -0.0186
                                            0.0003 -0.0362 -0.0001 -0.0179 -0.0001
                                           -0.0092  0.0001  0.0502 -0.0004  0.0019
                                           -0.0120 -0.0064  0.0023  0.0026 -0.0000
                                            0.0042
  1007. (0.16153) BD*( 3) C  23 - O  24  
                ( 76.09%)   0.8723* C  23 s(  1.45%)p67.66( 98.33%)d 0.14(  0.21%)
                                                  f 0.00(  0.00%)
                                           -0.0001  0.1137 -0.0400  0.0036  0.0002
                                           -0.3694  0.0134 -0.0019  0.9067  0.0103
                                            0.0053 -0.1560 -0.0092 -0.0008  0.0231
                                           -0.0024  0.0057  0.0024 -0.0241 -0.0002
                                           -0.0307 -0.0015  0.0022 -0.0002  0.0012
                                            0.0007 -0.0000 -0.0036 -0.0013  0.0024
                                            0.0022
                ( 23.91%)  -0.4890* O  24 s(  2.03%)p47.91( 97.48%)d 0.23(  0.46%)
                                                  f 0.01(  0.02%)
                                            0.0000  0.1426 -0.0038  0.0001  0.0002
                                           -0.6073  0.0056  0.0010  0.7783 -0.0026
                                            0.0003  0.0119 -0.0013 -0.0005 -0.0195
                                            0.0003 -0.0261 -0.0001  0.0251 -0.0002
                                            0.0538 -0.0003 -0.0053  0.0000 -0.0017
                                           -0.0003  0.0014  0.0098 -0.0037 -0.0103
                                           -0.0011
  1008. (0.02626) BD*( 1) C  25 - O  26  
                ( 70.49%)   0.8396* C  25 s( 31.46%)p 2.17( 68.40%)d 0.00(  0.12%)
                                                  f 0.00(  0.03%)
                                           -0.0002  0.5281 -0.1890  0.0035  0.0011
                                           -0.6130 -0.0382 -0.0012  0.0801  0.0222
                                            0.0036 -0.5468 -0.0285 -0.0061 -0.0065
                                            0.0078  0.0235 -0.0117 -0.0061  0.0083
                                            0.0140 -0.0067  0.0039  0.0028  0.0071
                                           -0.0025  0.0015 -0.0064  0.0098 -0.0008
                                            0.0082
                ( 29.51%)  -0.5432* O  26 s( 43.71%)p 1.27( 55.59%)d 0.02(  0.67%)
                                                  f 0.00(  0.02%)
                                            0.0000  0.6611 -0.0108  0.0006  0.0006
                                            0.4924 -0.0091 -0.0035 -0.5097  0.0064
                                            0.0029  0.2312 -0.0057 -0.0030 -0.0524
                                           -0.0006  0.0469  0.0010 -0.0335 -0.0007
                                            0.0202  0.0006 -0.0149 -0.0002 -0.0066
                                            0.0005 -0.0006  0.0040 -0.0099 -0.0014
                                           -0.0081
  1009. (0.14357) BD*( 2) C  25 - O  26  
                ( 75.97%)   0.8716* C  25 s(  1.02%)p97.24( 98.77%)d 0.21(  0.21%)
                                                  f 0.00(  0.00%)
                                           -0.0001  0.0949 -0.0339 -0.0008  0.0002
                                           -0.5419 -0.0114 -0.0034  0.3382  0.0080
                                            0.0038  0.7612  0.0024  0.0064 -0.0205
                                            0.0004 -0.0152 -0.0019  0.0072  0.0029
                                            0.0113 -0.0015 -0.0354  0.0003  0.0007
                                           -0.0024  0.0021 -0.0010  0.0019 -0.0009
                                            0.0001
                ( 24.03%)  -0.4902* O  26 s(  1.40%)p70.12( 98.12%)d 0.33(  0.46%)
                                                  f 0.02(  0.02%)
                                            0.0000  0.1183 -0.0020 -0.0002  0.0001
                                           -0.3424  0.0013 -0.0006  0.2318 -0.0004
                                            0.0008  0.9001 -0.0064 -0.0006  0.0186
                                           -0.0003  0.0362  0.0001 -0.0179 -0.0001
                                           -0.0092  0.0001  0.0502 -0.0004  0.0019
                                            0.0120 -0.0064  0.0023 -0.0026  0.0000
                                            0.0042
  1010. (0.16153) BD*( 3) C  25 - O  26  
                ( 76.09%)   0.8723* C  25 s(  1.45%)p67.66( 98.33%)d 0.14(  0.21%)
                                                  f 0.00(  0.00%)
                                           -0.0001  0.1137 -0.0400  0.0036  0.0002
                                            0.3694 -0.0134  0.0019  0.9067  0.0103
                                            0.0053 -0.1561 -0.0092 -0.0008 -0.0231
                                            0.0024 -0.0056 -0.0024 -0.0241 -0.0002
                                           -0.0307 -0.0015  0.0022 -0.0002  0.0012
                                           -0.0007 -0.0000 -0.0036  0.0013 -0.0024
                                            0.0022
                ( 23.91%)  -0.4890* O  26 s(  2.03%)p47.91( 97.48%)d 0.23(  0.46%)
                                                  f 0.01(  0.02%)
                                            0.0000  0.1426 -0.0038  0.0001  0.0002
                                            0.6074 -0.0056 -0.0010  0.7783 -0.0026
                                            0.0003  0.0118 -0.0013 -0.0005  0.0195
                                           -0.0003  0.0261  0.0001  0.0251 -0.0002
                                            0.0538 -0.0003 -0.0053  0.0000 -0.0017
                                            0.0003  0.0014  0.0098  0.0037  0.0103
                                           -0.0011


 NHO Directionality and "Bond Bending" (deviations from line of nuclear centers)

         [Thresholds for printing:  angular deviation  >  1.0 degree]
                                    hybrid p-character > 25.0%
                                    orbital occupancy  >  0.10e

                                Line of Centers        Hybrid 1              Hybrid 2
                                ---------------  -------------------   ------------------
                NBO               Theta   Phi    Theta   Phi    Dev    Theta   Phi    Dev
 ========================================================================================
     1. BD (   1) C   1 - C   2    85.8  197.7    86.2  198.9   1.2      --     --    --
     6. BD (   1) C   2 - C   4   150.6  169.1     --     --    --      30.2  345.0   2.2
    11. BD (   1) C   4 - C   5   141.8  315.8   140.2  313.1   2.4     37.3  139.8   2.6
    12. BD (   1) C   4 - N   8    84.8  196.0    84.5  198.2   2.3      --     --    --
    13. BD (   1) C   4 - H  34   101.6   93.2   102.0   91.8   1.5      --     --    --
    14. BD (   1) C   5 - C   6    84.0  282.5    82.9  282.5   1.1     95.0  102.1   1.1
    23. BD (   1) N   8 - C   9    72.8  252.4    73.3  256.0   3.5    107.0   65.5   6.6
    24. BD (   1) N   8 - C  19   100.4  143.0   101.6  140.4   2.9     81.5  328.3   5.5
    25. BD (   2) N   8 - C  19   100.4  143.0    17.4   90.3  89.6    164.6  269.2  91.1
    26. BD (   1) C   9 - C  10    90.0  180.0    87.1  189.3   9.7     87.1  350.7   9.7
    27. BD (   2) C   9 - C  10    90.0  180.0   161.3  270.7  90.2    161.3  269.3  90.2
    29. BD (   1) C  10 - N  11   107.2  107.6   107.0  114.5   6.6     73.3  283.9   3.5
    31. BD (   1) N  11 - C  12    95.2  164.0     --     --    --      84.5  341.8   2.3
    32. BD (   1) N  11 - C  19   100.4   37.0   101.6   39.6   2.9     81.3  211.7   5.4
    33. BD (   1) C  12 - C  13   141.8  224.2   140.2  226.9   2.4     37.3   40.2   2.6
    34. BD (   1) C  12 - C  16    29.4  190.9    30.2  195.0   2.2      --     --    --
    35. BD (   1) C  12 - H  44   101.6   86.8   102.0   88.3   1.5      --     --    --
    37. BD (   1) C  13 - C  15    84.0  257.5    82.9  257.5   1.1     95.0   78.0   1.1
    46. BD (   1) C  16 - C  18    94.2  162.3     --     --    --      86.2  341.1   1.2
    54. BD (   1) C  19 -Ni  20   100.3   90.0   104.9   90.0   4.7     84.0  270.0   4.2
    55. BD (   1)Ni  20 - C  21    24.1   90.0     --     --    --     154.7  270.0   1.2
    56. BD (   1)Ni  20 - C  23   121.4   21.6   120.5   18.7   2.7     58.4  208.4   5.8
    57. BD (   1)Ni  20 - C  25   121.4  158.4   120.5  161.3   2.7     58.4  331.6   5.8
    58. BD (   1) C  21 - O  22    24.9   90.0    19.1   90.0   5.8    148.0  270.0   7.1
    59. BD (   2) C  21 - O  22    24.9   90.0   110.3   90.0  85.5    118.5   90.0  86.4
    60. BD (   3) C  21 - O  22    24.9   90.0    90.0    0.0  90.0     90.0    0.0  90.0
    61. BD (   1) C  23 - O  24   121.8   28.1   131.3    9.2  17.9     72.2  226.2  21.5
    62. BD (   2) C  23 - O  24   121.8   28.1    40.5   32.1  81.4     24.8   34.2  82.9
    63. BD (   3) C  23 - O  24   121.8   28.1    99.5  111.2  79.2     89.4  127.7  81.5
    64. BD (   1) C  25 - O  26   121.8  151.9   131.3  170.8  17.9     72.2  313.8  21.5
    65. BD (   2) C  25 - O  26   121.8  151.9    40.5  147.8  81.4     24.8  145.8  82.9
    66. BD (   3) C  25 - O  26   121.8  151.9    99.5   68.8  79.2     89.4   52.2  81.5
    96. LP (   1) N  11             --     --     17.4   89.6   --       --     --    --
   102. LP (   1) O  22             --     --     24.9   90.0   --       --     --    --
   103. LP (   1) O  24             --     --    121.8   28.1   --       --     --    --
   104. LP (   1) O  26             --     --    121.8  151.9   --       --     --    --
   969. BD*(   2) N   8 - C  19   100.4  143.0    17.4   90.3  89.6    164.6  269.2  91.1
   971. BD*(   2) C   9 - C  10    90.0  180.0   161.3  270.7  90.2    161.3  269.3  90.2
  1003. BD*(   2) C  21 - O  22    24.9   90.0   110.3   90.0  85.5    118.5   90.0  86.4
  1004. BD*(   3) C  21 - O  22    24.9   90.0    90.0    0.0  90.0     90.0    0.0  90.0
  1006. BD*(   2) C  23 - O  24   121.8   28.1    40.5   32.1  81.4     24.8   34.2  82.9
  1007. BD*(   3) C  23 - O  24   121.8   28.1    99.5  111.2  79.2     89.4  127.7  81.5
  1009. BD*(   2) C  25 - O  26   121.8  151.9    40.5  147.8  81.4     24.8  145.8  82.9
  1010. BD*(   3) C  25 - O  26   121.8  151.9    99.5   68.8  79.2     89.4   52.2  81.5


 Second Order Perturbation Theory Analysis of Fock Matrix in NBO Basis

     Threshold for printing:   0.50 kcal/mol
                                                                              E(2)  E(j)-E(i) F(i,j)
         Donor NBO (i)                     Acceptor NBO (j)                 kcal/mol   a.u.    a.u. 
 ===================================================================================================

 within unit  1
   1. BD (   1) C   1 - C   2        /157. RY*(   1) C   3                    0.52    1.72    0.027
   1. BD (   1) C   1 - C   2        /185. RY*(   3) C   4                    0.80    1.94    0.035
   1. BD (   1) C   1 - C   2        /952. BD*(   1) C   3 - H  31            1.91    0.99    0.039
   1. BD (   1) C   1 - C   2        /956. BD*(   1) C   4 - N   8            3.48    0.93    0.051
   2. BD (   1) C   1 - H  27        /133. RY*(   3) C   2                    0.65    2.33    0.035
   2. BD (   1) C   1 - H  27        /950. BD*(   1) C   2 - C   4            3.89    0.83    0.051
   3. BD (   1) C   1 - H  28        /131. RY*(   1) C   2                    0.57    1.88    0.029
   3. BD (   1) C   1 - H  28        /951. BD*(   1) C   2 - H  30            2.90    0.84    0.044
   4. BD (   1) C   1 - H  29        /131. RY*(   1) C   2                    0.59    1.89    0.030
   4. BD (   1) C   1 - H  29        /133. RY*(   3) C   2                    0.51    2.33    0.031
   4. BD (   1) C   1 - H  29        /949. BD*(   1) C   2 - C   3            3.29    0.85    0.047
   5. BD (   1) C   2 - C   3        /185. RY*(   3) C   4                    0.53    1.94    0.029
   5. BD (   1) C   2 - C   3        /948. BD*(   1) C   1 - H  29            1.97    0.99    0.040
   5. BD (   1) C   2 - C   3        /955. BD*(   1) C   4 - C   5            3.12    0.94    0.049
   6. BD (   1) C   2 - C   4        /288. RY*(   2) N   8                    0.66    1.39    0.027
   6. BD (   1) C   2 - C   4        /946. BD*(   1) C   1 - H  27            1.57    0.98    0.035
   6. BD (   1) C   2 - C   4        /954. BD*(   1) C   3 - H  33            1.56    0.98    0.035
   6. BD (   1) C   2 - C   4        /959. BD*(   1) C   5 - C   7            2.05    0.96    0.040
   6. BD (   1) C   2 - C   4        /968. BD*(   1) N   8 - C  19            3.05    1.07    0.051
   6. BD (   1) C   2 - C   4        /969. BD*(   2) N   8 - C  19            1.13    0.59    0.026
   7. BD (   1) C   2 - H  30        /947. BD*(   1) C   1 - H  28            3.15    0.85    0.047
   7. BD (   1) C   2 - H  30        /953. BD*(   1) C   3 - H  32            3.18    0.86    0.047
   7. BD (   1) C   2 - H  30        /957. BD*(   1) C   4 - H  34            3.13    0.86    0.046
   8. BD (   1) C   3 - H  31        /131. RY*(   1) C   2                    0.66    1.88    0.031
   8. BD (   1) C   3 - H  31        /133. RY*(   3) C   2                    0.72    2.33    0.037
   8. BD (   1) C   3 - H  31        /945. BD*(   1) C   1 - C   2            3.45    0.85    0.048
   9. BD (   1) C   3 - H  32        /951. BD*(   1) C   2 - H  30            2.89    0.84    0.044
  10. BD (   1) C   3 - H  33        /132. RY*(   2) C   2                    0.53    2.01    0.029
  10. BD (   1) C   3 - H  33        /950. BD*(   1) C   2 - C   4            4.01    0.83    0.052
  11. BD (   1) C   4 - C   5        /132. RY*(   2) C   2                    0.50    2.12    0.029
  11. BD (   1) C   4 - C   5        /288. RY*(   2) N   8                    0.85    1.39    0.031
  11. BD (   1) C   4 - C   5        /949. BD*(   1) C   2 - C   3            2.07    0.95    0.040
  11. BD (   1) C   4 - C   5        /963. BD*(   1) C   6 - H  38            1.49    0.98    0.034
  11. BD (   1) C   4 - C   5        /965. BD*(   1) C   7 - H  40            1.58    0.98    0.035
  11. BD (   1) C   4 - C   5        /968. BD*(   1) N   8 - C  19            2.20    1.07    0.043
  11. BD (   1) C   4 - C   5        /969. BD*(   2) N   8 - C  19            1.47    0.59    0.030
  12. BD (   1) C   4 - N   8        /314. RY*(   2) C   9                    0.68    2.16    0.034
  12. BD (   1) C   4 - N   8        /573. RY*(   1) C  19                    1.11    4.80    0.065
  12. BD (   1) C   4 - N   8        /945. BD*(   1) C   1 - C   2            1.52    1.11    0.037
  12. BD (   1) C   4 - N   8        /960. BD*(   1) C   5 - H  35            0.88    1.11    0.028
  12. BD (   1) C   4 - N   8        /968. BD*(   1) N   8 - C  19            1.00    1.23    0.031
  12. BD (   1) C   4 - N   8        /970. BD*(   1) C   9 - C  10            1.09    1.32    0.034
  12. BD (   1) C   4 - N   8        /976. BD*(   1) N  11 - C  19            1.27    1.23    0.035
  13. BD (   1) C   4 - H  34        /210. RY*(   2) C   5                    0.72    2.08    0.035
  13. BD (   1) C   4 - H  34        /290. RY*(   4) N   8                    0.80    2.12    0.037
  13. BD (   1) C   4 - H  34        /951. BD*(   1) C   2 - H  30            3.24    0.84    0.047
  13. BD (   1) C   4 - H  34        /958. BD*(   1) C   5 - C   6            4.22    0.84    0.054
  13. BD (   1) C   4 - H  34        /967. BD*(   1) N   8 - C   9            6.28    0.92    0.068
  13. BD (   1) C   4 - H  34        /***. BD*(   3) C  23 - O  24            0.64    0.56    0.017
  14. BD (   1) C   5 - C   6        /183. RY*(   1) C   4                    0.51    1.92    0.028
  14. BD (   1) C   5 - C   6        /188. RY*(   6) C   4                    0.50    3.16    0.036
  14. BD (   1) C   5 - C   6        /261. RY*(   1) C   7                    0.50    1.70    0.026
  14. BD (   1) C   5 - C   6        /957. BD*(   1) C   4 - H  34            1.67    0.99    0.036
  14. BD (   1) C   5 - C   6        /966. BD*(   1) C   7 - H  41            1.82    1.00    0.038
  15. BD (   1) C   5 - C   7        /950. BD*(   1) C   2 - C   4            3.01    0.95    0.048
  15. BD (   1) C   5 - C   7        /962. BD*(   1) C   6 - H  37            2.00    0.99    0.040
  16. BD (   1) C   5 - H  35        /184. RY*(   2) C   4                    0.60    1.59    0.028
  16. BD (   1) C   5 - H  35        /956. BD*(   1) C   4 - N   8            5.79    0.80    0.061
  16. BD (   1) C   5 - H  35        /961. BD*(   1) C   6 - H  36            3.40    0.85    0.048
  16. BD (   1) C   5 - H  35        /964. BD*(   1) C   7 - H  39            3.42    0.85    0.049
  17. BD (   1) C   6 - H  36        /209. RY*(   1) C   5                    0.61    1.88    0.030
  17. BD (   1) C   6 - H  36        /960. BD*(   1) C   5 - H  35            2.73    0.85    0.043
  18. BD (   1) C   6 - H  37        /209. RY*(   1) C   5                    0.58    1.88    0.029
  18. BD (   1) C   6 - H  37        /211. RY*(   3) C   5                    0.79    2.38    0.039
  18. BD (   1) C   6 - H  37        /959. BD*(   1) C   5 - C   7            3.42    0.85    0.048
  19. BD (   1) C   6 - H  38        /210. RY*(   2) C   5                    0.84    2.08    0.038
  19. BD (   1) C   6 - H  38        /955. BD*(   1) C   4 - C   5            4.49    0.83    0.055
  20. BD (   1) C   7 - H  39        /212. RY*(   4) C   5                    0.58    2.91    0.037
  20. BD (   1) C   7 - H  39        /960. BD*(   1) C   5 - H  35            2.72    0.84    0.043
  21. BD (   1) C   7 - H  40        /211. RY*(   3) C   5                    0.70    2.38    0.037
  21. BD (   1) C   7 - H  40        /955. BD*(   1) C   4 - C   5            4.14    0.83    0.053
  22. BD (   1) C   7 - H  41        /209. RY*(   1) C   5                    0.69    1.87    0.032
  22. BD (   1) C   7 - H  41        /958. BD*(   1) C   5 - C   6            3.61    0.84    0.049
  23. BD (   1) N   8 - C   9        /183. RY*(   1) C   4                    1.54    2.12    0.051
  23. BD (   1) N   8 - C   9        /342. RY*(   4) C  10                    0.67    2.15    0.034
  23. BD (   1) N   8 - C   9        /573. RY*(   1) C  19                    1.05    4.85    0.064
  23. BD (   1) N   8 - C   9        /576. RY*(   4) C  19                    1.01    2.15    0.042
  23. BD (   1) N   8 - C   9        /578. RY*(   6) C  19                    0.81    3.51    0.048
  23. BD (   1) N   8 - C   9        /956. BD*(   1) C   4 - N   8            0.63    1.13    0.024
  23. BD (   1) N   8 - C   9        /957. BD*(   1) C   4 - H  34            0.84    1.19    0.028
  23. BD (   1) N   8 - C   9        /968. BD*(   1) N   8 - C  19            1.18    1.28    0.035
  23. BD (   1) N   8 - C   9        /970. BD*(   1) C   9 - C  10            0.60    1.37    0.026
  23. BD (   1) N   8 - C   9        /974. BD*(   1) C  10 - H  43            3.68    1.20    0.060
  23. BD (   1) N   8 - C   9        /975. BD*(   1) N  11 - C  12            0.83    1.13    0.028
  23. BD (   1) N   8 - C   9        /976. BD*(   1) N  11 - C  19            0.86    1.28    0.030
  23. BD (   1) N   8 - C   9        /998. BD*(   1) C  19 -Ni  20            1.22    1.35    0.036
  24. BD (   1) N   8 - C  19        /183. RY*(   1) C   4                    0.97    2.13    0.041
  24. BD (   1) N   8 - C  19        /315. RY*(   3) C   9                    1.05    2.26    0.044
  24. BD (   1) N   8 - C  19        /365. RY*(   1) N  11                    1.13    2.47    0.047
  24. BD (   1) N   8 - C  19        /950. BD*(   1) C   2 - C   4            0.79    1.16    0.027
  24. BD (   1) N   8 - C  19        /955. BD*(   1) C   4 - C   5            0.58    1.16    0.023
  24. BD (   1) N   8 - C  19        /956. BD*(   1) C   4 - N   8            1.15    1.14    0.033
  24. BD (   1) N   8 - C  19        /967. BD*(   1) N   8 - C   9            1.32    1.25    0.036
  24. BD (   1) N   8 - C  19        /972. BD*(   1) C   9 - H  42            2.74    1.22    0.052
  24. BD (   1) N   8 - C  19        /975. BD*(   1) N  11 - C  12            6.11    1.14    0.075
  24. BD (   1) N   8 - C  19        /998. BD*(   1) C  19 -Ni  20            1.39    1.36    0.039
  25. BD (   2) N   8 - C  19        /184. RY*(   2) C   4                    0.89    1.46    0.033
  25. BD (   2) N   8 - C  19        /313. RY*(   1) C   9                    1.80    1.10    0.041
  25. BD (   2) N   8 - C  19        /366. RY*(   2) N  11                    0.64    1.13    0.025
  25. BD (   2) N   8 - C  19        /950. BD*(   1) C   2 - C   4            3.48    0.68    0.044
  25. BD (   2) N   8 - C  19        /955. BD*(   1) C   4 - C   5            4.28    0.68    0.049
  25. BD (   2) N   8 - C  19        /971. BD*(   2) C   9 - C  10           20.73    0.36    0.080
  26. BD (   1) C   9 - C  10        /287. RY*(   1) N   8                    1.56    2.38    0.055
  26. BD (   1) C   9 - C  10        /365. RY*(   1) N  11                    1.56    2.38    0.055
  26. BD (   1) C   9 - C  10        /956. BD*(   1) C   4 - N   8            5.79    1.06    0.070
  26. BD (   1) C   9 - C  10        /972. BD*(   1) C   9 - H  42            0.98    1.14    0.030
  26. BD (   1) C   9 - C  10        /974. BD*(   1) C  10 - H  43            0.98    1.14    0.030
  26. BD (   1) C   9 - C  10        /975. BD*(   1) N  11 - C  12            5.79    1.06    0.070
  27. BD (   2) C   9 - C  10        /288. RY*(   2) N   8                    0.61    1.08    0.024
  27. BD (   2) C   9 - C  10        /366. RY*(   2) N  11                    0.63    1.08    0.024
  27. BD (   2) C   9 - C  10        /371. RY*(   7) N  11                    0.50    2.08    0.030
  27. BD (   2) C   9 - C  10        /969. BD*(   2) N   8 - C  19           11.79    0.28    0.056
  28. BD (   1) C   9 - H  42        /287. RY*(   1) N   8                    1.31    2.21    0.048
  28. BD (   1) C   9 - H  42        /340. RY*(   2) C  10                    1.31    1.96    0.045
  28. BD (   1) C   9 - H  42        /968. BD*(   1) N   8 - C  19            5.12    1.03    0.065
  28. BD (   1) C   9 - H  42        /970. BD*(   1) C   9 - C  10            0.77    1.12    0.026
  28. BD (   1) C   9 - H  42        /973. BD*(   1) C  10 - N  11            2.04    0.99    0.040
  29. BD (   1) C  10 - N  11        /316. RY*(   4) C   9                    0.67    2.15    0.034
  29. BD (   1) C  10 - N  11        /391. RY*(   1) C  12                    1.54    2.12    0.051
  29. BD (   1) C  10 - N  11        /573. RY*(   1) C  19                    1.05    4.85    0.064
  29. BD (   1) C  10 - N  11        /576. RY*(   4) C  19                    1.02    2.15    0.042
  29. BD (   1) C  10 - N  11        /578. RY*(   6) C  19                    0.79    3.51    0.047
  29. BD (   1) C  10 - N  11        /956. BD*(   1) C   4 - N   8            0.83    1.13    0.028
  29. BD (   1) C  10 - N  11        /968. BD*(   1) N   8 - C  19            0.86    1.28    0.030
  29. BD (   1) C  10 - N  11        /970. BD*(   1) C   9 - C  10            0.60    1.37    0.026
  29. BD (   1) C  10 - N  11        /972. BD*(   1) C   9 - H  42            3.68    1.20    0.060
  29. BD (   1) C  10 - N  11        /975. BD*(   1) N  11 - C  12            0.63    1.13    0.024
  29. BD (   1) C  10 - N  11        /976. BD*(   1) N  11 - C  19            1.18    1.28    0.035
  29. BD (   1) C  10 - N  11        /979. BD*(   1) C  12 - H  44            0.84    1.19    0.028
  29. BD (   1) C  10 - N  11        /998. BD*(   1) C  19 -Ni  20            1.22    1.35    0.036
  30. BD (   1) C  10 - H  43        /314. RY*(   2) C   9                    1.31    1.96    0.045
  30. BD (   1) C  10 - H  43        /365. RY*(   1) N  11                    1.31    2.21    0.048
  30. BD (   1) C  10 - H  43        /967. BD*(   1) N   8 - C   9            2.04    0.99    0.040
  30. BD (   1) C  10 - H  43        /970. BD*(   1) C   9 - C  10            0.77    1.12    0.026
  30. BD (   1) C  10 - H  43        /976. BD*(   1) N  11 - C  19            5.12    1.03    0.065
  31. BD (   1) N  11 - C  12        /340. RY*(   2) C  10                    0.68    2.16    0.034
  31. BD (   1) N  11 - C  12        /573. RY*(   1) C  19                    1.11    4.80    0.065
  31. BD (   1) N  11 - C  12        /968. BD*(   1) N   8 - C  19            1.27    1.23    0.035
  31. BD (   1) N  11 - C  12        /970. BD*(   1) C   9 - C  10            1.09    1.32    0.034
  31. BD (   1) N  11 - C  12        /976. BD*(   1) N  11 - C  19            1.00    1.23    0.031
  31. BD (   1) N  11 - C  12        /982. BD*(   1) C  13 - H  45            0.88    1.11    0.028
  31. BD (   1) N  11 - C  12        /990. BD*(   1) C  16 - C  18            1.52    1.11    0.037
  32. BD (   1) N  11 - C  19        /287. RY*(   1) N   8                    1.13    2.47    0.047
  32. BD (   1) N  11 - C  19        /341. RY*(   3) C  10                    1.05    2.26    0.044
  32. BD (   1) N  11 - C  19        /391. RY*(   1) C  12                    0.97    2.13    0.041
  32. BD (   1) N  11 - C  19        /956. BD*(   1) C   4 - N   8            6.11    1.14    0.075
  32. BD (   1) N  11 - C  19        /973. BD*(   1) C  10 - N  11            1.32    1.25    0.036
  32. BD (   1) N  11 - C  19        /974. BD*(   1) C  10 - H  43            2.74    1.22    0.052
  32. BD (   1) N  11 - C  19        /975. BD*(   1) N  11 - C  12            1.15    1.14    0.033
  32. BD (   1) N  11 - C  19        /977. BD*(   1) C  12 - C  13            0.57    1.16    0.023
  32. BD (   1) N  11 - C  19        /978. BD*(   1) C  12 - C  16            0.79    1.16    0.027
  32. BD (   1) N  11 - C  19        /998. BD*(   1) C  19 -Ni  20            1.39    1.36    0.039
  33. BD (   1) C  12 - C  13        /366. RY*(   2) N  11                    0.85    1.39    0.031
  33. BD (   1) C  12 - C  13        /496. RY*(   2) C  16                    0.50    2.12    0.029
  33. BD (   1) C  12 - C  13        /976. BD*(   1) N  11 - C  19            2.21    1.07    0.043
  33. BD (   1) C  12 - C  13        /983. BD*(   1) C  14 - H  46            1.58    0.98    0.035
  33. BD (   1) C  12 - C  13        /987. BD*(   1) C  15 - H  50            1.49    0.98    0.034
  33. BD (   1) C  12 - C  13        /989. BD*(   1) C  16 - C  17            2.07    0.95    0.040
  34. BD (   1) C  12 - C  16        /366. RY*(   2) N  11                    0.66    1.39    0.027
  34. BD (   1) C  12 - C  16        /976. BD*(   1) N  11 - C  19            3.04    1.07    0.051
  34. BD (   1) C  12 - C  16        /980. BD*(   1) C  13 - C  14            2.05    0.96    0.040
  34. BD (   1) C  12 - C  16        /993. BD*(   1) C  17 - H  54            1.56    0.98    0.035
  34. BD (   1) C  12 - C  16        /996. BD*(   1) C  18 - H  57            1.57    0.98    0.035
  35. BD (   1) C  12 - H  44        /368. RY*(   4) N  11                    0.80    2.12    0.037
  35. BD (   1) C  12 - H  44        /418. RY*(   2) C  13                    0.72    2.08    0.035
  35. BD (   1) C  12 - H  44        /973. BD*(   1) C  10 - N  11            6.28    0.92    0.068
  35. BD (   1) C  12 - H  44        /981. BD*(   1) C  13 - C  15            4.22    0.84    0.054
  35. BD (   1) C  12 - H  44        /991. BD*(   1) C  16 - H  52            3.24    0.84    0.047
  35. BD (   1) C  12 - H  44        /***. BD*(   3) C  25 - O  26            0.64    0.56    0.017
  36. BD (   1) C  13 - C  14        /978. BD*(   1) C  12 - C  16            3.01    0.95    0.048
  36. BD (   1) C  13 - C  14        /988. BD*(   1) C  15 - H  51            2.00    0.99    0.040
  37. BD (   1) C  13 - C  15        /391. RY*(   1) C  12                    0.51    1.92    0.028
  37. BD (   1) C  13 - C  15        /396. RY*(   6) C  12                    0.50    3.16    0.036
  37. BD (   1) C  13 - C  15        /443. RY*(   1) C  14                    0.50    1.70    0.026
  37. BD (   1) C  13 - C  15        /979. BD*(   1) C  12 - H  44            1.67    0.99    0.036
  37. BD (   1) C  13 - C  15        /985. BD*(   1) C  14 - H  48            1.82    1.00    0.038
  38. BD (   1) C  13 - H  45        /392. RY*(   2) C  12                    0.60    1.59    0.028
  38. BD (   1) C  13 - H  45        /975. BD*(   1) N  11 - C  12            5.79    0.80    0.061
  38. BD (   1) C  13 - H  45        /984. BD*(   1) C  14 - H  47            3.42    0.85    0.049
  38. BD (   1) C  13 - H  45        /986. BD*(   1) C  15 - H  49            3.40    0.85    0.048
  39. BD (   1) C  14 - H  46        /419. RY*(   3) C  13                    0.70    2.38    0.037
  39. BD (   1) C  14 - H  46        /977. BD*(   1) C  12 - C  13            4.14    0.83    0.053
  40. BD (   1) C  14 - H  47        /420. RY*(   4) C  13                    0.58    2.91    0.037
  40. BD (   1) C  14 - H  47        /982. BD*(   1) C  13 - H  45            2.72    0.84    0.043
  41. BD (   1) C  14 - H  48        /417. RY*(   1) C  13                    0.69    1.87    0.032
  41. BD (   1) C  14 - H  48        /981. BD*(   1) C  13 - C  15            3.61    0.84    0.049
  42. BD (   1) C  15 - H  49        /417. RY*(   1) C  13                    0.61    1.88    0.030
  42. BD (   1) C  15 - H  49        /982. BD*(   1) C  13 - H  45            2.73    0.85    0.043
  43. BD (   1) C  15 - H  50        /418. RY*(   2) C  13                    0.84    2.08    0.038
  43. BD (   1) C  15 - H  50        /977. BD*(   1) C  12 - C  13            4.49    0.83    0.055
  44. BD (   1) C  15 - H  51        /417. RY*(   1) C  13                    0.58    1.88    0.029
  44. BD (   1) C  15 - H  51        /419. RY*(   3) C  13                    0.79    2.38    0.039
  44. BD (   1) C  15 - H  51        /980. BD*(   1) C  13 - C  14            3.42    0.85    0.048
  45. BD (   1) C  16 - C  17        /393. RY*(   3) C  12                    0.53    1.94    0.029
  45. BD (   1) C  16 - C  17        /977. BD*(   1) C  12 - C  13            3.12    0.94    0.049
  45. BD (   1) C  16 - C  17        /997. BD*(   1) C  18 - H  58            1.97    0.99    0.040
  46. BD (   1) C  16 - C  18        /393. RY*(   3) C  12                    0.80    1.94    0.035
  46. BD (   1) C  16 - C  18        /521. RY*(   1) C  17                    0.52    1.72    0.027
  46. BD (   1) C  16 - C  18        /975. BD*(   1) N  11 - C  12            3.48    0.93    0.051
  46. BD (   1) C  16 - C  18        /992. BD*(   1) C  17 - H  53            1.91    0.99    0.039
  47. BD (   1) C  16 - H  52        /979. BD*(   1) C  12 - H  44            3.13    0.86    0.046
  47. BD (   1) C  16 - H  52        /994. BD*(   1) C  17 - H  55            3.18    0.86    0.047
  47. BD (   1) C  16 - H  52        /995. BD*(   1) C  18 - H  56            3.15    0.85    0.047
  48. BD (   1) C  17 - H  53        /495. RY*(   1) C  16                    0.66    1.88    0.031
  48. BD (   1) C  17 - H  53        /497. RY*(   3) C  16                    0.72    2.33    0.037
  48. BD (   1) C  17 - H  53        /990. BD*(   1) C  16 - C  18            3.45    0.85    0.048
  49. BD (   1) C  17 - H  54        /496. RY*(   2) C  16                    0.53    2.01    0.029
  49. BD (   1) C  17 - H  54        /978. BD*(   1) C  12 - C  16            4.01    0.83    0.052
  50. BD (   1) C  17 - H  55        /991. BD*(   1) C  16 - H  52            2.89    0.84    0.044
  51. BD (   1) C  18 - H  56        /495. RY*(   1) C  16                    0.57    1.88    0.029
  51. BD (   1) C  18 - H  56        /991. BD*(   1) C  16 - H  52            2.90    0.84    0.044
  52. BD (   1) C  18 - H  57        /497. RY*(   3) C  16                    0.65    2.33    0.035
  52. BD (   1) C  18 - H  57        /978. BD*(   1) C  12 - C  16            3.89    0.83    0.051
  53. BD (   1) C  18 - H  58        /495. RY*(   1) C  16                    0.59    1.89    0.030
  53. BD (   1) C  18 - H  58        /497. RY*(   3) C  16                    0.51    2.33    0.031
  53. BD (   1) C  18 - H  58        /989. BD*(   1) C  16 - C  17            3.29    0.85    0.047
  54. BD (   1) C  19 -Ni  20        /185. RY*(   3) C   4                    0.61    1.73    0.030
  54. BD (   1) C  19 -Ni  20        /287. RY*(   1) N   8                    4.94    2.05    0.093
  54. BD (   1) C  19 -Ni  20        /289. RY*(   3) N   8                    0.87    1.76    0.036
  54. BD (   1) C  19 -Ni  20        /319. RY*(   7) C   9                    0.64    2.38    0.036
  54. BD (   1) C  19 -Ni  20        /345. RY*(   7) C  10                    0.64    2.38    0.036
  54. BD (   1) C  19 -Ni  20        /365. RY*(   1) N  11                    4.94    2.05    0.093
  54. BD (   1) C  19 -Ni  20        /367. RY*(   3) N  11                    0.88    1.76    0.036
  54. BD (   1) C  19 -Ni  20        /393. RY*(   3) C  12                    0.61    1.73    0.030
  54. BD (   1) C  19 -Ni  20        /573. RY*(   1) C  19                    9.79    4.44    0.192
  54. BD (   1) C  19 -Ni  20        /574. RY*(   2) C  19                    0.90    1.92    0.038
  54. BD (   1) C  19 -Ni  20        /575. RY*(   3) C  19                    1.58    1.54    0.045
  54. BD (   1) C  19 -Ni  20        /581. RY*(   9) C  19                    6.67    3.89    0.149
  54. BD (   1) C  19 -Ni  20        /583. RY*(  11) C  19                    0.89    2.85    0.046
  54. BD (   1) C  19 -Ni  20        /584. RY*(  12) C  19                    0.53    3.30    0.039
  54. BD (   1) C  19 -Ni  20        /585. RY*(  13) C  19                    1.44    2.97    0.060
  54. BD (   1) C  19 -Ni  20        /586. RY*(  14) C  19                    3.14    3.90    0.102
  54. BD (   1) C  19 -Ni  20        /599. RY*(   1)Ni  20                    1.39    1.47    0.042
  54. BD (   1) C  19 -Ni  20        /602. RY*(   4)Ni  20                    1.63    1.17    0.040
  54. BD (   1) C  19 -Ni  20        /603. RY*(   5)Ni  20                    1.75    1.34    0.045
  54. BD (   1) C  19 -Ni  20        /605. RY*(   7)Ni  20                    4.83    2.41    0.100
  54. BD (   1) C  19 -Ni  20        /606. RY*(   8)Ni  20                    2.88    1.56    0.062
  54. BD (   1) C  19 -Ni  20        /607. RY*(   9)Ni  20                    7.50    8.48    0.233
  54. BD (   1) C  19 -Ni  20        /608. RY*(  10)Ni  20                    8.74   10.33    0.278
  54. BD (   1) C  19 -Ni  20        /609. RY*(  11)Ni  20                    2.09    2.27    0.064
  54. BD (   1) C  19 -Ni  20        /611. RY*(  13)Ni  20                    0.68    2.23    0.036
  54. BD (   1) C  19 -Ni  20        /612. RY*(  14)Ni  20                    1.22    4.26    0.066
  54. BD (   1) C  19 -Ni  20        /614. RY*(  16)Ni  20                    9.15   32.04    0.500
  54. BD (   1) C  19 -Ni  20        /629. RY*(   1) C  21                    0.58    1.40    0.026
  54. BD (   1) C  19 -Ni  20        /630. RY*(   2) C  21                    7.51    4.32    0.166
  54. BD (   1) C  19 -Ni  20        /640. RY*(  12) C  21                    1.11    3.22    0.055
  54. BD (   1) C  19 -Ni  20        /655. RY*(   1) O  22                    0.59    1.94    0.031
  54. BD (   1) C  19 -Ni  20        /658. RY*(   4) O  22                    0.70    1.41    0.029
  54. BD (   1) C  19 -Ni  20        /681. RY*(   1) C  23                    0.53    1.45    0.026
  54. BD (   1) C  19 -Ni  20        /682. RY*(   2) C  23                    7.78    4.75    0.177
  54. BD (   1) C  19 -Ni  20        /690. RY*(  10) C  23                    0.84    1.94    0.037
  54. BD (   1) C  19 -Ni  20        /691. RY*(  11) C  23                    0.78    2.20    0.038
  54. BD (   1) C  19 -Ni  20        /692. RY*(  12) C  23                    0.50    3.65    0.040
  54. BD (   1) C  19 -Ni  20        /707. RY*(   1) O  24                    0.67    1.93    0.033
  54. BD (   1) C  19 -Ni  20        /710. RY*(   4) O  24                    0.58    1.42    0.027
  54. BD (   1) C  19 -Ni  20        /733. RY*(   1) C  25                    0.53    1.45    0.026
  54. BD (   1) C  19 -Ni  20        /734. RY*(   2) C  25                    7.78    4.75    0.177
  54. BD (   1) C  19 -Ni  20        /742. RY*(  10) C  25                    0.84    1.94    0.037
  54. BD (   1) C  19 -Ni  20        /743. RY*(  11) C  25                    0.78    2.20    0.038
  54. BD (   1) C  19 -Ni  20        /744. RY*(  12) C  25                    0.50    3.65    0.040
  54. BD (   1) C  19 -Ni  20        /759. RY*(   1) O  26                    0.67    1.93    0.033
  54. BD (   1) C  19 -Ni  20        /762. RY*(   4) O  26                    0.58    1.42    0.027
  54. BD (   1) C  19 -Ni  20        /810. RY*(   1) H  32                    0.55    1.27    0.024
  54. BD (   1) C  19 -Ni  20        /820. RY*(   1) H  34                    1.53    1.60    0.046
  54. BD (   1) C  19 -Ni  20        /870. RY*(   1) H  44                    1.53    1.60    0.046
  54. BD (   1) C  19 -Ni  20        /925. RY*(   1) H  55                    0.55    1.27    0.024
  54. BD (   1) C  19 -Ni  20        /957. BD*(   1) C   4 - H  34            0.55    0.78    0.019
  54. BD (   1) C  19 -Ni  20        /967. BD*(   1) N   8 - C   9            7.30    0.82    0.071
  54. BD (   1) C  19 -Ni  20        /973. BD*(   1) C  10 - N  11            7.30    0.82    0.071
  54. BD (   1) C  19 -Ni  20        /979. BD*(   1) C  12 - H  44            0.55    0.78    0.019
  54. BD (   1) C  19 -Ni  20        /998. BD*(   1) C  19 -Ni  20            5.37    0.94    0.066
  54. BD (   1) C  19 -Ni  20        /999. BD*(   1)Ni  20 - C  21            2.97    1.01    0.050
  54. BD (   1) C  19 -Ni  20        /***. BD*(   1)Ni  20 - C  23            2.93    1.00    0.050
  54. BD (   1) C  19 -Ni  20        /***. BD*(   1)Ni  20 - C  25            2.93    1.00    0.050
  54. BD (   1) C  19 -Ni  20        /***. BD*(   1) C  21 - O  22            1.88    1.10    0.042
  54. BD (   1) C  19 -Ni  20        /***. BD*(   2) C  21 - O  22            4.43    0.44    0.040
  54. BD (   1) C  19 -Ni  20        /***. BD*(   1) C  23 - O  24            1.63    1.05    0.038
  54. BD (   1) C  19 -Ni  20        /***. BD*(   2) C  23 - O  24            0.60    0.46    0.015
  54. BD (   1) C  19 -Ni  20        /***. BD*(   3) C  23 - O  24            3.58    0.47    0.037
  54. BD (   1) C  19 -Ni  20        /***. BD*(   1) C  25 - O  26            1.63    1.05    0.038
  54. BD (   1) C  19 -Ni  20        /***. BD*(   2) C  25 - O  26            0.60    0.46    0.015
  54. BD (   1) C  19 -Ni  20        /***. BD*(   3) C  25 - O  26            3.58    0.47    0.037
  55. BD (   1)Ni  20 - C  21        /573. RY*(   1) C  19                    3.62    4.61    0.117
  55. BD (   1)Ni  20 - C  21        /575. RY*(   3) C  19                    1.46    1.71    0.045
  55. BD (   1)Ni  20 - C  21        /581. RY*(   9) C  19                    1.68    4.07    0.075
  55. BD (   1)Ni  20 - C  21        /586. RY*(  14) C  19                    1.39    4.07    0.068
  55. BD (   1)Ni  20 - C  21        /605. RY*(   7)Ni  20                    1.39    2.58    0.054
  55. BD (   1)Ni  20 - C  21        /606. RY*(   8)Ni  20                    0.75    1.73    0.033
  55. BD (   1)Ni  20 - C  21        /607. RY*(   9)Ni  20                    2.35    8.65    0.129
  55. BD (   1)Ni  20 - C  21        /608. RY*(  10)Ni  20                    3.41   10.50    0.172
  55. BD (   1)Ni  20 - C  21        /609. RY*(  11)Ni  20                    0.79    2.44    0.040
  55. BD (   1)Ni  20 - C  21        /612. RY*(  14)Ni  20                    0.73    4.43    0.052
  55. BD (   1)Ni  20 - C  21        /614. RY*(  16)Ni  20                    3.30   32.21    0.296
  55. BD (   1)Ni  20 - C  21        /630. RY*(   2) C  21                    3.65    4.49    0.116
  55. BD (   1)Ni  20 - C  21        /655. RY*(   1) O  22                    4.88    2.11    0.092
  55. BD (   1)Ni  20 - C  21        /682. RY*(   2) C  23                    2.98    4.92    0.110
  55. BD (   1)Ni  20 - C  21        /734. RY*(   2) C  25                    2.98    4.92    0.110
  55. BD (   1)Ni  20 - C  21        /820. RY*(   1) H  34                    0.57    1.77    0.029
  55. BD (   1)Ni  20 - C  21        /870. RY*(   1) H  44                    0.57    1.77    0.029
  55. BD (   1)Ni  20 - C  21        /969. BD*(   2) N   8 - C  19            1.48    0.56    0.029
  55. BD (   1)Ni  20 - C  21        /998. BD*(   1) C  19 -Ni  20            1.27    1.11    0.034
  55. BD (   1)Ni  20 - C  21        /999. BD*(   1)Ni  20 - C  21            1.86    1.18    0.042
  55. BD (   1)Ni  20 - C  21        /***. BD*(   1)Ni  20 - C  23            1.06    1.17    0.032
  55. BD (   1)Ni  20 - C  21        /***. BD*(   1)Ni  20 - C  25            1.06    1.17    0.032
  55. BD (   1)Ni  20 - C  21        /***. BD*(   1) C  21 - O  22            0.51    1.27    0.023
  55. BD (   1)Ni  20 - C  21        /***. BD*(   1) C  23 - O  24            2.21    1.22    0.047
  55. BD (   1)Ni  20 - C  21        /***. BD*(   2) C  23 - O  24            0.97    0.63    0.023
  55. BD (   1)Ni  20 - C  21        /***. BD*(   1) C  25 - O  26            2.21    1.22    0.047
  55. BD (   1)Ni  20 - C  21        /***. BD*(   2) C  25 - O  26            0.97    0.63    0.023
  56. BD (   1)Ni  20 - C  23        /573. RY*(   1) C  19                    3.38    4.61    0.113
  56. BD (   1)Ni  20 - C  23        /581. RY*(   9) C  19                    1.50    4.07    0.071
  56. BD (   1)Ni  20 - C  23        /586. RY*(  14) C  19                    1.09    4.07    0.060
  56. BD (   1)Ni  20 - C  23        /605. RY*(   7)Ni  20                    1.39    2.59    0.054
  56. BD (   1)Ni  20 - C  23        /606. RY*(   8)Ni  20                    0.86    1.74    0.035
  56. BD (   1)Ni  20 - C  23        /607. RY*(   9)Ni  20                    2.27    8.65    0.127
  56. BD (   1)Ni  20 - C  23        /608. RY*(  10)Ni  20                    3.13   10.50    0.164
  56. BD (   1)Ni  20 - C  23        /609. RY*(  11)Ni  20                    0.62    2.44    0.035
  56. BD (   1)Ni  20 - C  23        /612. RY*(  14)Ni  20                    0.66    4.43    0.049
  56. BD (   1)Ni  20 - C  23        /614. RY*(  16)Ni  20                    3.03   32.21    0.283
  56. BD (   1)Ni  20 - C  23        /630. RY*(   2) C  21                    2.76    4.49    0.101
  56. BD (   1)Ni  20 - C  23        /682. RY*(   2) C  23                    3.46    4.93    0.118
  56. BD (   1)Ni  20 - C  23        /692. RY*(  12) C  23                    0.75    3.82    0.048
  56. BD (   1)Ni  20 - C  23        /707. RY*(   1) O  24                    5.06    2.10    0.093
  56. BD (   1)Ni  20 - C  23        /708. RY*(   2) O  24                    0.52    1.40    0.024
  56. BD (   1)Ni  20 - C  23        /734. RY*(   2) C  25                    2.74    4.93    0.105
  56. BD (   1)Ni  20 - C  23        /820. RY*(   1) H  34                    0.93    1.77    0.037
  56. BD (   1)Ni  20 - C  23        /870. RY*(   1) H  44                    0.75    1.77    0.033
  56. BD (   1)Ni  20 - C  23        /957. BD*(   1) C   4 - H  34            0.93    0.95    0.027
  56. BD (   1)Ni  20 - C  23        /976. BD*(   1) N  11 - C  19            1.18    1.04    0.032
  56. BD (   1)Ni  20 - C  23        /998. BD*(   1) C  19 -Ni  20            1.48    1.12    0.037
  56. BD (   1)Ni  20 - C  23        /999. BD*(   1)Ni  20 - C  21            1.07    1.18    0.032
  56. BD (   1)Ni  20 - C  23        /***. BD*(   1)Ni  20 - C  23            1.74    1.17    0.041
  56. BD (   1)Ni  20 - C  23        /***. BD*(   1)Ni  20 - C  25            0.76    1.17    0.027
  56. BD (   1)Ni  20 - C  23        /***. BD*(   1) C  21 - O  22            1.61    1.27    0.041
  56. BD (   1)Ni  20 - C  23        /***. BD*(   3) C  21 - O  22            1.47    0.61    0.027
  56. BD (   1)Ni  20 - C  23        /***. BD*(   1) C  25 - O  26            1.74    1.22    0.041
  56. BD (   1)Ni  20 - C  23        /***. BD*(   2) C  25 - O  26            2.01    0.63    0.032
  56. BD (   1)Ni  20 - C  23        /***. BD*(   3) C  25 - O  26            0.57    0.64    0.018
  57. BD (   1)Ni  20 - C  25        /573. RY*(   1) C  19                    3.38    4.61    0.113
  57. BD (   1)Ni  20 - C  25        /581. RY*(   9) C  19                    1.50    4.07    0.071
  57. BD (   1)Ni  20 - C  25        /586. RY*(  14) C  19                    1.09    4.07    0.060
  57. BD (   1)Ni  20 - C  25        /605. RY*(   7)Ni  20                    1.39    2.59    0.054
  57. BD (   1)Ni  20 - C  25        /606. RY*(   8)Ni  20                    0.86    1.74    0.035
  57. BD (   1)Ni  20 - C  25        /607. RY*(   9)Ni  20                    2.27    8.65    0.127
  57. BD (   1)Ni  20 - C  25        /608. RY*(  10)Ni  20                    3.13   10.50    0.164
  57. BD (   1)Ni  20 - C  25        /609. RY*(  11)Ni  20                    0.62    2.44    0.035
  57. BD (   1)Ni  20 - C  25        /612. RY*(  14)Ni  20                    0.66    4.43    0.049
  57. BD (   1)Ni  20 - C  25        /614. RY*(  16)Ni  20                    3.03   32.21    0.283
  57. BD (   1)Ni  20 - C  25        /630. RY*(   2) C  21                    2.76    4.49    0.101
  57. BD (   1)Ni  20 - C  25        /682. RY*(   2) C  23                    2.74    4.93    0.105
  57. BD (   1)Ni  20 - C  25        /734. RY*(   2) C  25                    3.46    4.93    0.118
  57. BD (   1)Ni  20 - C  25        /744. RY*(  12) C  25                    0.75    3.82    0.048
  57. BD (   1)Ni  20 - C  25        /759. RY*(   1) O  26                    5.06    2.10    0.093
  57. BD (   1)Ni  20 - C  25        /760. RY*(   2) O  26                    0.52    1.40    0.024
  57. BD (   1)Ni  20 - C  25        /820. RY*(   1) H  34                    0.75    1.77    0.033
  57. BD (   1)Ni  20 - C  25        /870. RY*(   1) H  44                    0.93    1.77    0.037
  57. BD (   1)Ni  20 - C  25        /968. BD*(   1) N   8 - C  19            1.18    1.04    0.032
  57. BD (   1)Ni  20 - C  25        /979. BD*(   1) C  12 - H  44            0.93    0.95    0.027
  57. BD (   1)Ni  20 - C  25        /998. BD*(   1) C  19 -Ni  20            1.48    1.12    0.037
  57. BD (   1)Ni  20 - C  25        /999. BD*(   1)Ni  20 - C  21            1.07    1.18    0.032
  57. BD (   1)Ni  20 - C  25        /***. BD*(   1)Ni  20 - C  23            0.76    1.17    0.027
  57. BD (   1)Ni  20 - C  25        /***. BD*(   1)Ni  20 - C  25            1.74    1.17    0.041
  57. BD (   1)Ni  20 - C  25        /***. BD*(   1) C  21 - O  22            1.61    1.27    0.041
  57. BD (   1)Ni  20 - C  25        /***. BD*(   3) C  21 - O  22            1.47    0.61    0.027
  57. BD (   1)Ni  20 - C  25        /***. BD*(   1) C  23 - O  24            1.74    1.22    0.041
  57. BD (   1)Ni  20 - C  25        /***. BD*(   2) C  23 - O  24            2.01    0.63    0.032
  57. BD (   1)Ni  20 - C  25        /***. BD*(   3) C  23 - O  24            0.57    0.64    0.018
  58. BD (   1) C  21 - O  22        /629. RY*(   1) C  21                    1.23    2.23    0.047
  59. BD (   2) C  21 - O  22        /599. RY*(   1)Ni  20                    0.52    1.53    0.025
  60. BD (   3) C  21 - O  22        /600. RY*(   2)Ni  20                    0.58    1.36    0.025
  61. BD (   1) C  23 - O  24        /681. RY*(   1) C  23                    1.24    2.23    0.047
  64. BD (   1) C  25 - O  26        /733. RY*(   1) C  25                    1.24    2.23    0.047
  67. CR (   1) C   1                /132. RY*(   2) C   2                    0.78   11.59    0.085
  67. CR (   1) C   1                /136. RY*(   6) C   2                    0.57   11.83    0.073
  68. CR (   1) C   2                /108. RY*(   4) C   1                    0.53   11.26    0.069
  68. CR (   1) C   2                /184. RY*(   2) C   4                    0.81   11.21    0.085
  70. CR (   1) C   4                /967. BD*(   1) N   8 - C   9            0.76   10.55    0.081
  70. CR (   1) C   4                /968. BD*(   1) N   8 - C  19            1.13   10.60    0.098
  72. CR (   1) C   6                /211. RY*(   3) C   5                    0.60   11.95    0.076
  73. CR (   1) C   7                /210. RY*(   2) C   5                    0.84   11.65    0.089
  73. CR (   1) C   7                /855. RY*(   1) H  41                    0.53   11.61    0.070
  74. CR (   1) N   8                /185. RY*(   3) C   4                    0.64   15.59    0.089
  74. CR (   1) N   8                /315. RY*(   3) C   9                    0.81   15.70    0.100
  74. CR (   1) N   8                /576. RY*(   4) C  19                    0.97   15.60    0.110
  75. CR (   1) C   9                /289. RY*(   3) N   8                    0.55   11.48    0.071
  75. CR (   1) C   9                /292. RY*(   6) N   8                    0.54   12.17    0.073
  75. CR (   1) C   9                /340. RY*(   2) C  10                    0.59   11.52    0.074
  75. CR (   1) C   9                /341. RY*(   3) C  10                    0.79   11.56    0.085
  75. CR (   1) C   9                /860. RY*(   1) H  42                    0.62   12.04    0.077
  75. CR (   1) C   9                /956. BD*(   1) C   4 - N   8            1.22   10.44    0.102
  75. CR (   1) C   9                /968. BD*(   1) N   8 - C  19            1.02   10.59    0.093
  75. CR (   1) C   9                /970. BD*(   1) C   9 - C  10            1.04   10.68    0.094
  75. CR (   1) C   9                /974. BD*(   1) C  10 - H  43            1.00   10.51    0.092
  76. CR (   1) C  10                /314. RY*(   2) C   9                    0.59   11.52    0.074
  76. CR (   1) C  10                /315. RY*(   3) C   9                    0.79   11.56    0.085
  76. CR (   1) C  10                /367. RY*(   3) N  11                    0.55   11.48    0.071
  76. CR (   1) C  10                /370. RY*(   6) N  11                    0.54   12.17    0.072
  76. CR (   1) C  10                /865. RY*(   1) H  43                    0.62   12.04    0.077
  76. CR (   1) C  10                /970. BD*(   1) C   9 - C  10            1.04   10.68    0.094
  76. CR (   1) C  10                /972. BD*(   1) C   9 - H  42            1.00   10.51    0.092
  76. CR (   1) C  10                /975. BD*(   1) N  11 - C  12            1.22   10.44    0.102
  76. CR (   1) C  10                /976. BD*(   1) N  11 - C  19            1.02   10.59    0.093
  77. CR (   1) N  11                /341. RY*(   3) C  10                    0.81   15.70    0.100
  77. CR (   1) N  11                /393. RY*(   3) C  12                    0.64   15.59    0.089
  77. CR (   1) N  11                /576. RY*(   4) C  19                    0.97   15.60    0.110
  78. CR (   1) C  12                /973. BD*(   1) C  10 - N  11            0.76   10.55    0.081
  78. CR (   1) C  12                /976. BD*(   1) N  11 - C  19            1.13   10.60    0.098
  80. CR (   1) C  14                /418. RY*(   2) C  13                    0.84   11.65    0.089
  80. CR (   1) C  14                /890. RY*(   1) H  48                    0.53   11.61    0.070
  81. CR (   1) C  15                /419. RY*(   3) C  13                    0.60   11.95    0.076
  82. CR (   1) C  16                /392. RY*(   2) C  12                    0.81   11.21    0.085
  82. CR (   1) C  16                /550. RY*(   4) C  18                    0.53   11.26    0.069
  84. CR (   1) C  18                /496. RY*(   2) C  16                    0.78   11.59    0.085
  84. CR (   1) C  18                /500. RY*(   6) C  16                    0.57   11.83    0.073
  85. CR (   1) C  19                /287. RY*(   1) N   8                    0.56   11.79    0.072
  85. CR (   1) C  19                /365. RY*(   1) N  11                    0.56   11.79    0.072
  85. CR (   1) C  19                /956. BD*(   1) C   4 - N   8            1.55   10.47    0.115
  85. CR (   1) C  19                /967. BD*(   1) N   8 - C   9            0.76   10.57    0.080
  85. CR (   1) C  19                /973. BD*(   1) C  10 - N  11            0.76   10.57    0.080
  85. CR (   1) C  19                /975. BD*(   1) N  11 - C  12            1.55   10.47    0.115
  85. CR (   1) C  19                /998. BD*(   1) C  19 -Ni  20            0.81   10.69    0.084
  86. CR (   1)Ni  20                /573. RY*(   1) C  19                    0.95    8.14    0.079
  86. CR (   1)Ni  20                /629. RY*(   1) C  21                    1.08    5.10    0.066
  86. CR (   1)Ni  20                /630. RY*(   2) C  21                    0.88    8.02    0.075
  86. CR (   1)Ni  20                /681. RY*(   1) C  23                    1.13    5.15    0.068
  86. CR (   1)Ni  20                /682. RY*(   2) C  23                    0.88    8.45    0.077
  86. CR (   1)Ni  20                /733. RY*(   1) C  25                    1.13    5.15    0.068
  86. CR (   1)Ni  20                /734. RY*(   2) C  25                    0.88    8.45    0.077
  86. CR (   1)Ni  20                /968. BD*(   1) N   8 - C  19            1.56    4.57    0.076
  86. CR (   1)Ni  20                /976. BD*(   1) N  11 - C  19            1.55    4.57    0.076
  86. CR (   1)Ni  20                /***. BD*(   1) C  21 - O  22            6.20    4.80    0.154
  86. CR (   1)Ni  20                /***. BD*(   1) C  23 - O  24            6.53    4.75    0.158
  86. CR (   1)Ni  20                /***. BD*(   1) C  25 - O  26            6.53    4.75    0.158
  87. CR (   2)Ni  20                /***. BD*(   3) C  21 - O  22            0.64    2.70    0.039
  87. CR (   2)Ni  20                /***. BD*(   1) C  23 - O  24            1.07    3.32    0.053
  87. CR (   2)Ni  20                /***. BD*(   1) C  25 - O  26            1.07    3.32    0.053
  89. CR (   4)Ni  20                /***. BD*(   1) C  21 - O  22            1.30    3.37    0.059
  89. CR (   4)Ni  20                /***. BD*(   2) C  23 - O  24            0.64    2.73    0.039
  89. CR (   4)Ni  20                /***. BD*(   2) C  25 - O  26            0.64    2.73    0.039
  90. CR (   1) C  21                /658. RY*(   4) O  22                    1.22   11.20    0.105
  90. CR (   1) C  21                /999. BD*(   1)Ni  20 - C  21            1.36   10.79    0.108
  90. CR (   1) C  21                /***. BD*(   1) C  21 - O  22            1.05   10.89    0.096
  91. CR (   1) O  22                /629. RY*(   1) C  21                    5.64   20.00    0.301
  91. CR (   1) O  22                /630. RY*(   2) C  21                    0.66   22.92    0.110
  91. CR (   1) O  22                /999. BD*(   1)Ni  20 - C  21            0.50   19.60    0.089
  92. CR (   1) C  23                /710. RY*(   4) O  24                    1.24   11.20    0.105
  92. CR (   1) C  23                /***. BD*(   1)Ni  20 - C  23            1.41   10.78    0.110
  92. CR (   1) C  23                /***. BD*(   1) C  23 - O  24            1.14   10.83    0.100
  93. CR (   1) O  24                /681. RY*(   1) C  23                    5.65   20.05    0.302
  93. CR (   1) O  24                /682. RY*(   2) C  23                    0.60   23.35    0.106
  94. CR (   1) C  25                /762. RY*(   4) O  26                    1.24   11.20    0.105
  94. CR (   1) C  25                /***. BD*(   1)Ni  20 - C  25            1.41   10.78    0.110
  94. CR (   1) C  25                /***. BD*(   1) C  25 - O  26            1.14   10.83    0.100
  95. CR (   1) O  26                /733. RY*(   1) C  25                    5.65   20.05    0.302
  95. CR (   1) O  26                /734. RY*(   2) C  25                    0.60   23.35    0.106
  96. LP (   1) N  11                /339. RY*(   1) C  10                    2.10    1.03    0.047
  96. LP (   1) N  11                /392. RY*(   2) C  12                    0.76    1.38    0.033
  96. LP (   1) N  11                /575. RY*(   3) C  19                    0.72    1.40    0.032
  96. LP (   1) N  11                /577. RY*(   5) C  19                    0.85    2.67    0.048
  96. LP (   1) N  11                /969. BD*(   2) N   8 - C  19           70.36    0.25    0.120
  96. LP (   1) N  11                /971. BD*(   2) C   9 - C  10           33.75    0.28    0.092
  96. LP (   1) N  11                /977. BD*(   1) C  12 - C  13            5.63    0.60    0.058
  96. LP (   1) N  11                /978. BD*(   1) C  12 - C  16            4.38    0.60    0.052
  97. LP (   1)Ni  20                /576. RY*(   4) C  19                    0.87    1.61    0.034
  97. LP (   1)Ni  20                /632. RY*(   4) C  21                    1.19    1.34    0.037
  97. LP (   1)Ni  20                /681. RY*(   1) C  23                    0.89    1.33    0.031
  97. LP (   1)Ni  20                /682. RY*(   2) C  23                    0.56    4.63    0.046
  97. LP (   1)Ni  20                /683. RY*(   3) C  23                    0.58    1.28    0.025
  97. LP (   1)Ni  20                /684. RY*(   4) C  23                    0.64    1.49    0.028
  97. LP (   1)Ni  20                /733. RY*(   1) C  25                    0.89    1.33    0.031
  97. LP (   1)Ni  20                /734. RY*(   2) C  25                    0.56    4.63    0.047
  97. LP (   1)Ni  20                /735. RY*(   3) C  25                    0.58    1.28    0.025
  97. LP (   1)Ni  20                /736. RY*(   4) C  25                    0.64    1.49    0.028
  97. LP (   1)Ni  20                /968. BD*(   1) N   8 - C  19            1.16    0.75    0.027
  97. LP (   1)Ni  20                /976. BD*(   1) N  11 - C  19            1.16    0.75    0.027
  97. LP (   1)Ni  20                /***. BD*(   2) C  23 - O  24            0.69    0.33    0.014
  97. LP (   1)Ni  20                /***. BD*(   3) C  23 - O  24            4.89    0.34    0.037
  97. LP (   1)Ni  20                /***. BD*(   2) C  25 - O  26            0.69    0.33    0.014
  97. LP (   1)Ni  20                /***. BD*(   3) C  25 - O  26            4.89    0.34    0.037
  98. LP (   2)Ni  20                /575. RY*(   3) C  19                    0.92    1.41    0.033
  98. LP (   2)Ni  20                /599. RY*(   1)Ni  20                    0.60    1.34    0.026
  98. LP (   2)Ni  20                /605. RY*(   7)Ni  20                    0.64    2.29    0.035
  98. LP (   2)Ni  20                /613. RY*(  15)Ni  20                    0.78    4.35    0.053
  98. LP (   2)Ni  20                /614. RY*(  16)Ni  20                    0.60   31.91    0.127
  98. LP (   2)Ni  20                /620. RY*(  22)Ni  20                    0.60   56.62    0.170
  98. LP (   2)Ni  20                /631. RY*(   3) C  21                    1.36    1.19    0.037
  98. LP (   2)Ni  20                /681. RY*(   1) C  23                    0.96    1.33    0.033
  98. LP (   2)Ni  20                /682. RY*(   2) C  23                    1.46    4.63    0.075
  98. LP (   2)Ni  20                /683. RY*(   3) C  23                    0.77    1.28    0.029
  98. LP (   2)Ni  20                /684. RY*(   4) C  23                    0.73    1.49    0.030
  98. LP (   2)Ni  20                /733. RY*(   1) C  25                    0.95    1.33    0.033
  98. LP (   2)Ni  20                /734. RY*(   2) C  25                    1.46    4.63    0.075
  98. LP (   2)Ni  20                /735. RY*(   3) C  25                    0.77    1.28    0.029
  98. LP (   2)Ni  20                /736. RY*(   4) C  25                    0.73    1.49    0.030
  98. LP (   2)Ni  20                /969. BD*(   2) N   8 - C  19            5.86    0.26    0.038
  98. LP (   2)Ni  20                /***. BD*(   2) C  21 - O  22           10.60    0.32    0.052
  98. LP (   2)Ni  20                /***. BD*(   3) C  23 - O  24            1.45    0.34    0.020
  98. LP (   2)Ni  20                /***. BD*(   3) C  25 - O  26            1.45    0.34    0.020
  99. LP (   3)Ni  20                /575. RY*(   3) C  19                    1.33    1.40    0.040
  99. LP (   3)Ni  20                /613. RY*(  15)Ni  20                    0.98    4.34    0.061
  99. LP (   3)Ni  20                /620. RY*(  22)Ni  20                    1.17   56.61    0.242
  99. LP (   3)Ni  20                /629. RY*(   1) C  21                    1.36    1.26    0.039
  99. LP (   3)Ni  20                /630. RY*(   2) C  21                    1.96    4.18    0.085
  99. LP (   3)Ni  20                /683. RY*(   3) C  23                    0.51    1.27    0.024
  99. LP (   3)Ni  20                /735. RY*(   3) C  25                    0.51    1.27    0.024
  99. LP (   3)Ni  20                /998. BD*(   1) C  19 -Ni  20            0.55    0.80    0.020
  99. LP (   3)Ni  20                /999. BD*(   1)Ni  20 - C  21            1.53    0.87    0.034
  99. LP (   3)Ni  20                /***. BD*(   2) C  23 - O  24           10.77    0.32    0.053
  99. LP (   3)Ni  20                /***. BD*(   3) C  23 - O  24            3.94    0.33    0.032
  99. LP (   3)Ni  20                /***. BD*(   2) C  25 - O  26           10.80    0.32    0.053
  99. LP (   3)Ni  20                /***. BD*(   3) C  25 - O  26            3.94    0.33    0.032
 100. LP (   4)Ni  20                /576. RY*(   4) C  19                    0.54    1.60    0.028
 100. LP (   4)Ni  20                /604. RY*(   6)Ni  20                    0.60    0.63    0.018
 100. LP (   4)Ni  20                /610. RY*(  12)Ni  20                    0.88    4.37    0.058
 100. LP (   4)Ni  20                /621. RY*(  23)Ni  20                    1.12   56.63    0.237
 100. LP (   4)Ni  20                /632. RY*(   4) C  21                    0.70    1.33    0.029
 100. LP (   4)Ni  20                /681. RY*(   1) C  23                    1.10    1.31    0.035
 100. LP (   4)Ni  20                /682. RY*(   2) C  23                    1.54    4.61    0.079
 100. LP (   4)Ni  20                /733. RY*(   1) C  25                    1.10    1.31    0.035
 100. LP (   4)Ni  20                /734. RY*(   2) C  25                    1.54    4.61    0.079
 100. LP (   4)Ni  20                /***. BD*(   1)Ni  20 - C  23            1.35    0.86    0.032
 100. LP (   4)Ni  20                /***. BD*(   1)Ni  20 - C  25            1.36    0.86    0.032
 100. LP (   4)Ni  20                /***. BD*(   3) C  21 - O  22           21.92    0.30    0.073
 100. LP (   4)Ni  20                /***. BD*(   2) C  23 - O  24            5.27    0.32    0.037
 100. LP (   4)Ni  20                /***. BD*(   2) C  25 - O  26            5.24    0.32    0.037
 101. LP (   5)Ni  20                /573. RY*(   1) C  19                    1.10    4.28    0.065
 101. LP (   5)Ni  20                /574. RY*(   2) C  19                    1.59    1.76    0.050
 101. LP (   5)Ni  20                /612. RY*(  14)Ni  20                    0.83    4.09    0.056
 101. LP (   5)Ni  20                /619. RY*(  21)Ni  20                    1.57   56.34    0.283
 101. LP (   5)Ni  20                /629. RY*(   1) C  21                    1.01    1.24    0.033
 101. LP (   5)Ni  20                /630. RY*(   2) C  21                    1.03    4.16    0.062
 101. LP (   5)Ni  20                /998. BD*(   1) C  19 -Ni  20            4.76    0.78    0.058
 101. LP (   5)Ni  20                /999. BD*(   1)Ni  20 - C  21            0.99    0.84    0.027
 101. LP (   5)Ni  20                /***. BD*(   2) C  21 - O  22           10.33    0.28    0.049
 101. LP (   5)Ni  20                /***. BD*(   2) C  23 - O  24            2.99    0.29    0.027
 101. LP (   5)Ni  20                /***. BD*(   3) C  23 - O  24           10.64    0.31    0.052
 101. LP (   5)Ni  20                /***. BD*(   2) C  25 - O  26            2.99    0.29    0.027
 101. LP (   5)Ni  20                /***. BD*(   3) C  25 - O  26           10.64    0.31    0.052
 102. LP (   1) O  22                /629. RY*(   1) C  21                   12.24    1.76    0.131
 102. LP (   1) O  22                /630. RY*(   2) C  21                    1.48    4.68    0.075
 102. LP (   1) O  22                /655. RY*(   1) O  22                    1.00    2.30    0.043
 102. LP (   1) O  22                /659. RY*(   5) O  22                    0.93    5.00    0.061
 102. LP (   1) O  22                /999. BD*(   1)Ni  20 - C  21            2.52    1.37    0.053
 103. LP (   1) O  24                /681. RY*(   1) C  23                   12.21    1.81    0.133
 103. LP (   1) O  24                /682. RY*(   2) C  23                    1.30    5.11    0.073
 103. LP (   1) O  24                /707. RY*(   1) O  24                    1.02    2.29    0.043
 103. LP (   1) O  24                /711. RY*(   5) O  24                    0.61    4.09    0.045
 103. LP (   1) O  24                /***. BD*(   1)Ni  20 - C  23            2.57    1.36    0.053
 104. LP (   1) O  26                /733. RY*(   1) C  25                   12.21    1.81    0.133
 104. LP (   1) O  26                /734. RY*(   2) C  25                    1.30    5.11    0.073
 104. LP (   1) O  26                /759. RY*(   1) O  26                    1.02    2.29    0.043
 104. LP (   1) O  26                /763. RY*(   5) O  26                    0.61    4.09    0.045
 104. LP (   1) O  26                /***. BD*(   1)Ni  20 - C  25            2.57    1.36    0.053
 969. BD*(   2) N   8 - C  19        /288. RY*(   2) N   8                    0.71    0.80    0.045
 969. BD*(   2) N   8 - C  19        /291. RY*(   5) N   8                    0.67    1.99    0.069
 969. BD*(   2) N   8 - C  19        /575. RY*(   3) C  19                    2.01    1.15    0.090
 969. BD*(   2) N   8 - C  19        /577. RY*(   5) C  19                    0.64    2.41    0.074
 969. BD*(   2) N   8 - C  19        /950. BD*(   1) C   2 - C   4            0.61    0.35    0.027
 969. BD*(   2) N   8 - C  19        /955. BD*(   1) C   4 - C   5            0.89    0.35    0.032
 969. BD*(   2) N   8 - C  19        /971. BD*(   2) C   9 - C  10           32.01    0.03    0.045
 969. BD*(   2) N   8 - C  19        /999. BD*(   1)Ni  20 - C  21            0.57    0.62    0.035
 969. BD*(   2) N   8 - C  19        /***. BD*(   2) C  21 - O  22            1.13    0.06    0.013
 ***. BD*(   2) C  21 - O  22        /631. RY*(   3) C  21                    1.82    0.88    0.129
 ***. BD*(   2) C  21 - O  22        /633. RY*(   5) C  21                    0.93    2.66    0.161
 ***. BD*(   2) C  21 - O  22        /656. RY*(   2) O  22                    1.23    0.75    0.098
 ***. BD*(   2) C  21 - O  22        /998. BD*(   1) C  19 -Ni  20            1.12    0.50    0.074
 ***. BD*(   2) C  21 - O  22        /***. BD*(   1) C  21 - O  22            0.59    0.66    0.062
 ***. BD*(   3) C  21 - O  22        /632. RY*(   4) C  21                    1.54    1.03    0.131
 ***. BD*(   3) C  21 - O  22        /634. RY*(   6) C  21                    0.90    2.70    0.163
 ***. BD*(   3) C  21 - O  22        /657. RY*(   3) O  22                    1.20    0.73    0.097
 ***. BD*(   3) C  21 - O  22        /***. BD*(   1)Ni  20 - C  23            0.53    0.56    0.055
 ***. BD*(   3) C  21 - O  22        /***. BD*(   1)Ni  20 - C  25            0.53    0.56    0.055
 ***. BD*(   2) C  23 - O  24        /681. RY*(   1) C  23                    0.56    1.00    0.073
 ***. BD*(   2) C  23 - O  24        /683. RY*(   3) C  23                    1.82    0.95    0.138
 ***. BD*(   2) C  23 - O  24        /686. RY*(   6) C  23                    0.81    2.56    0.151
 ***. BD*(   2) C  23 - O  24        /709. RY*(   3) O  24                    1.15    0.72    0.095
 ***. BD*(   2) C  23 - O  24        /***. BD*(   1)Ni  20 - C  25            0.52    0.54    0.054
 ***. BD*(   2) C  23 - O  24        /***. BD*(   1) C  23 - O  24            2.18    0.59    0.110
 ***. BD*(   2) C  23 - O  24        /***. BD*(   3) C  23 - O  24           10.71    0.01    0.024
 ***. BD*(   2) C  23 - O  24        /***. BD*(   3) C  25 - O  26            1.41    0.01    0.009
 ***. BD*(   3) C  23 - O  24        /681. RY*(   1) C  23                    0.81    0.99    0.083
 ***. BD*(   3) C  23 - O  24        /684. RY*(   4) C  23                    2.56    1.15    0.169
 ***. BD*(   3) C  23 - O  24        /685. RY*(   5) C  23                    0.67    2.49    0.127
 ***. BD*(   3) C  23 - O  24        /708. RY*(   2) O  24                    1.25    0.76    0.096
 ***. BD*(   3) C  23 - O  24        /998. BD*(   1) C  19 -Ni  20            1.56    0.47    0.082
 ***. BD*(   3) C  23 - O  24        /***. BD*(   1) C  23 - O  24            3.91    0.58    0.139
 ***. BD*(   2) C  25 - O  26        /733. RY*(   1) C  25                    0.56    1.00    0.073
 ***. BD*(   2) C  25 - O  26        /735. RY*(   3) C  25                    1.82    0.95    0.138
 ***. BD*(   2) C  25 - O  26        /738. RY*(   6) C  25                    0.81    2.56    0.151
 ***. BD*(   2) C  25 - O  26        /761. RY*(   3) O  26                    1.15    0.72    0.095
 ***. BD*(   2) C  25 - O  26        /***. BD*(   1)Ni  20 - C  23            0.52    0.54    0.054
 ***. BD*(   2) C  25 - O  26        /***. BD*(   3) C  23 - O  24            1.41    0.01    0.009
 ***. BD*(   2) C  25 - O  26        /***. BD*(   1) C  25 - O  26            2.18    0.59    0.110
 ***. BD*(   2) C  25 - O  26        /***. BD*(   3) C  25 - O  26           10.73    0.01    0.024
 ***. BD*(   3) C  25 - O  26        /733. RY*(   1) C  25                    0.81    0.99    0.083
 ***. BD*(   3) C  25 - O  26        /736. RY*(   4) C  25                    2.56    1.15    0.169
 ***. BD*(   3) C  25 - O  26        /737. RY*(   5) C  25                    0.67    2.49    0.127
 ***. BD*(   3) C  25 - O  26        /760. RY*(   2) O  26                    1.25    0.76    0.096
 ***. BD*(   3) C  25 - O  26        /998. BD*(   1) C  19 -Ni  20            1.56    0.47    0.082
 ***. BD*(   3) C  25 - O  26        /***. BD*(   1) C  25 - O  26            3.91    0.58    0.139


 Natural Bond Orbitals (Summary):

                                                            Principal Delocalizations
           NBO                        Occupancy    Energy   (geminal,vicinal,remote)
 ====================================================================================
 Molecular unit  1  (C20H32N2O3Ni)
     1. BD (   1) C   1 - C   2          1.98147    -0.60694  956(v),952(v),185(v),157(v)
     2. BD (   1) C   1 - H  27          1.98696    -0.49318  950(v),133(v)
     3. BD (   1) C   1 - H  28          1.98842    -0.49395  951(v),131(v)
     4. BD (   1) C   1 - H  29          1.98795    -0.49700  949(v),131(v),133(v)
     5. BD (   1) C   2 - C   3          1.98398    -0.60558  955(v),948(v),185(v)
     6. BD (   1) C   2 - C   4          1.97173    -0.60002  968(v),959(v),946(v),954(v)
                                                    969(v),288(v)
     7. BD (   1) C   2 - H  30          1.96471    -0.47901  953(v),947(v),957(v)
     8. BD (   1) C   3 - H  31          1.98743    -0.49293  945(v),133(v),131(v)
     9. BD (   1) C   3 - H  32          1.98857    -0.49264  951(v)
    10. BD (   1) C   3 - H  33          1.98707    -0.49170  950(v),132(v)
    11. BD (   1) C   4 - C   5          1.97119    -0.59701  968(v),949(v),969(v),965(v)
                                                    963(v),288(v),132(v)
    12. BD (   1) C   4 - N   8          1.98371    -0.75761  945(v),976(v),573(v),970(v)
                                                    968(g),960(v),314(v)
    13. BD (   1) C   4 - H  34          1.96029    -0.49167  967(v),958(v),951(v),290(v)
                                                    210(v),1007(r)
    14. BD (   1) C   5 - C   6          1.98652    -0.60790  966(v),957(v),183(v),188(v)
                                                    261(v)
    15. BD (   1) C   5 - C   7          1.98442    -0.60525  950(v),962(v)
    16. BD (   1) C   5 - H  35          1.95839    -0.47272  956(v),964(v),961(v),184(v)
    17. BD (   1) C   6 - H  36          1.98795    -0.49613  960(v),209(v)
    18. BD (   1) C   6 - H  37          1.98801    -0.49724  959(v),211(v),209(v)
    19. BD (   1) C   6 - H  38          1.98578    -0.49171  955(v),210(v)
    20. BD (   1) C   7 - H  39          1.98829    -0.49070  960(v),212(v)
    21. BD (   1) C   7 - H  40          1.98644    -0.49053  955(v),211(v)
    22. BD (   1) C   7 - H  41          1.98611    -0.49304  958(v),209(v)
    23. BD (   1) N   8 - C   9          1.98137    -0.80355  974(v),183(v),998(v),968(g)
                                                    573(v),576(v),976(v),957(v)
                                                    975(r),578(v),342(v),956(g)
                                                    970(g)
    24. BD (   1) N   8 - C  19          1.97784    -0.81835  975(v),972(v),998(g),967(g)
                                                    956(g),365(v),315(v),183(v)
                                                    950(v),955(v)
    25. BD (   2) N   8 - C  19          1.87100    -0.33996  971(v),955(v),950(v),313(v)
                                                    184(v),366(v)
    26. BD (   1) C   9 - C  10          1.97929    -0.73664  956(v),975(v),287(v),365(v)
                                                    972(g),974(g)
    27. BD (   2) C   9 - C  10          1.88213    -0.28454  969(v),366(v),288(v),371(v)
    28. BD (   1) C   9 - H  42          1.98047    -0.55733  968(v),973(v),340(v),287(v)
                                                    970(g)
    29. BD (   1) C  10 - N  11          1.98137    -0.80355  972(v),391(v),998(v),976(g)
                                                    573(v),576(v),968(v),979(v)
                                                    956(r),578(v),316(v),975(g)
                                                    970(g)
    30. BD (   1) C  10 - H  43          1.98047    -0.55733  976(v),967(v),314(v),365(v)
                                                    970(g)
    31. BD (   1) N  11 - C  12          1.98371    -0.75761  990(v),968(v),573(v),970(v)
                                                    976(g),982(v),340(v)
    32. BD (   1) N  11 - C  19          1.97784    -0.81835  956(v),974(v),998(g),973(g)
                                                    975(g),287(v),341(v),391(v)
                                                    978(v),977(v)
    33. BD (   1) C  12 - C  13          1.97119    -0.59701  976(v),989(v),983(v),987(v)
                                                    366(v),496(v)
    34. BD (   1) C  12 - C  16          1.97173    -0.60002  976(v),980(v),996(v),993(v)
                                                    366(v)
    35. BD (   1) C  12 - H  44          1.96029    -0.49167  973(v),981(v),991(v),368(v)
                                                    418(v),1010(r)
    36. BD (   1) C  13 - C  14          1.98442    -0.60524  978(v),988(v)
    37. BD (   1) C  13 - C  15          1.98652    -0.60790  985(v),979(v),391(v),396(v)
                                                    443(v)
    38. BD (   1) C  13 - H  45          1.95839    -0.47272  975(v),984(v),986(v),392(v)
    39. BD (   1) C  14 - H  46          1.98644    -0.49053  977(v),419(v)
    40. BD (   1) C  14 - H  47          1.98829    -0.49070  982(v),420(v)
    41. BD (   1) C  14 - H  48          1.98611    -0.49304  981(v),417(v)
    42. BD (   1) C  15 - H  49          1.98795    -0.49613  982(v),417(v)
    43. BD (   1) C  15 - H  50          1.98578    -0.49171  977(v),418(v)
    44. BD (   1) C  15 - H  51          1.98801    -0.49724  980(v),419(v),417(v)
    45. BD (   1) C  16 - C  17          1.98398    -0.60558  977(v),997(v),393(v)
    46. BD (   1) C  16 - C  18          1.98147    -0.60694  975(v),992(v),393(v),521(v)
    47. BD (   1) C  16 - H  52          1.96471    -0.47901  994(v),995(v),979(v)
    48. BD (   1) C  17 - H  53          1.98743    -0.49293  990(v),497(v),495(v)
    49. BD (   1) C  17 - H  54          1.98707    -0.49170  978(v),496(v)
    50. BD (   1) C  17 - H  55          1.98857    -0.49264  991(v)
    51. BD (   1) C  18 - H  56          1.98842    -0.49395  991(v),495(v)
    52. BD (   1) C  18 - H  57          1.98696    -0.49318  978(v),497(v)
    53. BD (   1) C  18 - H  58          1.98795    -0.49700  989(v),495(v),497(v)
    54. BD (   1) C  19 -Ni  20          1.86708    -0.39684  573(g),614(g),608(g),682(v)
                                                    734(v),607(g),630(v),967(v)
                                                    973(v),581(g),998(g),365(v)
                                                    287(v),605(g),1003(v)
                                                    1007(v),1010(v),586(g)
                                                    999(g),1000(g),1001(g)
                                                    606(g),609(g),1002(v),603(g)
                                                    602(g),1005(v),1008(v)
                                                    575(g),820(r),870(r),585(g)
                                                    599(g),612(g),640(v),574(g)
                                                    583(g),367(v),289(v),742(v)
                                                    690(v),743(v),691(v),658(r)
                                                    611(g),707(r),759(r),319(r)
                                                    345(r),185(r),393(r),655(r)
                                                    710(r),762(r),629(v),1006(v)
                                                    1009(v),810(r),925(r),957(r)
                                                    979(r),584(g),681(v),733(v)
                                                    744(v),692(v)
    55. BD (   1)Ni  20 - C  21          1.93713    -0.56889  655(v),630(g),573(v),608(g)
                                                    614(g),682(v),734(v),607(g)
                                                    1005(v),1008(v),999(g)
                                                    969(v),581(v),575(v),586(v)
                                                    605(g),998(g),1000(g)
                                                    1001(g),1006(v),1009(v)
                                                    609(g),606(g),612(g),820(r)
                                                    870(r),1002(g)
    56. BD (   1)Ni  20 - C  23          1.94041    -0.57036  707(v),682(g),573(v),608(g)
                                                    614(g),630(v),734(v),607(g)
                                                    1009(v),1000(g),1008(v)
                                                    1002(v),581(v),1004(v)
                                                    998(g),605(g),976(v),586(v)
                                                    999(g),820(r),957(r),606(g)
                                                    1001(g),870(r),692(g),612(g)
                                                    609(g),1010(v),708(v)
    57. BD (   1)Ni  20 - C  25          1.94041    -0.57036  759(v),734(g),573(v),608(g)
                                                    614(g),630(v),682(v),607(g)
                                                    1006(v),1001(g),1005(v)
                                                    1002(v),581(v),1004(v)
                                                    998(g),605(g),968(v),586(v)
                                                    999(g),870(r),979(r),606(g)
                                                    1000(g),820(r),744(g),612(g)
                                                    609(g),1007(v),760(v)
    58. BD (   1) C  21 - O  22          1.99843    -1.22381  629(g)
    59. BD (   2) C  21 - O  22          1.99784    -0.45575  599(v)
    60. BD (   3) C  21 - O  22          1.99784    -0.44984  600(v)
    61. BD (   1) C  23 - O  24          1.99774    -1.17325  681(g)
    62. BD (   2) C  23 - O  24          1.99751    -0.47213   
    63. BD (   3) C  23 - O  24          1.99733    -0.48219   
    64. BD (   1) C  25 - O  26          1.99774    -1.17324  733(g)
    65. BD (   2) C  25 - O  26          1.99751    -0.47214   
    66. BD (   3) C  25 - O  26          1.99733    -0.48219   
    67. CR (   1) C   1                  1.99945   -10.06741  132(v),136(v)
    68. CR (   1) C   2                  1.99942   -10.08800  184(v),108(v)
    69. CR (   1) C   3                  1.99945   -10.06439   
    70. CR (   1) C   4                  1.99921   -10.12556  968(v),967(v)
    71. CR (   1) C   5                  1.99942   -10.08717   
    72. CR (   1) C   6                  1.99945   -10.06667  211(v)
    73. CR (   1) C   7                  1.99945   -10.06334  210(v),855(v)
    74. CR (   1) N   8                  1.99940   -14.25288  576(v),315(v),185(v)
    75. CR (   1) C   9                  1.99905   -10.11273  956(v),970(g),968(v),974(v)
                                                    341(v),860(v),340(v),289(v)
                                                    292(v)
    76. CR (   1) C  10                  1.99905   -10.11273  975(v),970(g),976(v),972(v)
                                                    315(v),865(v),314(v),367(v)
                                                    370(v)
    77. CR (   1) N  11                  1.99940   -14.25288  576(v),341(v),393(v)
    78. CR (   1) C  12                  1.99921   -10.12556  976(v),973(v)
    79. CR (   1) C  13                  1.99942   -10.08717   
    80. CR (   1) C  14                  1.99945   -10.06334  418(v),890(v)
    81. CR (   1) C  15                  1.99945   -10.06668  419(v)
    82. CR (   1) C  16                  1.99942   -10.08800  392(v),550(v)
    83. CR (   1) C  17                  1.99945   -10.06439   
    84. CR (   1) C  18                  1.99945   -10.06741  496(v),500(v)
    85. CR (   1) C  19                  1.99905   -10.14449  956(v),975(v),998(g),967(v)
                                                    973(v),287(v),365(v)
    86. CR (   1)Ni  20                  1.99107    -4.09492  1008(v),1005(v),1002(v)
                                                    968(v),976(v),681(v),733(v)
                                                    629(v),573(v),682(v),734(v)
                                                    630(v)
    87. CR (   2)Ni  20                  1.99748    -2.66314  1008(v),1005(v),1004(v)
    88. CR (   3)Ni  20                  1.99859    -2.65880  1007(v),1010(v),1003(v)
    89. CR (   4)Ni  20                  1.99751    -2.66545  1002(v),1006(v),1009(v)
    90. CR (   1) C  21                  1.99913   -10.18368  999(g),658(v),1002(g)
    91. CR (   1) O  22                  1.99976   -18.99244  629(v),630(v),999(v)
    92. CR (   1) C  23                  1.99911   -10.18214  1000(g),710(v),1005(g)
    93. CR (   1) O  24                  1.99977   -18.99273  681(v),682(v)
    94. CR (   1) C  25                  1.99911   -10.18214  1001(g),762(v),1008(g)
    95. CR (   1) O  26                  1.99977   -18.99273  733(v),734(v)
    96. LP (   1) N  11                  1.53658    -0.26262  969(v),971(v),977(v),978(v)
                                                    339(v),577(v),392(v),575(v)
    97. LP (   1)Ni  20                  1.90112    -0.27160  1010(v),1007(v),632(v)
                                                    968(v),976(v),733(v),681(v)
                                                    576(v),1006(v),1009(v)
                                                    736(v),684(v),683(v),735(v)
                                                    734(v),682(v)
    98. LP (   2)Ni  20                  1.88719    -0.27053  1003(v),969(v),682(v),734(v)
                                                    1007(v),1010(v),631(v)
                                                    681(v),733(v),575(v),613(g)
                                                    735(v),683(v),684(v),736(v)
                                                    605(g),620(g),599(g),614(g)
    99. LP (   3)Ni  20                  1.80802    -0.25818  1009(v),1006(v),1010(v)
                                                    1007(v),630(v),999(g),629(v)
                                                    575(v),620(g),613(g),998(g)
                                                    735(v),683(v)
   100. LP (   4)Ni  20                  1.80679    -0.25763  1004(v),1006(v),1009(v)
                                                    734(v),682(v),1001(g)
                                                    1000(g),621(g),733(v),681(v)
                                                    610(g),632(v),604(g),576(v)
   101. LP (   5)Ni  20                  1.76369    -0.23457  1010(v),1007(v),1003(v)
                                                    998(g),1006(v),1009(v)
                                                    574(v),619(g),573(v),630(v)
                                                    629(v),999(g),612(g)
   102. LP (   1) O  22                  1.97908    -0.75788  629(v),999(v),630(v),655(g)
                                                    659(g)
   103. LP (   1) O  24                  1.97873    -0.75438  681(v),1000(v),682(v),707(g)
                                                    711(g)
   104. LP (   1) O  26                  1.97873    -0.75438  733(v),1001(v),734(v),759(g)
                                                    763(g)
   105. RY*(   1) C   1                  0.00127     1.08708   
   106. RY*(   2) C   1                  0.00097     1.13727   
   107. RY*(   3) C   1                  0.00032     1.42978   
   108. RY*(   4) C   1                  0.00024     1.17227   
   109. RY*(   5) C   1                  0.00014     1.67189   
   110. RY*(   6) C   1                  0.00015     1.87288   
   111. RY*(   7) C   1                  0.00009     1.67239   
   112. RY*(   8) C   1                  0.00006     1.49949   
   113. RY*(   9) C   1                  0.00007     1.87998   
   114. RY*(  10) C   1                  0.00004     1.97102   
   115. RY*(  11) C   1                  0.00002     1.68530   
   116. RY*(  12) C   1                  0.00001     1.90894   
   117. RY*(  13) C   1                  0.00000     2.71670   
   118. RY*(  14) C   1                  0.00000    20.36386   
   119. RY*(  15) C   1                  0.00000     3.19830   
   120. RY*(  16) C   1                  0.00001     2.36421   
   121. RY*(  17) C   1                  0.00001     2.99829   
   122. RY*(  18) C   1                  0.00000     2.95130   
   123. RY*(  19) C   1                  0.00000     3.29649   
   124. RY*(  20) C   1                  0.00000     3.33877   
   125. RY*(  21) C   1                  0.00000     3.55912   
   126. RY*(  22) C   1                  0.00000     3.24693   
   127. RY*(  23) C   1                  0.00000     3.40533   
   128. RY*(  24) C   1                  0.00000     3.48156   
   129. RY*(  25) C   1                  0.00000     3.45065   
   130. RY*(  26) C   1                  0.00000     3.53357   
   131. RY*(   1) C   2                  0.00313     1.38862   
   132. RY*(   2) C   2                  0.00168     1.52009   
   133. RY*(   3) C   2                  0.00134     1.83380   
   134. RY*(   4) C   2                  0.00076     2.52765   
   135. RY*(   5) C   2                  0.00063     2.12033   
   136. RY*(   6) C   2                  0.00047     1.76007   
   137. RY*(   7) C   2                  0.00038     2.49023   
   138. RY*(   8) C   2                  0.00024     2.19283   
   139. RY*(   9) C   2                  0.00015     2.20341   
   140. RY*(  10) C   2                  0.00011     2.26691   
   141. RY*(  11) C   2                  0.00010     2.56065   
   142. RY*(  12) C   2                  0.00007     2.24837   
   143. RY*(  13) C   2                  0.00005     2.75370   
   144. RY*(  14) C   2                  0.00005     3.01416   
   145. RY*(  15) C   2                  0.00001     2.02376   
   146. RY*(  16) C   2                  0.00001     2.08325   
   147. RY*(  17) C   2                  0.00001     2.49703   
   148. RY*(  18) C   2                  0.00001     2.97579   
   149. RY*(  19) C   2                  0.00000    21.05138   
   150. RY*(  20) C   2                  0.00000     3.28522   
   151. RY*(  21) C   2                  0.00001     2.89181   
   152. RY*(  22) C   2                  0.00001     3.56244   
   153. RY*(  23) C   2                  0.00000     3.47246   
   154. RY*(  24) C   2                  0.00001     3.45136   
   155. RY*(  25) C   2                  0.00000     3.36997   
   156. RY*(  26) C   2                  0.00001     3.68244   
   157. RY*(   1) C   3                  0.00137     1.11279   
   158. RY*(   2) C   3                  0.00092     1.34559   
   159. RY*(   3) C   3                  0.00037     0.97819   
   160. RY*(   4) C   3                  0.00027     1.40492   
   161. RY*(   5) C   3                  0.00018     1.92879   
   162. RY*(   6) C   3                  0.00017     1.30393   
   163. RY*(   7) C   3                  0.00011     1.64970   
   164. RY*(   8) C   3                  0.00007     1.62531   
   165. RY*(   9) C   3                  0.00005     1.83118   
   166. RY*(  10) C   3                  0.00004     2.25213   
   167. RY*(  11) C   3                  0.00003     1.90856   
   168. RY*(  12) C   3                  0.00003     1.68587   
   169. RY*(  13) C   3                  0.00000     3.38833   
   170. RY*(  14) C   3                  0.00001     2.30741   
   171. RY*(  15) C   3                  0.00000     3.17104   
   172. RY*(  16) C   3                  0.00000     3.11663   
   173. RY*(  17) C   3                  0.00001     3.03272   
   174. RY*(  18) C   3                  0.00000    20.90853   
   175. RY*(  19) C   3                  0.00001     2.44666   
   176. RY*(  20) C   3                  0.00001     3.32355   
   177. RY*(  21) C   3                  0.00000     3.69460   
   178. RY*(  22) C   3                  0.00000     3.36139   
   179. RY*(  23) C   3                  0.00000     3.20159   
   180. RY*(  24) C   3                  0.00000     3.42059   
   181. RY*(  25) C   3                  0.00000     3.34592   
   182. RY*(  26) C   3                  0.00000     3.67662   
   183. RY*(   1) C   4                  0.00496     1.31415   
   184. RY*(   2) C   4                  0.00273     1.11704   
   185. RY*(   3) C   4                  0.00231     1.33513   
   186. RY*(   4) C   4                  0.00152     1.81963   
   187. RY*(   5) C   4                  0.00109     2.16071   
   188. RY*(   6) C   4                  0.00084     2.54724   
   189. RY*(   7) C   4                  0.00069     2.02063   
   190. RY*(   8) C   4                  0.00059     2.15176   
   191. RY*(   9) C   4                  0.00037     2.01413   
   192. RY*(  10) C   4                  0.00028     2.35605   
   193. RY*(  11) C   4                  0.00024     2.87047   
   194. RY*(  12) C   4                  0.00020     2.24974   
   195. RY*(  13) C   4                  0.00015     2.23990   
   196. RY*(  14) C   4                  0.00010     2.50841   
   197. RY*(  15) C   4                  0.00008     2.20986   
   198. RY*(  16) C   4                  0.00006     3.28393   
   199. RY*(  17) C   4                  0.00007     2.88667   
   200. RY*(  18) C   4                  0.00003     3.69551   
   201. RY*(  19) C   4                  0.00001     3.53239   
   202. RY*(  20) C   4                  0.00001     3.88704   
   203. RY*(  21) C   4                  0.00000    21.47939   
   204. RY*(  22) C   4                  0.00001     3.72016   
   205. RY*(  23) C   4                  0.00001     3.54275   
   206. RY*(  24) C   4                  0.00000     3.60515   
   207. RY*(  25) C   4                  0.00001     3.91557   
   208. RY*(  26) C   4                  0.00000     3.99015   
   209. RY*(   1) C   5                  0.00326     1.38044   
   210. RY*(   2) C   5                  0.00185     1.58976   
   211. RY*(   3) C   5                  0.00140     1.88517   
   212. RY*(   4) C   5                  0.00068     2.41809   
   213. RY*(   5) C   5                  0.00064     2.33205   
   214. RY*(   6) C   5                  0.00047     2.31625   
   215. RY*(   7) C   5                  0.00035     1.99130   
   216. RY*(   8) C   5                  0.00024     1.71345   
   217. RY*(   9) C   5                  0.00017     3.24097   
   218. RY*(  10) C   5                  0.00015     2.03939   
   219. RY*(  11) C   5                  0.00012     2.15700   
   220. RY*(  12) C   5                  0.00007     2.83102   
   221. RY*(  13) C   5                  0.00003     2.61544   
   222. RY*(  14) C   5                  0.00003     2.10412   
   223. RY*(  15) C   5                  0.00004     2.59905   
   224. RY*(  16) C   5                  0.00001     3.32418   
   225. RY*(  17) C   5                  0.00001     2.07942   
   226. RY*(  18) C   5                  0.00001     2.38676   
   227. RY*(  19) C   5                  0.00001     3.25188   
   228. RY*(  20) C   5                  0.00001     3.08361   
   229. RY*(  21) C   5                  0.00000    20.80867   
   230. RY*(  22) C   5                  0.00001     3.59819   
   231. RY*(  23) C   5                  0.00000     3.45333   
   232. RY*(  24) C   5                  0.00000     3.29528   
   233. RY*(  25) C   5                  0.00000     3.25119   
   234. RY*(  26) C   5                  0.00000     3.68534   
   235. RY*(   1) C   6                  0.00130     1.05251   
   236. RY*(   2) C   6                  0.00089     1.04967   
   237. RY*(   3) C   6                  0.00032     1.48027   
   238. RY*(   4) C   6                  0.00030     1.14383   
   239. RY*(   5) C   6                  0.00017     1.44101   
   240. RY*(   6) C   6                  0.00011     1.85904   
   241. RY*(   7) C   6                  0.00011     1.68840   
   242. RY*(   8) C   6                  0.00009     2.03792   
   243. RY*(   9) C   6                  0.00007     1.65898   
   244. RY*(  10) C   6                  0.00005     1.85452   
   245. RY*(  11) C   6                  0.00003     1.72677   
   246. RY*(  12) C   6                  0.00003     1.95942   
   247. RY*(  13) C   6                  0.00000     3.21987   
   248. RY*(  14) C   6                  0.00000    20.80947   
   249. RY*(  15) C   6                  0.00000     3.06124   
   250. RY*(  16) C   6                  0.00001     2.43516   
   251. RY*(  17) C   6                  0.00000     3.30762   
   252. RY*(  18) C   6                  0.00001     2.52252   
   253. RY*(  19) C   6                  0.00000     2.88802   
   254. RY*(  20) C   6                  0.00000     3.10707   
   255. RY*(  21) C   6                  0.00000     3.74941   
   256. RY*(  22) C   6                  0.00000     3.38243   
   257. RY*(  23) C   6                  0.00000     3.39727   
   258. RY*(  24) C   6                  0.00000     3.46404   
   259. RY*(  25) C   6                  0.00000     3.45921   
   260. RY*(  26) C   6                  0.00000     3.24594   
   261. RY*(   1) C   7                  0.00143     1.08870   
   262. RY*(   2) C   7                  0.00078     1.22492   
   263. RY*(   3) C   7                  0.00027     1.02945   
   264. RY*(   4) C   7                  0.00023     1.66218   
   265. RY*(   5) C   7                  0.00020     1.57132   
   266. RY*(   6) C   7                  0.00013     1.47553   
   267. RY*(   7) C   7                  0.00012     1.50894   
   268. RY*(   8) C   7                  0.00009     1.93416   
   269. RY*(   9) C   7                  0.00006     1.87447   
   270. RY*(  10) C   7                  0.00004     2.36492   
   271. RY*(  11) C   7                  0.00004     1.93592   
   272. RY*(  12) C   7                  0.00002     1.87032   
   273. RY*(  13) C   7                  0.00000     3.47482   
   274. RY*(  14) C   7                  0.00001     2.23481   
   275. RY*(  15) C   7                  0.00000     3.11461   
   276. RY*(  16) C   7                  0.00001     2.00423   
   277. RY*(  17) C   7                  0.00000     3.12164   
   278. RY*(  18) C   7                  0.00000     3.25158   
   279. RY*(  19) C   7                  0.00000    20.90846   
   280. RY*(  20) C   7                  0.00000     3.19763   
   281. RY*(  21) C   7                  0.00000     3.66644   
   282. RY*(  22) C   7                  0.00000     3.56509   
   283. RY*(  23) C   7                  0.00000     3.28663   
   284. RY*(  24) C   7                  0.00000     3.45501   
   285. RY*(  25) C   7                  0.00000     3.20622   
   286. RY*(  26) C   7                  0.00000     3.68887   
   287. RY*(   1) N   8                  0.00667     1.64825   
   288. RY*(   2) N   8                  0.00418     0.79395   
   289. RY*(   3) N   8                  0.00260     1.36629   
   290. RY*(   4) N   8                  0.00169     1.62684   
   291. RY*(   5) N   8                  0.00083     1.97905   
   292. RY*(   6) N   8                  0.00065     2.05403   
   293. RY*(   7) N   8                  0.00058     1.78887   
   294. RY*(   8) N   8                  0.00025     2.02434   
   295. RY*(   9) N   8                  0.00022     2.13813   
   296. RY*(  10) N   8                  0.00010     4.59704   
   297. RY*(  11) N   8                  0.00008     4.27950   
   298. RY*(  12) N   8                  0.00009     4.44036   
   299. RY*(  13) N   8                  0.00005     3.29725   
   300. RY*(  14) N   8                  0.00003     4.72015   
   301. RY*(  15) N   8                  0.00003     3.99647   
   302. RY*(  16) N   8                  0.00002     4.01957   
   303. RY*(  17) N   8                  0.00002     5.48162   
   304. RY*(  18) N   8                  0.00001     4.63859   
   305. RY*(  19) N   8                  0.00001     4.78233   
   306. RY*(  20) N   8                  0.00000     4.54346   
   307. RY*(  21) N   8                  0.00000     4.63600   
   308. RY*(  22) N   8                  0.00000     4.60002   
   309. RY*(  23) N   8                  0.00001     4.69145   
   310. RY*(  24) N   8                  0.00000     4.46872   
   311. RY*(  25) N   8                  0.00000    28.48451   
   312. RY*(  26) N   8                  0.00001     4.99764   
   313. RY*(   1) C   9                  0.00388     0.76391   
   314. RY*(   2) C   9                  0.00327     1.40557   
   315. RY*(   3) C   9                  0.00178     1.44649   
   316. RY*(   4) C   9                  0.00100     1.35020   
   317. RY*(   5) C   9                  0.00075     1.62184   
   318. RY*(   6) C   9                  0.00058     1.92354   
   319. RY*(   7) C   9                  0.00045     1.98483   
   320. RY*(   8) C   9                  0.00026     1.70092   
   321. RY*(   9) C   9                  0.00022     1.63981   
   322. RY*(  10) C   9                  0.00019     2.38151   
   323. RY*(  11) C   9                  0.00016     2.08914   
   324. RY*(  12) C   9                  0.00012     2.58237   
   325. RY*(  13) C   9                  0.00006     2.18186   
   326. RY*(  14) C   9                  0.00005     2.02734   
   327. RY*(  15) C   9                  0.00004     3.09401   
   328. RY*(  16) C   9                  0.00004     3.70091   
   329. RY*(  17) C   9                  0.00000     3.26047   
   330. RY*(  18) C   9                  0.00000    20.34892   
   331. RY*(  19) C   9                  0.00000     3.58937   
   332. RY*(  20) C   9                  0.00001     3.55407   
   333. RY*(  21) C   9                  0.00000     3.72038   
   334. RY*(  22) C   9                  0.00000     3.52836   
   335. RY*(  23) C   9                  0.00000     3.41878   
   336. RY*(  24) C   9                  0.00000     3.55688   
   337. RY*(  25) C   9                  0.00000     4.10241   
   338. RY*(  26) C   9                  0.00001     3.85986   
   339. RY*(   1) C  10                  0.00388     0.76395   
   340. RY*(   2) C  10                  0.00327     1.40552   
   341. RY*(   3) C  10                  0.00178     1.44649   
   342. RY*(   4) C  10                  0.00100     1.35019   
   343. RY*(   5) C  10                  0.00075     1.62181   
   344. RY*(   6) C  10                  0.00058     1.92358   
   345. RY*(   7) C  10                  0.00045     1.98489   
   346. RY*(   8) C  10                  0.00026     1.70121   
   347. RY*(   9) C  10                  0.00022     1.63942   
   348. RY*(  10) C  10                  0.00019     2.38153   
   349. RY*(  11) C  10                  0.00016     2.08911   
   350. RY*(  12) C  10                  0.00012     2.58246   
   351. RY*(  13) C  10                  0.00006     2.18201   
   352. RY*(  14) C  10                  0.00005     2.02708   
   353. RY*(  15) C  10                  0.00004     3.09409   
   354. RY*(  16) C  10                  0.00004     3.70097   
   355. RY*(  17) C  10                  0.00000     3.26047   
   356. RY*(  18) C  10                  0.00000    20.34892   
   357. RY*(  19) C  10                  0.00000     3.58937   
   358. RY*(  20) C  10                  0.00001     3.55406   
   359. RY*(  21) C  10                  0.00000     3.72038   
   360. RY*(  22) C  10                  0.00000     3.52835   
   361. RY*(  23) C  10                  0.00000     3.41876   
   362. RY*(  24) C  10                  0.00000     3.55688   
   363. RY*(  25) C  10                  0.00000     4.10242   
   364. RY*(  26) C  10                  0.00001     3.85986   
   365. RY*(   1) N  11                  0.00667     1.64824   
   366. RY*(   2) N  11                  0.00418     0.79421   
   367. RY*(   3) N  11                  0.00260     1.36623   
   368. RY*(   4) N  11                  0.00169     1.62697   
   369. RY*(   5) N  11                  0.00079     1.96596   
   370. RY*(   6) N  11                  0.00065     2.05786   
   371. RY*(   7) N  11                  0.00057     1.79754   
   372. RY*(   8) N  11                  0.00025     2.02448   
   373. RY*(   9) N  11                  0.00022     2.13812   
   374. RY*(  10) N  11                  0.00010     4.59411   
   375. RY*(  11) N  11                  0.00008     4.27567   
   376. RY*(  12) N  11                  0.00009     4.44194   
   377. RY*(  13) N  11                  0.00005     3.29739   
   378. RY*(  14) N  11                  0.00003     4.13568   
   379. RY*(  15) N  11                  0.00003     3.96630   
   380. RY*(  16) N  11                  0.00003     4.59746   
   381. RY*(  17) N  11                  0.00001     4.50090   
   382. RY*(  18) N  11                  0.00002     5.42881   
   383. RY*(  19) N  11                  0.00001     4.79611   
   384. RY*(  20) N  11                  0.00000     4.52940   
   385. RY*(  21) N  11                  0.00000     4.61982   
   386. RY*(  22) N  11                  0.00000     4.63405   
   387. RY*(  23) N  11                  0.00000     4.71737   
   388. RY*(  24) N  11                  0.00000     4.46963   
   389. RY*(  25) N  11                  0.00000    28.62027   
   390. RY*(  26) N  11                  0.00001     5.05027   
   391. RY*(   1) C  12                  0.00496     1.31415   
   392. RY*(   2) C  12                  0.00273     1.11704   
   393. RY*(   3) C  12                  0.00231     1.33510   
   394. RY*(   4) C  12                  0.00152     1.81961   
   395. RY*(   5) C  12                  0.00109     2.16069   
   396. RY*(   6) C  12                  0.00084     2.54722   
   397. RY*(   7) C  12                  0.00069     2.02064   
   398. RY*(   8) C  12                  0.00059     2.15186   
   399. RY*(   9) C  12                  0.00037     2.01417   
   400. RY*(  10) C  12                  0.00028     2.35603   
   401. RY*(  11) C  12                  0.00024     2.87043   
   402. RY*(  12) C  12                  0.00020     2.24968   
   403. RY*(  13) C  12                  0.00015     2.23989   
   404. RY*(  14) C  12                  0.00010     2.50842   
   405. RY*(  15) C  12                  0.00008     2.20981   
   406. RY*(  16) C  12                  0.00006     3.28260   
   407. RY*(  17) C  12                  0.00007     2.88803   
   408. RY*(  18) C  12                  0.00003     3.69556   
   409. RY*(  19) C  12                  0.00001     3.53241   
   410. RY*(  20) C  12                  0.00001     3.88694   
   411. RY*(  21) C  12                  0.00000    21.47944   
   412. RY*(  22) C  12                  0.00001     3.72019   
   413. RY*(  23) C  12                  0.00001     3.54273   
   414. RY*(  24) C  12                  0.00000     3.60513   
   415. RY*(  25) C  12                  0.00001     3.91564   
   416. RY*(  26) C  12                  0.00000     3.99013   
   417. RY*(   1) C  13                  0.00326     1.38045   
   418. RY*(   2) C  13                  0.00185     1.58976   
   419. RY*(   3) C  13                  0.00140     1.88518   
   420. RY*(   4) C  13                  0.00068     2.41807   
   421. RY*(   5) C  13                  0.00064     2.33201   
   422. RY*(   6) C  13                  0.00047     2.31629   
   423. RY*(   7) C  13                  0.00035     1.99135   
   424. RY*(   8) C  13                  0.00024     1.71345   
   425. RY*(   9) C  13                  0.00017     3.24105   
   426. RY*(  10) C  13                  0.00015     2.03933   
   427. RY*(  11) C  13                  0.00012     2.15698   
   428. RY*(  12) C  13                  0.00007     2.83104   
   429. RY*(  13) C  13                  0.00003     2.61553   
   430. RY*(  14) C  13                  0.00003     2.10391   
   431. RY*(  15) C  13                  0.00004     2.59907   
   432. RY*(  16) C  13                  0.00001     3.32420   
   433. RY*(  17) C  13                  0.00001     2.07942   
   434. RY*(  18) C  13                  0.00001     2.38676   
   435. RY*(  19) C  13                  0.00001     3.25187   
   436. RY*(  20) C  13                  0.00001     3.08356   
   437. RY*(  21) C  13                  0.00000    20.80867   
   438. RY*(  22) C  13                  0.00001     3.59820   
   439. RY*(  23) C  13                  0.00000     3.45333   
   440. RY*(  24) C  13                  0.00000     3.29530   
   441. RY*(  25) C  13                  0.00000     3.25123   
   442. RY*(  26) C  13                  0.00000     3.68533   
   443. RY*(   1) C  14                  0.00143     1.08871   
   444. RY*(   2) C  14                  0.00078     1.22494   
   445. RY*(   3) C  14                  0.00027     1.02944   
   446. RY*(   4) C  14                  0.00023     1.66222   
   447. RY*(   5) C  14                  0.00020     1.57137   
   448. RY*(   6) C  14                  0.00013     1.47552   
   449. RY*(   7) C  14                  0.00012     1.50894   
   450. RY*(   8) C  14                  0.00009     1.93419   
   451. RY*(   9) C  14                  0.00006     1.87446   
   452. RY*(  10) C  14                  0.00004     2.36481   
   453. RY*(  11) C  14                  0.00004     1.93592   
   454. RY*(  12) C  14                  0.00002     1.87043   
   455. RY*(  13) C  14                  0.00000     3.47477   
   456. RY*(  14) C  14                  0.00001     2.23480   
   457. RY*(  15) C  14                  0.00000     3.11467   
   458. RY*(  16) C  14                  0.00001     2.00411   
   459. RY*(  17) C  14                  0.00000     3.12165   
   460. RY*(  18) C  14                  0.00000     3.25157   
   461. RY*(  19) C  14                  0.00000    20.90849   
   462. RY*(  20) C  14                  0.00000     3.19767   
   463. RY*(  21) C  14                  0.00000     3.66645   
   464. RY*(  22) C  14                  0.00000     3.56513   
   465. RY*(  23) C  14                  0.00000     3.28661   
   466. RY*(  24) C  14                  0.00000     3.45502   
   467. RY*(  25) C  14                  0.00000     3.20620   
   468. RY*(  26) C  14                  0.00000     3.68890   
   469. RY*(   1) C  15                  0.00130     1.05251   
   470. RY*(   2) C  15                  0.00089     1.04969   
   471. RY*(   3) C  15                  0.00032     1.48047   
   472. RY*(   4) C  15                  0.00030     1.14367   
   473. RY*(   5) C  15                  0.00017     1.44104   
   474. RY*(   6) C  15                  0.00011     1.85904   
   475. RY*(   7) C  15                  0.00011     1.68820   
   476. RY*(   8) C  15                  0.00009     2.03800   
   477. RY*(   9) C  15                  0.00007     1.65905   
   478. RY*(  10) C  15                  0.00005     1.85446   
   479. RY*(  11) C  15                  0.00003     1.72678   
   480. RY*(  12) C  15                  0.00003     1.95930   
   481. RY*(  13) C  15                  0.00000     3.21984   
   482. RY*(  14) C  15                  0.00000    20.80951   
   483. RY*(  15) C  15                  0.00000     3.06120   
   484. RY*(  16) C  15                  0.00001     2.43519   
   485. RY*(  17) C  15                  0.00000     3.30767   
   486. RY*(  18) C  15                  0.00001     2.52261   
   487. RY*(  19) C  15                  0.00000     2.88803   
   488. RY*(  20) C  15                  0.00000     3.10706   
   489. RY*(  21) C  15                  0.00000     3.74940   
   490. RY*(  22) C  15                  0.00000     3.38245   
   491. RY*(  23) C  15                  0.00000     3.39726   
   492. RY*(  24) C  15                  0.00000     3.46405   
   493. RY*(  25) C  15                  0.00000     3.45920   
   494. RY*(  26) C  15                  0.00000     3.24592   
   495. RY*(   1) C  16                  0.00313     1.38862   
   496. RY*(   2) C  16                  0.00168     1.52008   
   497. RY*(   3) C  16                  0.00134     1.83380   
   498. RY*(   4) C  16                  0.00076     2.52763   
   499. RY*(   5) C  16                  0.00063     2.12038   
   500. RY*(   6) C  16                  0.00047     1.76006   
   501. RY*(   7) C  16                  0.00038     2.49021   
   502. RY*(   8) C  16                  0.00024     2.19284   
   503. RY*(   9) C  16                  0.00015     2.20343   
   504. RY*(  10) C  16                  0.00011     2.26703   
   505. RY*(  11) C  16                  0.00010     2.56046   
   506. RY*(  12) C  16                  0.00007     2.24828   
   507. RY*(  13) C  16                  0.00005     2.75371   
   508. RY*(  14) C  16                  0.00005     3.01423   
   509. RY*(  15) C  16                  0.00001     2.02375   
   510. RY*(  16) C  16                  0.00001     2.08325   
   511. RY*(  17) C  16                  0.00001     2.49712   
   512. RY*(  18) C  16                  0.00001     2.97576   
   513. RY*(  19) C  16                  0.00000    21.05136   
   514. RY*(  20) C  16                  0.00000     3.28517   
   515. RY*(  21) C  16                  0.00001     2.89179   
   516. RY*(  22) C  16                  0.00001     3.56248   
   517. RY*(  23) C  16                  0.00000     3.47244   
   518. RY*(  24) C  16                  0.00001     3.45139   
   519. RY*(  25) C  16                  0.00000     3.36996   
   520. RY*(  26) C  16                  0.00001     3.68247   
   521. RY*(   1) C  17                  0.00137     1.11280   
   522. RY*(   2) C  17                  0.00092     1.34559   
   523. RY*(   3) C  17                  0.00037     0.97821   
   524. RY*(   4) C  17                  0.00027     1.40507   
   525. RY*(   5) C  17                  0.00018     1.92881   
   526. RY*(   6) C  17                  0.00017     1.30373   
   527. RY*(   7) C  17                  0.00011     1.64973   
   528. RY*(   8) C  17                  0.00007     1.62523   
   529. RY*(   9) C  17                  0.00005     1.83122   
   530. RY*(  10) C  17                  0.00004     2.25204   
   531. RY*(  11) C  17                  0.00003     1.90872   
   532. RY*(  12) C  17                  0.00003     1.68586   
   533. RY*(  13) C  17                  0.00000     3.38835   
   534. RY*(  14) C  17                  0.00001     2.30727   
   535. RY*(  15) C  17                  0.00000     3.17100   
   536. RY*(  16) C  17                  0.00000     3.11661   
   537. RY*(  17) C  17                  0.00001     3.03272   
   538. RY*(  18) C  17                  0.00000    20.90865   
   539. RY*(  19) C  17                  0.00001     2.44672   
   540. RY*(  20) C  17                  0.00001     3.32338   
   541. RY*(  21) C  17                  0.00000     3.69463   
   542. RY*(  22) C  17                  0.00000     3.36143   
   543. RY*(  23) C  17                  0.00000     3.20154   
   544. RY*(  24) C  17                  0.00000     3.42061   
   545. RY*(  25) C  17                  0.00000     3.34587   
   546. RY*(  26) C  17                  0.00000     3.67666   
   547. RY*(   1) C  18                  0.00127     1.08708   
   548. RY*(   2) C  18                  0.00097     1.13728   
   549. RY*(   3) C  18                  0.00032     1.42980   
   550. RY*(   4) C  18                  0.00024     1.17226   
   551. RY*(   5) C  18                  0.00014     1.67189   
   552. RY*(   6) C  18                  0.00015     1.87290   
   553. RY*(   7) C  18                  0.00009     1.67234   
   554. RY*(   8) C  18                  0.00006     1.49949   
   555. RY*(   9) C  18                  0.00007     1.87999   
   556. RY*(  10) C  18                  0.00004     1.97102   
   557. RY*(  11) C  18                  0.00002     1.68530   
   558. RY*(  12) C  18                  0.00001     1.90894   
   559. RY*(  13) C  18                  0.00000     2.71672   
   560. RY*(  14) C  18                  0.00000    20.36390   
   561. RY*(  15) C  18                  0.00000     3.19826   
   562. RY*(  16) C  18                  0.00001     2.36414   
   563. RY*(  17) C  18                  0.00001     2.99830   
   564. RY*(  18) C  18                  0.00000     2.95134   
   565. RY*(  19) C  18                  0.00000     3.29651   
   566. RY*(  20) C  18                  0.00000     3.33870   
   567. RY*(  21) C  18                  0.00000     3.55913   
   568. RY*(  22) C  18                  0.00000     3.24703   
   569. RY*(  23) C  18                  0.00000     3.40528   
   570. RY*(  24) C  18                  0.00000     3.48155   
   571. RY*(  25) C  18                  0.00000     3.45062   
   572. RY*(  26) C  18                  0.00000     3.53360   
   573. RY*(   1) C  19                  0.00677     4.04456   
   574. RY*(   2) C  19                  0.00440     1.52806   
   575. RY*(   3) C  19                  0.00352     1.13844   
   576. RY*(   4) C  19                  0.00320     1.34263   
   577. RY*(   5) C  19                  0.00131     2.40681   
   578. RY*(   6) C  19                  0.00086     2.70458   
   579. RY*(   7) C  19                  0.00079     2.88345   
   580. RY*(   8) C  19                  0.00035     2.23255   
   581. RY*(   9) C  19                  0.00028     3.49810   
   582. RY*(  10) C  19                  0.00028     1.66865   
   583. RY*(  11) C  19                  0.00028     2.44864   
   584. RY*(  12) C  19                  0.00014     2.89876   
   585. RY*(  13) C  19                  0.00010     2.57358   
   586. RY*(  14) C  19                  0.00007     3.50283   
   587. RY*(  15) C  19                  0.00007     3.48273   
   588. RY*(  16) C  19                  0.00005     2.33796   
   589. RY*(  17) C  19                  0.00004     1.91561   
   590. RY*(  18) C  19                  0.00002     3.91515   
   591. RY*(  19) C  19                  0.00001     3.99541   
   592. RY*(  20) C  19                  0.00000     3.40531   
   593. RY*(  21) C  19                  0.00000     4.00524   
   594. RY*(  22) C  19                  0.00000     3.32185   
   595. RY*(  23) C  19                  0.00000     3.24509   
   596. RY*(  24) C  19                  0.00000     3.81628   
   597. RY*(  25) C  19                  0.00001     4.11382   
   598. RY*(  26) C  19                  0.00000    22.00022   
   599. RY*(   1)Ni  20                  0.00286     1.07413   
   600. RY*(   2)Ni  20                  0.00257     0.90952   
   601. RY*(   3)Ni  20                  0.00088     0.75256   
   602. RY*(   4)Ni  20                  0.00087     0.77576   
   603. RY*(   5)Ni  20                  0.00076     0.93931   
   604. RY*(   6)Ni  20                  0.00065     0.37251   
   605. RY*(   7)Ni  20                  0.00056     2.01513   
   606. RY*(   8)Ni  20                  0.00048     1.16555   
   607. RY*(   9)Ni  20                  0.00033     8.08314   
   608. RY*(  10)Ni  20                  0.00021     9.93302   
   609. RY*(  11)Ni  20                  0.00013     1.87448   
   610. RY*(  12)Ni  20                  0.00008     4.11235   
   611. RY*(  13)Ni  20                  0.00008     1.83009   
   612. RY*(  14)Ni  20                  0.00005     3.85944   
   613. RY*(  15)Ni  20                  0.00005     4.07736   
   614. RY*(  16)Ni  20                  0.00005    31.64038   
   615. RY*(  17)Ni  20                  0.00004     1.92951   
   616. RY*(  18)Ni  20                  0.00002     2.43338   
   617. RY*(  19)Ni  20                  0.00001     1.79704   
   618. RY*(  20)Ni  20                  0.00002     2.15889   
   619. RY*(  21)Ni  20                  0.00000    56.10595   
   620. RY*(  22)Ni  20                  0.00000    56.34792   
   621. RY*(  23)Ni  20                  0.00000    56.36801   
   622. RY*(  24)Ni  20                  0.00000     6.12287   
   623. RY*(  25)Ni  20                  0.00000     6.16854   
   624. RY*(  26)Ni  20                  0.00000     6.19733   
   625. RY*(  27)Ni  20                  0.00000     6.25715   
   626. RY*(  28)Ni  20                  0.00000     6.14550   
   627. RY*(  29)Ni  20                  0.00000     6.16697   
   628. RY*(  30)Ni  20                  0.00000     6.24262   
   629. RY*(   1) C  21                  0.02357     1.00545   
   630. RY*(   2) C  21                  0.00521     3.92460   
   631. RY*(   3) C  21                  0.00188     0.92397   
   632. RY*(   4) C  21                  0.00177     1.06946   
   633. RY*(   5) C  21                  0.00118     2.71016   
   634. RY*(   6) C  21                  0.00111     2.74426   
   635. RY*(   7) C  21                  0.00013     2.43940   
   636. RY*(   8) C  21                  0.00010     1.73918   
   637. RY*(   9) C  21                  0.00009     1.33967   
   638. RY*(  10) C  21                  0.00006     1.35113   
   639. RY*(  11) C  21                  0.00006     1.47037   
   640. RY*(  12) C  21                  0.00006     2.81883   
   641. RY*(  13) C  21                  0.00003     2.69451   
   642. RY*(  14) C  21                  0.00001     2.89587   
   643. RY*(  15) C  21                  0.00001     2.36995   
   644. RY*(  16) C  21                  0.00000     3.07768   
   645. RY*(  17) C  21                  0.00000     3.10776   
   646. RY*(  18) C  21                  0.00001     2.65684   
   647. RY*(  19) C  21                  0.00000    20.03365   
   648. RY*(  20) C  21                  0.00000     3.84040   
   649. RY*(  21) C  21                  0.00000     3.51440   
   650. RY*(  22) C  21                  0.00001     3.58104   
   651. RY*(  23) C  21                  0.00000     3.18581   
   652. RY*(  24) C  21                  0.00000     3.20233   
   653. RY*(  25) C  21                  0.00000     2.80251   
   654. RY*(  26) C  21                  0.00000     2.78139   
   655. RY*(   1) O  22                  0.00280     1.53997   
   656. RY*(   2) O  22                  0.00192     0.79383   
   657. RY*(   3) O  22                  0.00190     0.77539   
   658. RY*(   4) O  22                  0.00020     1.01635   
   659. RY*(   5) O  22                  0.00006     4.24136   
   660. RY*(   6) O  22                  0.00001     3.30643   
   661. RY*(   7) O  22                  0.00002     1.67803   
   662. RY*(   8) O  22                  0.00002     1.73445   
   663. RY*(   9) O  22                  0.00001     2.21510   
   664. RY*(  10) O  22                  0.00001     2.93665   
   665. RY*(  11) O  22                  0.00001     1.87900   
   666. RY*(  12) O  22                  0.00000     2.69611   
   667. RY*(  13) O  22                  0.00000     6.14185   
   668. RY*(  14) O  22                  0.00000    42.14959   
   669. RY*(  15) O  22                  0.00000     6.40053   
   670. RY*(  16) O  22                  0.00001     1.60073   
   671. RY*(  17) O  22                  0.00000     6.19124   
   672. RY*(  18) O  22                  0.00000     6.21813   
   673. RY*(  19) O  22                  0.00000     6.42502   
   674. RY*(  20) O  22                  0.00000     5.65907   
   675. RY*(  21) O  22                  0.00000     5.54321   
   676. RY*(  22) O  22                  0.00000     5.76013   
   677. RY*(  23) O  22                  0.00000     5.40482   
   678. RY*(  24) O  22                  0.00000     5.42618   
   679. RY*(  25) O  22                  0.00000     5.16532   
   680. RY*(  26) O  22                  0.00000     5.17044   
   681. RY*(   1) C  23                  0.02369     1.05649   
   682. RY*(   2) C  23                  0.00534     4.35508   
   683. RY*(   3) C  23                  0.00221     1.01258   
   684. RY*(   4) C  23                  0.00176     1.22050   
   685. RY*(   5) C  23                  0.00122     2.55793   
   686. RY*(   6) C  23                  0.00115     2.62050   
   687. RY*(   7) C  23                  0.00018     1.55754   
   688. RY*(   8) C  23                  0.00011     1.48269   
   689. RY*(   9) C  23                  0.00010     2.94032   
   690. RY*(  10) C  23                  0.00006     1.54271   
   691. RY*(  11) C  23                  0.00006     1.79857   
   692. RY*(  12) C  23                  0.00003     3.25009   
   693. RY*(  13) C  23                  0.00004     1.72574   
   694. RY*(  14) C  23                  0.00002     3.50938   
   695. RY*(  15) C  23                  0.00000     3.03049   
   696. RY*(  16) C  23                  0.00000     2.93093   
   697. RY*(  17) C  23                  0.00001     2.63212   
   698. RY*(  18) C  23                  0.00000    19.61890   
   699. RY*(  19) C  23                  0.00001     2.68980   
   700. RY*(  20) C  23                  0.00000     3.06524   
   701. RY*(  21) C  23                  0.00000     3.43121   
   702. RY*(  22) C  23                  0.00000     3.00592   
   703. RY*(  23) C  23                  0.00000     3.14666   
   704. RY*(  24) C  23                  0.00000     3.25558   
   705. RY*(  25) C  23                  0.00000     3.20316   
   706. RY*(  26) C  23                  0.00000     3.16534   
   707. RY*(   1) O  24                  0.00294     1.53213   
   708. RY*(   2) O  24                  0.00228     0.82834   
   709. RY*(   3) O  24                  0.00187     0.77822   
   710. RY*(   4) O  24                  0.00020     1.02196   
   711. RY*(   5) O  24                  0.00008     3.33764   
   712. RY*(   6) O  24                  0.00005     3.32073   
   713. RY*(   7) O  24                  0.00002     1.96272   
   714. RY*(   8) O  24                  0.00001     2.86325   
   715. RY*(   9) O  24                  0.00001     2.77150   
   716. RY*(  10) O  24                  0.00001     1.92327   
   717. RY*(  11) O  24                  0.00001     2.04979   
   718. RY*(  12) O  24                  0.00000    42.14385   
   719. RY*(  13) O  24                  0.00000     6.12832   
   720. RY*(  14) O  24                  0.00001     1.78777   
   721. RY*(  15) O  24                  0.00000     6.25862   
   722. RY*(  16) O  24                  0.00000     6.34828   
   723. RY*(  17) O  24                  0.00000     6.29074   
   724. RY*(  18) O  24                  0.00000     2.46137   
   725. RY*(  19) O  24                  0.00000     6.25708   
   726. RY*(  20) O  24                  0.00000     5.37469   
   727. RY*(  21) O  24                  0.00000     5.51750   
   728. RY*(  22) O  24                  0.00000     5.31163   
   729. RY*(  23) O  24                  0.00000     5.42297   
   730. RY*(  24) O  24                  0.00000     5.54488   
   731. RY*(  25) O  24                  0.00000     5.46874   
   732. RY*(  26) O  24                  0.00000     5.48080   
   733. RY*(   1) C  25                  0.02369     1.05651   
   734. RY*(   2) C  25                  0.00534     4.35522   
   735. RY*(   3) C  25                  0.00221     1.01256   
   736. RY*(   4) C  25                  0.00176     1.22053   
   737. RY*(   5) C  25                  0.00122     2.55792   
   738. RY*(   6) C  25                  0.00115     2.62049   
   739. RY*(   7) C  25                  0.00018     1.55759   
   740. RY*(   8) C  25                  0.00011     1.48275   
   741. RY*(   9) C  25                  0.00010     2.94024   
   742. RY*(  10) C  25                  0.00006     1.54294   
   743. RY*(  11) C  25                  0.00006     1.79840   
   744. RY*(  12) C  25                  0.00003     3.25037   
   745. RY*(  13) C  25                  0.00004     1.72561   
   746. RY*(  14) C  25                  0.00002     3.50931   
   747. RY*(  15) C  25                  0.00000     3.03045   
   748. RY*(  16) C  25                  0.00000     2.93090   
   749. RY*(  17) C  25                  0.00001     2.63213   
   750. RY*(  18) C  25                  0.00000    19.61887   
   751. RY*(  19) C  25                  0.00001     2.68988   
   752. RY*(  20) C  25                  0.00000     3.06509   
   753. RY*(  21) C  25                  0.00000     3.43117   
   754. RY*(  22) C  25                  0.00000     3.00588   
   755. RY*(  23) C  25                  0.00000     3.14659   
   756. RY*(  24) C  25                  0.00000     3.25555   
   757. RY*(  25) C  25                  0.00000     3.20335   
   758. RY*(  26) C  25                  0.00000     3.16542   
   759. RY*(   1) O  26                  0.00294     1.53216   
   760. RY*(   2) O  26                  0.00228     0.82832   
   761. RY*(   3) O  26                  0.00187     0.77821   
   762. RY*(   4) O  26                  0.00020     1.02197   
   763. RY*(   5) O  26                  0.00008     3.33808   
   764. RY*(   6) O  26                  0.00005     3.32029   
   765. RY*(   7) O  26                  0.00002     1.96264   
   766. RY*(   8) O  26                  0.00001     2.86324   
   767. RY*(   9) O  26                  0.00001     2.77144   
   768. RY*(  10) O  26                  0.00001     1.92336   
   769. RY*(  11) O  26                  0.00001     2.04990   
   770. RY*(  12) O  26                  0.00000    42.14385   
   771. RY*(  13) O  26                  0.00000     6.12823   
   772. RY*(  14) O  26                  0.00001     1.78785   
   773. RY*(  15) O  26                  0.00000     6.25861   
   774. RY*(  16) O  26                  0.00000     6.34836   
   775. RY*(  17) O  26                  0.00000     6.29076   
   776. RY*(  18) O  26                  0.00000     2.46132   
   777. RY*(  19) O  26                  0.00000     6.25705   
   778. RY*(  20) O  26                  0.00000     5.37454   
   779. RY*(  21) O  26                  0.00000     5.51753   
   780. RY*(  22) O  26                  0.00000     5.31158   
   781. RY*(  23) O  26                  0.00000     5.42289   
   782. RY*(  24) O  26                  0.00000     5.54486   
   783. RY*(  25) O  26                  0.00000     5.46885   
   784. RY*(  26) O  26                  0.00000     5.48089   
   785. RY*(   1) H  27                  0.00043     1.09726   
   786. RY*(   2) H  27                  0.00013     1.67433   
   787. RY*(   3) H  27                  0.00011     2.21478   
   788. RY*(   4) H  27                  0.00008     2.18993   
   789. RY*(   5) H  27                  0.00000     2.99058   
   790. RY*(   1) H  28                  0.00058     1.31686   
   791. RY*(   2) H  28                  0.00014     1.86227   
   792. RY*(   3) H  28                  0.00011     1.84425   
   793. RY*(   4) H  28                  0.00009     2.24591   
   794. RY*(   5) H  28                  0.00002     2.94029   
   795. RY*(   1) H  29                  0.00034     1.06637   
   796. RY*(   2) H  29                  0.00023     1.66840   
   797. RY*(   3) H  29                  0.00014     2.39253   
   798. RY*(   4) H  29                  0.00009     2.15513   
   799. RY*(   5) H  29                  0.00002     3.00875   
   800. RY*(   1) H  30                  0.00079     0.83591   
   801. RY*(   2) H  30                  0.00029     2.62752   
   802. RY*(   3) H  30                  0.00019     2.41937   
   803. RY*(   4) H  30                  0.00009     2.61930   
   804. RY*(   5) H  30                  0.00001     3.13404   
   805. RY*(   1) H  31                  0.00069     1.04554   
   806. RY*(   2) H  31                  0.00017     2.06889   
   807. RY*(   3) H  31                  0.00011     2.22868   
   808. RY*(   4) H  31                  0.00012     2.37313   
   809. RY*(   5) H  31                  0.00002     3.07964   
   810. RY*(   1) H  32                  0.00099     0.87746   
   811. RY*(   2) H  32                  0.00023     2.31659   
   812. RY*(   3) H  32                  0.00010     2.41748   
   813. RY*(   4) H  32                  0.00007     2.19466   
   814. RY*(   5) H  32                  0.00002     2.98782   
   815. RY*(   1) H  33                  0.00037     1.19981   
   816. RY*(   2) H  33                  0.00016     1.75947   
   817. RY*(   3) H  33                  0.00011     2.20176   
   818. RY*(   4) H  33                  0.00008     2.10012   
   819. RY*(   5) H  33                  0.00001     2.95739   
   820. RY*(   1) H  34                  0.00205     1.20089   
   821. RY*(   2) H  34                  0.00037     2.69119   
   822. RY*(   3) H  34                  0.00017     2.73001   
   823. RY*(   4) H  34                  0.00012     2.79152   
   824. RY*(   5) H  34                  0.00002     3.18331   
   825. RY*(   1) H  35                  0.00066     0.79261   
   826. RY*(   2) H  35                  0.00030     2.58780   
   827. RY*(   3) H  35                  0.00017     2.40354   
   828. RY*(   4) H  35                  0.00009     2.65672   
   829. RY*(   5) H  35                  0.00001     3.12528   
   830. RY*(   1) H  36                  0.00069     1.20230   
   831. RY*(   2) H  36                  0.00014     2.00615   
   832. RY*(   3) H  36                  0.00011     2.35848   
   833. RY*(   4) H  36                  0.00007     1.78249   
   834. RY*(   5) H  36                  0.00002     2.95959   
   835. RY*(   1) H  37                  0.00041     1.07177   
   836. RY*(   2) H  37                  0.00024     1.72548   
   837. RY*(   3) H  37                  0.00013     2.34586   
   838. RY*(   4) H  37                  0.00011     2.16318   
   839. RY*(   5) H  37                  0.00002     2.99225   
   840. RY*(   1) H  38                  0.00042     1.07665   
   841. RY*(   2) H  38                  0.00013     1.75161   
   842. RY*(   3) H  38                  0.00010     2.15173   
   843. RY*(   4) H  38                  0.00007     2.24340   
   844. RY*(   5) H  38                  0.00001     2.95512   
   845. RY*(   1) H  39                  0.00095     1.08099   
   846. RY*(   2) H  39                  0.00019     1.94691   
   847. RY*(   3) H  39                  0.00011     2.18101   
   848. RY*(   4) H  39                  0.00008     2.36946   
   849. RY*(   5) H  39                  0.00003     3.02638   
   850. RY*(   1) H  40                  0.00038     1.16656   
   851. RY*(   2) H  40                  0.00014     1.75802   
   852. RY*(   3) H  40                  0.00010     2.13587   
   853. RY*(   4) H  40                  0.00007     2.19874   
   854. RY*(   5) H  40                  0.00001     2.95888   
   855. RY*(   1) H  41                  0.00078     1.54358   
   856. RY*(   2) H  41                  0.00020     1.76035   
   857. RY*(   3) H  41                  0.00012     2.24521   
   858. RY*(   4) H  41                  0.00008     2.00903   
   859. RY*(   5) H  41                  0.00002     3.07734   
   860. RY*(   1) H  42                  0.00042     1.92447   
   861. RY*(   2) H  42                  0.00027     2.19193   
   862. RY*(   3) H  42                  0.00006     2.51776   
   863. RY*(   4) H  42                  0.00006     1.31470   
   864. RY*(   5) H  42                  0.00001     2.91460   
   865. RY*(   1) H  43                  0.00042     1.92448   
   866. RY*(   2) H  43                  0.00027     2.19193   
   867. RY*(   3) H  43                  0.00006     2.51777   
   868. RY*(   4) H  43                  0.00006     1.31470   
   869. RY*(   5) H  43                  0.00001     2.91460   
   870. RY*(   1) H  44                  0.00205     1.20081   
   871. RY*(   2) H  44                  0.00037     2.69118   
   872. RY*(   3) H  44                  0.00017     2.73003   
   873. RY*(   4) H  44                  0.00012     2.79153   
   874. RY*(   5) H  44                  0.00002     3.18331   
   875. RY*(   1) H  45                  0.00066     0.79262   
   876. RY*(   2) H  45                  0.00030     2.58779   
   877. RY*(   3) H  45                  0.00017     2.40354   
   878. RY*(   4) H  45                  0.00009     2.65671   
   879. RY*(   5) H  45                  0.00001     3.12527   
   880. RY*(   1) H  46                  0.00038     1.16655   
   881. RY*(   2) H  46                  0.00014     1.75803   
   882. RY*(   3) H  46                  0.00010     2.13589   
   883. RY*(   4) H  46                  0.00007     2.19874   
   884. RY*(   5) H  46                  0.00001     2.95888   
   885. RY*(   1) H  47                  0.00095     1.08099   
   886. RY*(   2) H  47                  0.00019     1.94696   
   887. RY*(   3) H  47                  0.00011     2.18105   
   888. RY*(   4) H  47                  0.00008     2.36943   
   889. RY*(   5) H  47                  0.00003     3.02637   
   890. RY*(   1) H  48                  0.00078     1.54360   
   891. RY*(   2) H  48                  0.00020     1.76033   
   892. RY*(   3) H  48                  0.00012     2.24526   
   893. RY*(   4) H  48                  0.00008     2.00902   
   894. RY*(   5) H  48                  0.00002     3.07734   
   895. RY*(   1) H  49                  0.00069     1.20232   
   896. RY*(   2) H  49                  0.00014     2.00613   
   897. RY*(   3) H  49                  0.00011     2.35847   
   898. RY*(   4) H  49                  0.00007     1.78250   
   899. RY*(   5) H  49                  0.00002     2.95959   
   900. RY*(   1) H  50                  0.00042     1.07664   
   901. RY*(   2) H  50                  0.00013     1.75160   
   902. RY*(   3) H  50                  0.00010     2.15174   
   903. RY*(   4) H  50                  0.00007     2.24341   
   904. RY*(   5) H  50                  0.00001     2.95512   
   905. RY*(   1) H  51                  0.00041     1.07186   
   906. RY*(   2) H  51                  0.00024     1.72540   
   907. RY*(   3) H  51                  0.00013     2.34583   
   908. RY*(   4) H  51                  0.00011     2.16321   
   909. RY*(   5) H  51                  0.00002     2.99225   
   910. RY*(   1) H  52                  0.00079     0.83591   
   911. RY*(   2) H  52                  0.00029     2.62752   
   912. RY*(   3) H  52                  0.00019     2.41938   
   913. RY*(   4) H  52                  0.00009     2.61930   
   914. RY*(   5) H  52                  0.00001     3.13404   
   915. RY*(   1) H  53                  0.00069     1.04555   
   916. RY*(   2) H  53                  0.00017     2.06888   
   917. RY*(   3) H  53                  0.00011     2.22869   
   918. RY*(   4) H  53                  0.00012     2.37312   
   919. RY*(   5) H  53                  0.00002     3.07963   
   920. RY*(   1) H  54                  0.00037     1.19981   
   921. RY*(   2) H  54                  0.00016     1.75950   
   922. RY*(   3) H  54                  0.00011     2.20175   
   923. RY*(   4) H  54                  0.00008     2.10010   
   924. RY*(   5) H  54                  0.00001     2.95739   
   925. RY*(   1) H  55                  0.00099     0.87749   
   926. RY*(   2) H  55                  0.00023     2.31660   
   927. RY*(   3) H  55                  0.00010     2.41747   
   928. RY*(   4) H  55                  0.00007     2.19466   
   929. RY*(   5) H  55                  0.00002     2.98782   
   930. RY*(   1) H  56                  0.00058     1.31686   
   931. RY*(   2) H  56                  0.00014     1.86231   
   932. RY*(   3) H  56                  0.00011     1.84420   
   933. RY*(   4) H  56                  0.00009     2.24592   
   934. RY*(   5) H  56                  0.00002     2.94029   
   935. RY*(   1) H  57                  0.00043     1.09727   
   936. RY*(   2) H  57                  0.00013     1.67432   
   937. RY*(   3) H  57                  0.00011     2.21477   
   938. RY*(   4) H  57                  0.00008     2.18993   
   939. RY*(   5) H  57                  0.00000     2.99058   
   940. RY*(   1) H  58                  0.00034     1.06647   
   941. RY*(   2) H  58                  0.00023     1.66827   
   942. RY*(   3) H  58                  0.00014     2.39252   
   943. RY*(   4) H  58                  0.00009     2.15514   
   944. RY*(   5) H  58                  0.00002     3.00874   
   945. BD*(   1) C   1 - C   2          0.01208     0.35245   
   946. BD*(   1) C   1 - H  27          0.00671     0.38138   
   947. BD*(   1) C   1 - H  28          0.00987     0.37308   
   948. BD*(   1) C   1 - H  29          0.00635     0.38377   
   949. BD*(   1) C   2 - C   3          0.01283     0.35471   
   950. BD*(   1) C   2 - C   4          0.03452     0.34025   
   951. BD*(   1) C   2 - H  30          0.02714     0.34755   
   952. BD*(   1) C   3 - H  31          0.00681     0.38611   
   953. BD*(   1) C   3 - H  32          0.01019     0.38010   
   954. BD*(   1) C   3 - H  33          0.00579     0.38090   
   955. BD*(   1) C   4 - C   5          0.03763     0.33760   
   956. BD*(   1) C   4 - N   8          0.04036     0.32525   
   957. BD*(   1) C   4 - H  34          0.02574     0.38172   
   958. BD*(   1) C   5 - C   6          0.01701     0.35053   
   959. BD*(   1) C   5 - C   7          0.01278     0.35724   
   960. BD*(   1) C   5 - H  35          0.02244     0.35343   
   961. BD*(   1) C   6 - H  36          0.01048     0.37668   
   962. BD*(   1) C   6 - H  37          0.00682     0.38218   
   963. BD*(   1) C   6 - H  38          0.00671     0.38095   
   964. BD*(   1) C   7 - H  39          0.01050     0.37751   
   965. BD*(   1) C   7 - H  40          0.00614     0.38130   
   966. BD*(   1) C   7 - H  41          0.00698     0.39218   
   967. BD*(   1) N   8 - C   9          0.03545     0.42802   
   968. BD*(   1) N   8 - C  19          0.02845     0.47391   
   969. BD*(   2) N   8 - C  19          0.44853    -0.00796  971(v),575(g),1003(r),955(v)
                                                    288(g),291(g),577(g),950(v)
                                                    999(v)
   970. BD*(   1) C   9 - C  10          0.00883     0.56432   
   971. BD*(   2) C   9 - C  10          0.26941     0.02012  969(v)
   972. BD*(   1) C   9 - H  42          0.01169     0.40107   
   973. BD*(   1) C  10 - N  11          0.03545     0.42801   
   974. BD*(   1) C  10 - H  43          0.01169     0.40107   
   975. BD*(   1) N  11 - C  12          0.04036     0.32525   
   976. BD*(   1) N  11 - C  19          0.02845     0.47392   
   977. BD*(   1) C  12 - C  13          0.03763     0.33760   
   978. BD*(   1) C  12 - C  16          0.03452     0.34025   
   979. BD*(   1) C  12 - H  44          0.02575     0.38172   
   980. BD*(   1) C  13 - C  14          0.01278     0.35724   
   981. BD*(   1) C  13 - C  15          0.01701     0.35053   
   982. BD*(   1) C  13 - H  45          0.02244     0.35343   
   983. BD*(   1) C  14 - H  46          0.00614     0.38130   
   984. BD*(   1) C  14 - H  47          0.01050     0.37751   
   985. BD*(   1) C  14 - H  48          0.00698     0.39218   
   986. BD*(   1) C  15 - H  49          0.01048     0.37668   
   987. BD*(   1) C  15 - H  50          0.00671     0.38095   
   988. BD*(   1) C  15 - H  51          0.00682     0.38218   
   989. BD*(   1) C  16 - C  17          0.01283     0.35471   
   990. BD*(   1) C  16 - C  18          0.01208     0.35245   
   991. BD*(   1) C  16 - H  52          0.02714     0.34755   
   992. BD*(   1) C  17 - H  53          0.00681     0.38611   
   993. BD*(   1) C  17 - H  54          0.00579     0.38090   
   994. BD*(   1) C  17 - H  55          0.01019     0.38010   
   995. BD*(   1) C  18 - H  56          0.00987     0.37308   
   996. BD*(   1) C  18 - H  57          0.00671     0.38138   
   997. BD*(   1) C  18 - H  58          0.00635     0.38377   
   998. BD*(   1) C  19 -Ni  20          0.01351     0.54587   
   999. BD*(   1)Ni  20 - C  21          0.00912     0.60907   
  1000. BD*(   1)Ni  20 - C  23          0.01010     0.60127   
  1001. BD*(   1)Ni  20 - C  25          0.01010     0.60127   
  1002. BD*(   1) C  21 - O  22          0.01390     0.70454   
  1003. BD*(   2) C  21 - O  22          0.15014     0.04760  631(g),656(g),998(v),633(g)
                                                    1002(g)
  1004. BD*(   3) C  21 - O  22          0.14633     0.04135  632(g),657(g),634(g)
  1005. BD*(   1) C  23 - O  24          0.02626     0.65204   
  1006. BD*(   2) C  23 - O  24          0.14357     0.06037  1009(r),1007(g),1005(g)
                                                    683(g),709(g),686(g),1010(r)
  1007. BD*(   3) C  23 - O  24          0.16153     0.07095  1010(r),1006(g),1005(g)
                                                    684(g),998(v),708(g),1009(r)
                                                    681(g),685(g)
  1008. BD*(   1) C  25 - O  26          0.02626     0.65203   
  1009. BD*(   2) C  25 - O  26          0.14357     0.06038  1006(r),1010(g),1008(g)
                                                    735(g),761(g),738(g),1007(r)
  1010. BD*(   3) C  25 - O  26          0.16153     0.07095  1007(r),1009(g),1008(g)
                                                    736(g),998(v),760(g),1006(r)
                                                    733(g),737(g)
       -------------------------------
              Total Lewis  215.07576  ( 98.6586%)
        Valence non-Lewis    2.56567  (  1.1769%)
        Rydberg non-Lewis    0.35857  (  0.1645%)
       -------------------------------
            Total unit  1  218.00000  (100.0000%)
           Charge unit  1    0.00000


 NATURAL LOCALIZED MOLECULAR ORBITAL (NLMO) ANALYSIS:
 NLMO:  NTime=     10000 OffTop= 1.76D-04 Done= 1.00D-06

 Maximum off-diagonal element of DM in NLMO basis: 9.99D-07 NIter=     14546

 Hybridization/Polarization Analysis of NLMOs in NAO Basis:
 NLMO/Occupancy/Percent from Parent NBO/ Atomic Hybrid Contributions
 -------------------------------------------------------------------------------
     1. (2.00000)  99.0686%  BD ( 1) C   1 C   2      
                           48.723%  C    1 s( 28.90%)p 2.46( 70.97%)d 0.00(  0.12%)
                                                  f 0.00(  0.01%)
                           50.357%  C    2 s( 25.50%)p 2.92( 74.43%)d 0.00(  0.06%)
                                                  f 0.00(  0.00%)
                            0.138%  C    3 s(  1.88%)p50.06( 94.20%)d 1.97(  3.70%)
                                                  f 0.11(  0.21%)
                            0.300%  C    4 s(  7.27%)p12.20( 88.76%)d 0.51(  3.73%)
                                                  f 0.03(  0.24%)
                            0.011%  C    5 s( 39.45%)p 1.10( 43.29%)d 0.37( 14.69%)
                                                  f 0.07(  2.57%)
                            0.162%  N    8 s( 40.43%)p 1.42( 57.26%)d 0.05(  2.03%)
                                                  f 0.01(  0.29%)
                            0.021%  C    9 s( 11.10%)p 7.04( 78.21%)d 0.95( 10.50%)
                                                  f 0.02(  0.19%)
                            0.026%  C   19 s( 16.24%)p 5.02( 81.45%)d 0.14(  2.22%)
                                                  f 0.01(  0.08%)
                            0.012%  H   30 s( 53.94%)p 0.85( 46.06%)
                            0.135%  H   31 s( 99.68%)p 0.00(  0.32%)
                            0.018%  H   32 s( 99.97%)p 0.00(  0.03%)
                            0.019%  H   33 s( 99.25%)p 0.01(  0.75%)
                            0.022%  H   34 s( 98.30%)p 0.02(  1.70%)
     2. (2.00000)  99.3442%  BD ( 1) C   1 H  27      
                           60.695%  C    1 s( 22.65%)p 3.41( 77.19%)d 0.01(  0.15%)
                                                  f 0.00(  0.01%)
                            0.270%  C    2 s(  3.95%)p21.96( 86.85%)d 2.25(  8.88%)
                                                  f 0.08(  0.32%)
                            0.031%  C    3 s( 50.95%)p 0.70( 35.86%)d 0.23( 11.80%)
                                                  f 0.03(  1.39%)
                            0.247%  C    4 s( 38.29%)p 1.56( 59.87%)d 0.04(  1.36%)
                                                  f 0.01(  0.47%)
                            0.025%  N    8 s( 46.72%)p 1.09( 50.73%)d 0.04(  1.98%)
                                                  f 0.01(  0.57%)
                            0.010%  C   19 s(  9.27%)p 9.53( 88.41%)d 0.20(  1.85%)
                                                  f 0.05(  0.47%)
                           38.652%  H   27 s( 99.97%)p 0.00(  0.03%)
                            0.017%  H   30 s( 98.66%)p 0.01(  1.34%)
                            0.011%  H   31 s( 96.72%)p 0.03(  3.28%)
     3. (2.00000)  99.4194%  BD ( 1) C   1 H  28      
                           60.451%  C    1 s( 22.84%)p 3.37( 77.02%)d 0.01(  0.14%)
                                                  f 0.00(  0.01%)
                            0.223%  C    2 s(  4.55%)p19.18( 87.24%)d 1.76(  7.98%)
                                                  f 0.05(  0.23%)
                            0.016%  C    3 s( 35.25%)p 1.04( 36.51%)d 0.75( 26.55%)
                                                  f 0.05(  1.69%)
                            0.043%  C    4 s( 67.11%)p 0.35( 23.24%)d 0.13(  8.83%)
                                                  f 0.01(  0.81%)
                           38.970%  H   28 s( 99.97%)p 0.00(  0.03%)
                            0.220%  H   30 s( 99.12%)p 0.01(  0.88%)
     4. (2.00000)  99.3962%  BD ( 1) C   1 H  29      
                           60.605%  C    1 s( 23.33%)p 3.28( 76.52%)d 0.01(  0.14%)
                                                  f 0.00(  0.01%)
                            0.234%  C    2 s(  3.25%)p27.50( 89.35%)d 2.21(  7.18%)
                                                  f 0.07(  0.23%)
                            0.196%  C    3 s( 33.02%)p 1.94( 63.91%)d 0.07(  2.42%)
                                                  f 0.02(  0.65%)
                            0.021%  C    4 s( 51.88%)p 0.85( 43.84%)d 0.05(  2.69%)
                                                  f 0.03(  1.60%)
                            0.028%  C    5 s( 18.12%)p 4.21( 76.25%)d 0.26(  4.77%)
                                                  f 0.05(  0.86%)
                            0.012%  C    6 s( 14.56%)p 4.82( 70.25%)d 0.97( 14.09%)
                                                  f 0.07(  1.09%)
                            0.015%  C    7 s( 25.29%)p 2.53( 64.08%)d 0.39(  9.89%)
                                                  f 0.03(  0.75%)
                           38.793%  H   29 s( 99.97%)p 0.00(  0.03%)
                            0.032%  H   30 s( 99.05%)p 0.01(  0.95%)
                            0.020%  H   31 s( 99.52%)p 0.00(  0.48%)
     5. (2.00000)  99.1982%  BD ( 1) C   2 C   3      
                            0.139%  C    1 s(  1.33%)p70.88( 94.46%)d 2.94(  3.92%)
                                                  f 0.21(  0.28%)
                           50.480%  C    2 s( 25.97%)p 2.85( 73.97%)d 0.00(  0.06%)
                                                  f 0.00(  0.00%)
                           48.728%  C    3 s( 28.80%)p 2.47( 71.07%)d 0.00(  0.12%)
                                                  f 0.00(  0.01%)
                            0.205%  C    4 s(  4.17%)p21.59( 89.96%)d 1.34(  5.57%)
                                                  f 0.07(  0.30%)
                            0.140%  C    5 s( 25.60%)p 2.85( 73.07%)d 0.04(  0.91%)
                                                  f 0.02(  0.42%)
                            0.025%  N    8 s( 31.05%)p 2.04( 63.37%)d 0.15(  4.63%)
                                                  f 0.03(  0.96%)
                            0.030%  H   27 s( 98.92%)p 0.01(  1.08%)
                            0.012%  H   28 s( 99.58%)p 0.00(  0.42%)
                            0.135%  H   29 s( 99.63%)p 0.00(  0.37%)
                            0.012%  H   30 s( 43.99%)p 1.27( 56.01%)
                            0.023%  H   34 s( 97.82%)p 0.02(  2.18%)
     6. (2.00000)  98.5816%  BD ( 1) C   2 C   4      
                            0.119%  C    1 s(  0.18%)p99.99( 96.22%)d19.08(  3.43%)
                                                  f 0.97(  0.17%)
                           48.665%  C    2 s( 25.36%)p 2.94( 74.51%)d 0.00(  0.12%)
                                                  f 0.00(  0.01%)
                            0.115%  C    3 s(  0.23%)p99.99( 96.03%)d15.71(  3.57%)
                                                  f 0.78(  0.18%)
                           49.925%  C    4 s( 27.54%)p 2.63( 72.39%)d 0.00(  0.06%)
                                                  f 0.00(  0.01%)
                            0.133%  C    5 s(  1.83%)p50.93( 93.29%)d 2.44(  4.46%)
                                                  f 0.23(  0.41%)
                            0.011%  C    6 s( 28.94%)p 1.68( 48.75%)d 0.72( 20.90%)
                                                  f 0.05(  1.41%)
                            0.107%  C    7 s( 23.63%)p 3.13( 73.99%)d 0.09(  2.11%)
                                                  f 0.01(  0.27%)
                            0.200%  N    8 s( 11.44%)p 7.47( 85.39%)d 0.25(  2.88%)
                                                  f 0.03(  0.29%)
                            0.076%  C    9 s(  3.91%)p23.94( 93.51%)d 0.65(  2.54%)
                                                  f 0.01(  0.05%)
                            0.012%  C   10 s(  5.51%)p16.34( 89.94%)d 0.78(  4.29%)
                                                  f 0.05(  0.26%)
                            0.020%  N   11 s( 15.86%)p 5.16( 81.77%)d 0.14(  2.19%)
                                                  f 0.01(  0.18%)
                            0.244%  C   19 s( 19.24%)p 4.17( 80.30%)d 0.02(  0.45%)
                                                  f 0.00(  0.01%)
                            0.125%  H   27 s( 99.55%)p 0.00(  0.45%)
                            0.021%  H   28 s( 98.76%)p 0.01(  1.24%)
                            0.011%  H   30 s( 74.92%)p 0.33( 25.08%)
                            0.014%  H   31 s( 99.17%)p 0.01(  0.83%)
                            0.013%  H   32 s( 98.41%)p 0.02(  1.59%)
                            0.120%  H   33 s( 99.46%)p 0.01(  0.54%)
                            0.011%  H   35 s( 99.43%)p 0.01(  0.57%)
     7. (2.00000)  98.2288%  BD ( 1) C   2 H  30      
                            0.212%  C    1 s(  3.20%)p29.48( 94.21%)d 0.75(  2.41%)
                                                  f 0.06(  0.18%)
                           59.538%  C    2 s( 19.96%)p 4.00( 79.90%)d 0.01(  0.13%)
                                                  f 0.00(  0.00%)
                            0.207%  C    3 s(  3.65%)p25.68( 93.78%)d 0.66(  2.41%)
                                                  f 0.04(  0.15%)
                            0.248%  C    4 s(  4.93%)p18.27( 90.15%)d 0.99(  4.87%)
                                                  f 0.01(  0.04%)
                            0.016%  C    5 s( 55.80%)p 0.58( 32.10%)d 0.19( 10.56%)
                                                  f 0.03(  1.54%)
                            0.027%  C    6 s(  3.36%)p24.03( 80.75%)d 4.61( 15.49%)
                                                  f 0.12(  0.40%)
                            0.026%  N    8 s( 75.31%)p 0.20( 14.70%)d 0.12(  9.21%)
                                                  f 0.01(  0.77%)
                            0.046%  C    9 s(  8.31%)p 9.64( 80.07%)d 1.38( 11.48%)
                                                  f 0.02(  0.15%)
                            0.016%  C   10 s( 14.11%)p 5.90( 83.28%)d 0.14(  1.99%)
                                                  f 0.04(  0.62%)
                            0.011%  C   19 s( 17.38%)p 4.63( 80.43%)d 0.12(  2.05%)
                                                  f 0.01(  0.14%)
                            0.022% Ni   20 s( 17.83%)p 3.45( 61.48%)d 1.16( 20.68%)
                                                  f 0.00(  0.00%)
                            0.013%  C   23 s(  6.04%)p15.44( 93.15%)d 0.12(  0.74%)
                                                  f 0.01(  0.08%)
                            0.013%  H   27 s( 99.57%)p 0.00(  0.43%)
                            0.272%  H   28 s( 99.88%)p 0.00(  0.12%)
                            0.021%  H   29 s( 98.85%)p 0.01(  1.15%)
                           38.693%  H   30 s( 99.97%)p 0.00(  0.03%)
                            0.015%  H   31 s( 98.84%)p 0.01(  1.16%)
                            0.274%  H   32 s( 99.86%)p 0.00(  0.14%)
                            0.018%  H   33 s( 99.31%)p 0.01(  0.69%)
                            0.267%  H   34 s( 99.70%)p 0.00(  0.30%)
                            0.010%  H   37 s( 93.47%)p 0.07(  6.53%)
     8. (2.00000)  99.3705%  BD ( 1) C   3 H  31      
                            0.202%  C    1 s( 33.35%)p 1.92( 63.94%)d 0.07(  2.22%)
                                                  f 0.01(  0.49%)
                            0.238%  C    2 s(  2.40%)p37.43( 89.86%)d 3.08(  7.39%)
                                                  f 0.15(  0.35%)
                           60.641%  C    3 s( 23.17%)p 3.31( 76.68%)d 0.01(  0.15%)
                                                  f 0.00(  0.01%)
                            0.031%  C    4 s( 44.85%)p 1.06( 47.48%)d 0.16(  7.19%)
                                                  f 0.01(  0.47%)
                            0.010%  N    8 s( 10.32%)p 4.22( 43.53%)d 4.32( 44.55%)
                                                  f 0.16(  1.60%)
                            0.021%  C    9 s( 55.46%)p 0.66( 36.45%)d 0.14(  7.84%)
                                                  f 0.00(  0.25%)
                            0.022%  H   29 s( 99.78%)p 0.00(  0.22%)
                            0.023%  H   30 s( 99.02%)p 0.01(  0.98%)
                           38.732%  H   31 s( 99.97%)p 0.00(  0.03%)
                            0.011%  H   32 s( 65.21%)p 0.53( 34.79%)
                            0.013%  H   53 s( 98.05%)p 0.02(  1.95%)
     9. (2.00000)  99.4270%  BD ( 1) C   3 H  32      
                            0.019%  C    1 s( 42.01%)p 0.85( 35.84%)d 0.48( 20.29%)
                                                  f 0.04(  1.85%)
                            0.209%  C    2 s(  5.00%)p17.98( 89.81%)d 1.03(  5.16%)
                                                  f 0.01(  0.04%)
                           60.401%  C    3 s( 22.93%)p 3.35( 76.92%)d 0.01(  0.14%)
                                                  f 0.00(  0.00%)
                            0.028%  C    4 s( 51.54%)p 0.65( 33.75%)d 0.27( 13.76%)
                                                  f 0.02(  0.95%)
                            0.014% Ni   20 s( 11.07%)p 5.74( 63.57%)d 2.29( 25.35%)
                                                  f 0.00(  0.00%)
                            0.016%  C   21 s(  1.77%)p54.54( 96.67%)d 0.82(  1.45%)
                                                  f 0.06(  0.11%)
                            0.218%  H   30 s( 99.61%)p 0.00(  0.39%)
                           39.028%  H   32 s( 99.98%)p 0.00(  0.02%)
    10. (2.00000)  99.3469%  BD ( 1) C   3 H  33      
                            0.019%  C    1 s( 49.57%)p 0.58( 28.92%)d 0.39( 19.22%)
                                                  f 0.05(  2.28%)
                            0.282%  C    2 s(  4.93%)p17.52( 86.41%)d 1.69(  8.35%)
                                                  f 0.06(  0.30%)
                           60.574%  C    3 s( 22.77%)p 3.38( 77.06%)d 0.01(  0.16%)
                                                  f 0.00(  0.01%)
                            0.243%  C    4 s( 32.64%)p 1.99( 64.89%)d 0.06(  2.00%)
                                                  f 0.01(  0.47%)
                            0.019%  C    5 s( 33.81%)p 1.85( 62.44%)d 0.08(  2.73%)
                                                  f 0.03(  1.02%)
                            0.010%  N    8 s( 16.96%)p 4.43( 75.10%)d 0.44(  7.44%)
                                                  f 0.03(  0.50%)
                            0.026%  H   30 s( 99.10%)p 0.01(  0.90%)
                           38.775%  H   33 s( 99.97%)p 0.00(  0.03%)
    11. (2.00000)  98.5519%  BD ( 1) C   4 C   5      
                            0.135%  C    2 s(  4.29%)p21.16( 90.83%)d 1.06(  4.53%)
                                                  f 0.08(  0.34%)
                            0.110%  C    3 s( 23.11%)p 3.23( 74.69%)d 0.08(  1.95%)
                                                  f 0.01(  0.24%)
                           49.938%  C    4 s( 27.12%)p 2.68( 72.81%)d 0.00(  0.06%)
                                                  f 0.00(  0.01%)
                           48.622%  C    5 s( 25.60%)p 2.90( 74.27%)d 0.00(  0.12%)
                                                  f 0.00(  0.01%)
                            0.113%  C    6 s(  1.89%)p49.69( 94.12%)d 2.04(  3.87%)
                                                  f 0.06(  0.11%)
                            0.116%  C    7 s(  0.32%)p99.99( 96.04%)d10.73(  3.47%)
                                                  f 0.53(  0.17%)
                            0.199%  N    8 s( 10.37%)p 8.37( 86.76%)d 0.26(  2.65%)
                                                  f 0.02(  0.22%)
                            0.092%  C    9 s(  0.53%)p99.99( 97.52%)d 3.55(  1.88%)
                                                  f 0.11(  0.06%)
                            0.016%  C   10 s(  6.06%)p14.92( 90.40%)d 0.58(  3.51%)
                                                  f 0.01(  0.04%)
                            0.022%  N   11 s( 11.34%)p 7.59( 86.10%)d 0.21(  2.43%)
                                                  f 0.01(  0.13%)
                            0.245%  C   19 s(  9.46%)p 9.51( 89.98%)d 0.06(  0.54%)
                                                  f 0.00(  0.02%)
                            0.020%  H   30 s( 99.34%)p 0.01(  0.66%)
                            0.013%  H   34 s( 70.18%)p 0.42( 29.82%)
                            0.011%  H   35 s( 74.24%)p 0.35( 25.76%)
                            0.015%  H   37 s( 99.10%)p 0.01(  0.90%)
                            0.128%  H   38 s( 99.54%)p 0.00(  0.46%)
                            0.017%  H   39 s( 98.82%)p 0.01(  1.18%)
                            0.123%  H   40 s( 99.45%)p 0.01(  0.55%)
    12. (2.00000)  99.1829%  BD ( 1) C   4 N   8      
                            0.065%  C    1 s( 20.33%)p 3.86( 78.46%)d 0.05(  0.96%)
                                                  f 0.01(  0.25%)
                            0.083%  C    2 s(  7.35%)p11.63( 85.48%)d 0.79(  5.83%)
                                                  f 0.18(  1.34%)
                           36.301%  C    4 s( 22.15%)p 3.51( 77.81%)d 0.00(  0.03%)
                                                  f 0.00(  0.01%)
                            0.064%  C    5 s(  9.29%)p 8.65( 80.37%)d 0.93(  8.66%)
                                                  f 0.18(  1.68%)
                           62.897%  N    8 s( 31.80%)p 2.14( 68.07%)d 0.00(  0.11%)
                                                  f 0.00(  0.02%)
                            0.101%  C    9 s(  5.90%)p14.98( 88.44%)d 0.93(  5.48%)
                                                  f 0.03(  0.18%)
                            0.070%  C   10 s( 47.00%)p 1.03( 48.48%)d 0.08(  3.65%)
                                                  f 0.02(  0.87%)
                            0.087%  N   11 s( 52.47%)p 0.79( 41.48%)d 0.10(  5.49%)
                                                  f 0.01(  0.56%)
                            0.018%  C   12 s( 19.46%)p 4.11( 79.97%)d 0.02(  0.45%)
                                                  f 0.01(  0.12%)
                            0.170%  C   19 s(  6.14%)p14.32( 87.88%)d 0.96(  5.89%)
                                                  f 0.01(  0.09%)
                            0.059%  H   35 s( 99.88%)p 0.00(  0.12%)
                            0.021%  H   42 s( 99.14%)p 0.01(  0.86%)
    13. (2.00000)  98.0031%  BD ( 1) C   4 H  34      
                            0.209%  C    2 s(  3.29%)p27.67( 91.05%)d 1.66(  5.46%)
                                                  f 0.06(  0.20%)
                            0.014%  C    3 s( 41.14%)p 0.72( 29.78%)d 0.65( 26.88%)
                                                  f 0.05(  2.20%)
                           61.034%  C    4 s( 21.30%)p 3.69( 78.60%)d 0.00(  0.09%)
                                                  f 0.00(  0.01%)
                            0.263%  C    5 s(  4.16%)p22.05( 91.72%)d 0.92(  3.81%)
                                                  f 0.08(  0.32%)
                            0.220%  C    6 s( 22.94%)p 3.30( 75.70%)d 0.05(  1.21%)
                                                  f 0.01(  0.15%)
                            0.012%  C    7 s( 37.86%)p 0.97( 36.89%)d 0.61( 23.04%)
                                                  f 0.06(  2.21%)
                            0.250%  N    8 s( 21.98%)p 3.35( 73.59%)d 0.19(  4.11%)
                                                  f 0.01(  0.32%)
                            0.311%  C    9 s( 24.57%)p 3.05( 74.92%)d 0.02(  0.41%)
                                                  f 0.00(  0.10%)
                            0.017%  N   11 s( 12.21%)p 6.87( 83.86%)d 0.30(  3.72%)
                                                  f 0.02(  0.20%)
                            0.098%  C   19 s( 83.78%)p 0.16( 13.28%)d 0.03(  2.71%)
                                                  f 0.00(  0.23%)
                            0.086% Ni   20 s(  9.35%)p 7.48( 69.90%)d 2.22( 20.74%)
                                                  f 0.00(  0.01%)
                            0.120%  C   23 s(  7.44%)p12.18( 90.62%)d 0.24(  1.77%)
                                                  f 0.02(  0.17%)
                            0.034%  O   24 s(  1.04%)p93.21( 96.76%)d 2.05(  2.13%)
                                                  f 0.07(  0.07%)
                            0.019%  C   25 s( 93.20%)p 0.07(  6.46%)d 0.00(  0.24%)
                                                  f 0.00(  0.10%)
                            0.233%  H   30 s( 99.83%)p 0.00(  0.17%)
                           36.981%  H   34 s( 99.94%)p 0.00(  0.06%)
                            0.028%  H   35 s( 99.44%)p 0.01(  0.56%)
                            0.012%  H   43 s( 99.78%)p 0.00(  0.22%)
    14. (2.00000)  99.3236%  BD ( 1) C   5 C   6      
                            0.011%  C    2 s( 38.07%)p 0.84( 32.08%)d 0.71( 27.16%)
                                                  f 0.07(  2.69%)
                            0.146%  C    4 s(  3.31%)p26.91( 88.99%)d 2.29(  7.56%)
                                                  f 0.05(  0.15%)
                           50.091%  C    5 s( 26.02%)p 2.84( 73.91%)d 0.00(  0.06%)
                                                  f 0.00(  0.00%)
                           49.243%  C    6 s( 28.80%)p 2.47( 71.08%)d 0.00(  0.11%)
                                                  f 0.00(  0.01%)
                            0.129%  C    7 s(  1.02%)p93.08( 95.19%)d 3.46(  3.54%)
                                                  f 0.24(  0.24%)
                            0.013%  N    8 s( 49.72%)p 0.72( 35.77%)d 0.26( 13.08%)
                                                  f 0.03(  1.42%)
                            0.012% Ni   20 s( 28.66%)p 1.81( 51.79%)d 0.68( 19.55%)
                                                  f 0.00(  0.00%)
                            0.015%  C   23 s(  9.14%)p 9.83( 89.92%)d 0.09(  0.85%)
                                                  f 0.01(  0.08%)
                            0.122%  H   34 s( 98.71%)p 0.01(  1.29%)
                            0.011%  H   35 s( 51.89%)p 0.93( 48.11%)
                            0.015%  H   39 s( 99.78%)p 0.00(  0.22%)
                            0.016%  H   40 s( 98.56%)p 0.01(  1.44%)
                            0.125%  H   41 s( 99.67%)p 0.00(  0.33%)
    15. (2.00000)  99.2198%  BD ( 1) C   5 C   7      
                            0.138%  C    2 s( 24.45%)p 3.03( 74.20%)d 0.04(  0.88%)
                                                  f 0.02(  0.47%)
                            0.198%  C    4 s(  3.67%)p24.64( 90.34%)d 1.54(  5.65%)
                                                  f 0.09(  0.34%)
                           50.466%  C    5 s( 26.11%)p 2.83( 73.83%)d 0.00(  0.06%)
                                                  f 0.00(  0.00%)
                            0.137%  C    6 s(  1.29%)p73.27( 94.48%)d 3.10(  4.00%)
                                                  f 0.17(  0.22%)
                           48.763%  C    7 s( 28.69%)p 2.48( 71.17%)d 0.00(  0.12%)
                                                  f 0.00(  0.01%)
                            0.028%  N    8 s( 34.77%)p 1.73( 60.08%)d 0.12(  4.23%)
                                                  f 0.03(  0.92%)
                            0.016%  H   34 s( 97.49%)p 0.03(  2.51%)
                            0.013%  H   35 s( 52.98%)p 0.89( 47.02%)
                            0.021%  H   36 s( 99.88%)p 0.00(  0.12%)
                            0.139%  H   37 s( 99.68%)p 0.00(  0.32%)
                            0.013%  H   38 s( 98.20%)p 0.02(  1.80%)
    16. (2.00000)  97.9074%  BD ( 1) C   5 H  35      
                            0.040%  C    1 s(  7.96%)p10.15( 80.79%)d 1.35( 10.77%)
                                                  f 0.06(  0.48%)
                            0.012%  C    2 s( 54.29%)p 0.67( 36.18%)d 0.13(  7.24%)
                                                  f 0.04(  2.30%)
                            0.487%  C    4 s(  7.45%)p12.00( 89.45%)d 0.40(  2.95%)
                                                  f 0.02(  0.15%)
                           59.652%  C    5 s( 19.27%)p 4.18( 80.59%)d 0.01(  0.13%)
                                                  f 0.00(  0.01%)
                            0.220%  C    6 s(  2.35%)p40.54( 95.33%)d 0.92(  2.16%)
                                                  f 0.06(  0.15%)
                            0.220%  C    7 s(  2.46%)p38.73( 95.25%)d 0.88(  2.17%)
                                                  f 0.05(  0.12%)
                            0.300%  N    8 s( 38.58%)p 1.56( 60.19%)d 0.03(  1.08%)
                                                  f 0.00(  0.15%)
                            0.033%  C    9 s( 13.03%)p 6.41( 83.48%)d 0.25(  3.32%)
                                                  f 0.01(  0.18%)
                            0.047%  C   19 s(  6.83%)p13.41( 91.61%)d 0.22(  1.51%)
                                                  f 0.01(  0.04%)
                            0.027%  H   27 s( 99.77%)p 0.00(  0.23%)
                            0.027%  H   34 s( 99.28%)p 0.01(  0.72%)
                           38.259%  H   35 s( 99.96%)p 0.00(  0.04%)
                            0.274%  H   36 s( 99.82%)p 0.00(  0.18%)
                            0.011%  H   37 s( 98.61%)p 0.01(  1.39%)
                            0.034%  H   38 s( 99.29%)p 0.01(  0.71%)
                            0.283%  H   39 s( 99.87%)p 0.00(  0.13%)
                            0.023%  H   40 s( 99.28%)p 0.01(  0.72%)
                            0.016%  H   41 s( 99.64%)p 0.00(  0.36%)
    17. (2.00000)  99.3936%  BD ( 1) C   6 H  36      
                            0.012%  C    4 s( 30.84%)p 1.39( 43.00%)d 0.79( 24.22%)
                                                  f 0.06(  1.93%)
                            0.215%  C    5 s(  4.23%)p20.80( 87.94%)d 1.79(  7.58%)
                                                  f 0.06(  0.25%)
                           60.398%  C    6 s( 23.08%)p 3.33( 76.77%)d 0.01(  0.14%)
                                                  f 0.00(  0.01%)
                            0.021%  C    7 s( 40.67%)p 0.82( 33.40%)d 0.61( 24.69%)
                                                  f 0.03(  1.24%)
                            0.055%  C    9 s( 16.46%)p 4.67( 76.93%)d 0.39(  6.49%)
                                                  f 0.01(  0.12%)
                            0.029%  C   10 s(  9.04%)p 9.70( 87.69%)d 0.35(  3.17%)
                                                  f 0.01(  0.10%)
                            0.217%  H   35 s( 99.34%)p 0.01(  0.66%)
                           38.998%  H   36 s( 99.97%)p 0.00(  0.03%)
    18. (2.00000)  99.3990%  BD ( 1) C   6 H  37      
                            0.027%  C    2 s( 22.18%)p 3.22( 71.37%)d 0.26(  5.78%)
                                                  f 0.03(  0.67%)
                            0.012%  C    3 s( 26.83%)p 2.29( 61.58%)d 0.41( 10.89%)
                                                  f 0.03(  0.70%)
                            0.025%  C    4 s( 63.01%)p 0.52( 32.82%)d 0.04(  2.60%)
                                                  f 0.03(  1.58%)
                            0.238%  C    5 s(  3.40%)p26.21( 89.00%)d 2.17(  7.37%)
                                                  f 0.07(  0.24%)
                           60.539%  C    6 s( 23.26%)p 3.29( 76.59%)d 0.01(  0.14%)
                                                  f 0.00(  0.01%)
                            0.201%  C    7 s( 32.10%)p 2.03( 65.27%)d 0.06(  2.04%)
                                                  f 0.02(  0.59%)
                            0.018%  H   35 s( 97.88%)p 0.02(  2.12%)
                           38.862%  H   37 s( 99.97%)p 0.00(  0.03%)
                            0.019%  H   41 s( 99.72%)p 0.00(  0.28%)
    19. (2.00000)  99.2841%  BD ( 1) C   6 H  38      
                            0.252%  C    4 s( 30.34%)p 2.21( 67.15%)d 0.07(  2.03%)
                                                  f 0.02(  0.49%)
                            0.321%  C    5 s(  4.57%)p19.10( 87.39%)d 1.72(  7.86%)
                                                  f 0.04(  0.18%)
                           60.696%  C    6 s( 22.36%)p 3.47( 77.48%)d 0.01(  0.16%)
                                                  f 0.00(  0.01%)
                            0.015%  C    7 s( 38.84%)p 0.89( 34.67%)d 0.62( 24.07%)
                                                  f 0.06(  2.42%)
                            0.016%  C    9 s(  3.88%)p23.47( 91.07%)d 1.28(  4.96%)
                                                  f 0.02(  0.09%)
                            0.042%  H   35 s( 99.46%)p 0.01(  0.54%)
                           38.592%  H   38 s( 99.97%)p 0.00(  0.03%)
    20. (2.00000)  99.4129%  BD ( 1) C   7 H  39      
                            0.022%  C    4 s( 46.41%)p 0.87( 40.57%)d 0.27( 12.31%)
                                                  f 0.02(  0.72%)
                            0.218%  C    5 s(  4.01%)p22.02( 88.32%)d 1.85(  7.42%)
                                                  f 0.06(  0.25%)
                            0.023%  C    6 s( 38.97%)p 0.89( 34.74%)d 0.64( 24.84%)
                                                  f 0.04(  1.45%)
                           60.422%  C    7 s( 22.95%)p 3.35( 76.91%)d 0.01(  0.14%)
                                                  f 0.00(  0.01%)
                            0.011%  N    8 s(  2.41%)p26.80( 64.56%)d13.37( 32.22%)
                                                  f 0.34(  0.81%)
                            0.017%  C    9 s( 49.01%)p 0.92( 45.32%)d 0.11(  5.25%)
                                                  f 0.01(  0.42%)
                            0.210%  H   35 s( 99.03%)p 0.01(  0.97%)
                           38.993%  H   39 s( 99.97%)p 0.00(  0.03%)
                            0.017%  H   47 s( 98.29%)p 0.02(  1.71%)
    21. (2.00000)  99.3195%  BD ( 1) C   7 H  40      
                            0.020%  C    2 s( 32.03%)p 1.99( 63.74%)d 0.10(  3.29%)
                                                  f 0.03(  0.94%)
                            0.244%  C    4 s( 33.67%)p 1.91( 64.25%)d 0.05(  1.67%)
                                                  f 0.01(  0.42%)
                            0.291%  C    5 s(  4.83%)p17.82( 86.04%)d 1.82(  8.80%)
                                                  f 0.07(  0.33%)
                            0.025%  C    6 s( 45.05%)p 0.84( 37.98%)d 0.34( 15.26%)
                                                  f 0.04(  1.72%)
                           60.554%  C    7 s( 22.71%)p 3.40( 77.12%)d 0.01(  0.16%)
                                                  f 0.00(  0.01%)
                            0.028%  H   35 s( 98.96%)p 0.01(  1.04%)
                            0.011%  H   37 s( 96.19%)p 0.04(  3.81%)
                           38.768%  H   40 s( 99.97%)p 0.00(  0.03%)
    22. (2.00000)  99.3049%  BD ( 1) C   7 H  41      
                            0.011%  C    2 s( 30.02%)p 2.27( 68.16%)d 0.04(  1.32%)
                                                  f 0.02(  0.51%)
                            0.029%  C    4 s( 60.28%)p 0.42( 25.61%)d 0.21( 12.69%)
                                                  f 0.02(  1.42%)
                            0.243%  C    5 s(  4.57%)p19.20( 87.73%)d 1.61(  7.35%)
                                                  f 0.08(  0.35%)
                            0.210%  C    6 s( 32.95%)p 1.94( 63.93%)d 0.08(  2.55%)
                                                  f 0.02(  0.57%)
                           60.540%  C    7 s( 23.26%)p 3.29( 76.59%)d 0.01(  0.15%)
                                                  f 0.00(  0.01%)
                            0.023% Ni   20 s( 16.67%)p 3.23( 53.81%)d 1.77( 29.52%)
                                                  f 0.00(  0.01%)
                            0.055%  C   23 s(  0.67%)p99.99( 94.44%)d 6.66(  4.47%)
                                                  f 0.62(  0.42%)
                            0.020%  O   24 s(  6.85%)p12.03( 82.40%)d 1.54( 10.59%)
                                                  f 0.02(  0.16%)
                            0.027%  H   35 s( 97.94%)p 0.02(  2.06%)
                            0.022%  H   37 s( 99.77%)p 0.00(  0.23%)
                           38.767%  H   41 s( 99.97%)p 0.00(  0.03%)
    23. (2.00000)  99.0650%  BD ( 1) N   8 C   9      
                            0.139%  C    4 s(  2.51%)p35.75( 89.62%)d 3.08(  7.73%)
                                                  f 0.06(  0.15%)
                           61.426%  N    8 s( 29.61%)p 2.37( 70.15%)d 0.01(  0.23%)
                                                  f 0.00(  0.01%)
                           37.664%  C    9 s( 27.30%)p 2.66( 72.66%)d 0.00(  0.04%)
                                                  f 0.00(  0.00%)
                            0.148%  C   10 s(  2.34%)p39.99( 93.45%)d 1.55(  3.62%)
                                                  f 0.25(  0.59%)
                            0.065%  N   11 s( 85.49%)p 0.12(  9.91%)d 0.04(  3.70%)
                                                  f 0.01(  0.91%)
                            0.023%  C   12 s(  5.81%)p16.13( 93.74%)d 0.05(  0.30%)
                                                  f 0.03(  0.15%)
                            0.181%  C   19 s(  1.62%)p56.53( 91.56%)d 3.96(  6.42%)
                                                  f 0.24(  0.40%)
                            0.098% Ni   20 s( 25.69%)p 2.16( 55.41%)d 0.74( 18.90%)
                                                  f 0.00(  0.00%)
                            0.017%  C   23 s(  1.23%)p79.70( 98.36%)d 0.28(  0.34%)
                                                  f 0.05(  0.06%)
                            0.060%  H   34 s( 99.44%)p 0.01(  0.56%)
                            0.118%  H   43 s( 99.70%)p 0.00(  0.30%)
    24. (2.00000)  98.8871%  BD ( 1) N   8 C  19      
                            0.029%  C    2 s( 16.26%)p 4.97( 80.87%)d 0.15(  2.49%)
                                                  f 0.02(  0.38%)
                            0.152%  C    4 s(  0.31%)p99.99( 93.75%)d18.27(  5.74%)
                                                  f 0.64(  0.20%)
                            0.018%  C    5 s( 17.62%)p 4.50( 79.22%)d 0.16(  2.87%)
                                                  f 0.02(  0.29%)
                           64.683%  N    8 s( 33.78%)p 1.95( 66.00%)d 0.01(  0.21%)
                                                  f 0.00(  0.01%)
                            0.143%  C    9 s(  0.46%)p99.99( 94.12%)d11.47(  5.23%)
                                                  f 0.42(  0.19%)
                            0.059%  C   10 s( 77.53%)p 0.23( 17.93%)d 0.05(  3.74%)
                                                  f 0.01(  0.80%)
                            0.197%  N   11 s( 22.98%)p 3.14( 72.07%)d 0.20(  4.48%)
                                                  f 0.02(  0.46%)
                            0.211%  C   12 s( 25.89%)p 2.85( 73.82%)d 0.01(  0.23%)
                                                  f 0.00(  0.06%)
                           34.228%  C   19 s( 27.92%)p 2.58( 72.03%)d 0.00(  0.05%)
                                                  f 0.00(  0.00%)
                            0.050% Ni   20 s(  9.69%)p 5.79( 56.16%)d 3.52( 34.14%)
                                                  f 0.00(  0.00%)
                            0.014%  C   21 s(  0.99%)p99.43( 98.42%)d 0.44(  0.43%)
                                                  f 0.16(  0.16%)
                            0.023%  C   23 s(  5.08%)p18.55( 94.26%)d 0.12(  0.59%)
                                                  f 0.01(  0.06%)
                            0.033%  H   34 s( 99.72%)p 0.00(  0.28%)
                            0.101%  H   42 s( 99.64%)p 0.00(  0.36%)
    25. (2.00000)  93.5143%  BD ( 2) N   8 C  19      
                            0.020%  C    1 s( 21.68%)p 3.44( 74.49%)d 0.14(  2.94%)
                                                  f 0.04(  0.89%)
                            0.224%  C    2 s( 35.04%)p 1.77( 62.12%)d 0.07(  2.30%)
                                                  f 0.02(  0.54%)
                            0.011%  C    3 s( 14.97%)p 3.16( 47.25%)d 2.38( 35.65%)
                                                  f 0.14(  2.13%)
                            0.445%  C    4 s(  0.07%)p99.99( 95.65%)d60.81(  4.08%)
                                                  f 3.03(  0.20%)
                            0.272%  C    5 s( 35.94%)p 1.70( 61.18%)d 0.07(  2.39%)
                                                  f 0.01(  0.48%)
                           71.626%  N    8 s(  0.00%)p 1.00( 99.93%)d 0.00(  0.04%)
                                                  f 0.00(  0.02%)
                            2.272%  C    9 s(  0.01%)p99.99( 98.34%)d99.99(  1.63%)
                                                  f 0.93(  0.01%)
                            2.494%  C   10 s(  0.00%)p 1.00( 99.48%)d 0.01(  0.52%)
                                                  f 0.00(  0.01%)
                            0.568%  N   11 s(  0.02%)p99.99( 94.89%)d99.99(  4.86%)
                                                  f11.33(  0.23%)
                           21.889%  C   19 s(  0.02%)p99.99( 99.77%)d 8.25(  0.20%)
                                                  f 0.14(  0.00%)
                            0.051% Ni   20 s(  0.54%)p99.99( 67.39%)d59.79( 32.01%)
                                                  f 0.11(  0.06%)
                            0.011%  C   21 s( 60.99%)p 0.63( 38.31%)d 0.01(  0.66%)
                                                  f 0.00(  0.04%)
                            0.014%  H   35 s( 99.24%)p 0.01(  0.76%)
    26. (2.00000)  98.9586%  BD ( 1) C   9 C  10      
                            0.213%  C    4 s( 20.17%)p 3.95( 79.59%)d 0.01(  0.21%)
                                                  f 0.00(  0.03%)
                            0.213%  N    8 s( 12.68%)p 6.70( 84.98%)d 0.17(  2.19%)
                                                  f 0.01(  0.15%)
                           49.508%  C    9 s( 34.67%)p 1.88( 65.19%)d 0.00(  0.13%)
                                                  f 0.00(  0.01%)
                           49.508%  C   10 s( 34.67%)p 1.88( 65.19%)d 0.00(  0.13%)
                                                  f 0.00(  0.01%)
                            0.213%  N   11 s( 12.68%)p 6.70( 84.98%)d 0.17(  2.19%)
                                                  f 0.01(  0.15%)
                            0.213%  C   12 s( 20.17%)p 3.95( 79.59%)d 0.01(  0.21%)
                                                  f 0.00(  0.03%)
                            0.028%  C   19 s( 45.52%)p 1.11( 50.50%)d 0.05(  2.42%)
                                                  f 0.03(  1.56%)
                            0.034%  H   42 s( 94.46%)p 0.06(  5.54%)
                            0.034%  H   43 s( 94.46%)p 0.06(  5.54%)
    27. (2.00000)  93.9200%  BD ( 2) C   9 C  10      
                            0.011%  C    4 s(  0.24%)p99.99( 93.94%)d22.00(  5.36%)
                                                  f 1.87(  0.46%)
                            1.155%  N    8 s(  0.00%)p 1.00( 97.52%)d 0.02(  2.37%)
                                                  f 0.00(  0.10%)
                           47.142%  C    9 s(  0.00%)p 1.00( 99.92%)d 0.00(  0.05%)
                                                  f 0.00(  0.03%)
                           46.778%  C   10 s(  0.00%)p 1.00( 99.92%)d 0.00(  0.05%)
                                                  f 0.00(  0.03%)
                            1.016%  N   11 s(  0.01%)p 1.00( 97.19%)d 0.03(  2.69%)
                                                  f 0.00(  0.11%)
                            0.012%  C   12 s(  0.21%)p99.99( 94.69%)d22.13(  4.68%)
                                                  f 1.95(  0.41%)
                            3.657%  C   19 s(  0.07%)p99.99( 99.90%)d 0.25(  0.02%)
                                                  f 0.07(  0.01%)
                            0.050% Ni   20 s(  0.99%)p93.27( 92.47%)d 6.56(  6.51%)
                                                  f 0.03(  0.03%)
                            0.022%  C   21 s( 57.71%)p 0.72( 41.84%)d 0.01(  0.44%)
                                                  f 0.00(  0.01%)
                            0.011%  H   36 s( 99.20%)p 0.01(  0.80%)
                            0.011%  H   42 s(  0.52%)p99.99( 99.48%)
                            0.011%  H   43 s(  0.54%)p99.99( 99.46%)
                            0.011%  H   49 s( 99.21%)p 0.01(  0.79%)
    28. (2.00000)  99.0183%  BD ( 1) C   9 H  42      
                            0.013%  C    4 s( 50.78%)p 0.80( 40.43%)d 0.16(  8.23%)
                                                  f 0.01(  0.57%)
                            0.011%  C    6 s( 19.55%)p 3.20( 62.57%)d 0.90( 17.61%)
                                                  f 0.01(  0.27%)
                            0.203%  N    8 s( 18.56%)p 4.24( 78.69%)d 0.14(  2.68%)
                                                  f 0.00(  0.07%)
                           62.237%  C    9 s( 32.35%)p 2.09( 67.59%)d 0.00(  0.05%)
                                                  f 0.00(  0.01%)
                            0.238%  C   10 s(  5.34%)p16.88( 90.19%)d 0.83(  4.45%)
                                                  f 0.00(  0.02%)
                            0.113%  N   11 s( 41.86%)p 1.31( 55.02%)d 0.07(  2.88%)
                                                  f 0.01(  0.24%)
                            0.010%  C   12 s( 17.35%)p 4.68( 81.29%)d 0.08(  1.30%)
                                                  f 0.00(  0.06%)
                            0.290%  C   19 s( 35.09%)p 1.84( 64.59%)d 0.01(  0.26%)
                                                  f 0.00(  0.06%)
                            0.012%  H   38 s( 99.68%)p 0.00(  0.32%)
                           36.813%  H   42 s( 99.94%)p 0.00(  0.06%)
    29. (2.00000)  99.0651%  BD ( 1) C  10 N  11      
                            0.023%  C    4 s(  5.81%)p16.12( 93.73%)d 0.05(  0.30%)
                                                  f 0.03(  0.15%)
                            0.066%  N    8 s( 85.43%)p 0.12( 10.01%)d 0.04(  3.66%)
                                                  f 0.01(  0.90%)
                            0.148%  C    9 s(  2.39%)p39.02( 93.38%)d 1.52(  3.64%)
                                                  f 0.25(  0.59%)
                           37.664%  C   10 s( 27.30%)p 2.66( 72.66%)d 0.00(  0.04%)
                                                  f 0.00(  0.00%)
                           61.427%  N   11 s( 29.61%)p 2.37( 70.14%)d 0.01(  0.23%)
                                                  f 0.00(  0.01%)
                            0.139%  C   12 s(  2.51%)p35.77( 89.62%)d 3.08(  7.73%)
                                                  f 0.06(  0.15%)
                            0.181%  C   19 s(  1.62%)p56.55( 91.56%)d 3.96(  6.42%)
                                                  f 0.24(  0.40%)
                            0.098% Ni   20 s( 25.70%)p 2.16( 55.41%)d 0.74( 18.89%)
                                                  f 0.00(  0.00%)
                            0.017%  C   25 s(  1.24%)p79.34( 98.36%)d 0.28(  0.34%)
                                                  f 0.05(  0.06%)
                            0.118%  H   42 s( 99.70%)p 0.00(  0.30%)
                            0.060%  H   44 s( 99.44%)p 0.01(  0.56%)
    30. (2.00000)  99.0184%  BD ( 1) C  10 H  43      
                            0.010%  C    4 s( 17.34%)p 4.69( 81.30%)d 0.08(  1.30%)
                                                  f 0.00(  0.06%)
                            0.113%  N    8 s( 41.86%)p 1.31( 55.01%)d 0.07(  2.88%)
                                                  f 0.01(  0.24%)
                            0.238%  C    9 s(  5.35%)p16.84( 90.17%)d 0.83(  4.46%)
                                                  f 0.00(  0.02%)
                           62.237%  C   10 s( 32.35%)p 2.09( 67.59%)d 0.00(  0.05%)
                                                  f 0.00(  0.01%)
                            0.203%  N   11 s( 18.56%)p 4.24( 78.69%)d 0.14(  2.68%)
                                                  f 0.00(  0.07%)
                            0.013%  C   12 s( 50.77%)p 0.80( 40.44%)d 0.16(  8.23%)
                                                  f 0.01(  0.57%)
                            0.011%  C   15 s( 19.55%)p 3.20( 62.57%)d 0.90( 17.61%)
                                                  f 0.01(  0.27%)
                            0.290%  C   19 s( 35.09%)p 1.84( 64.59%)d 0.01(  0.26%)
                                                  f 0.00(  0.06%)
                           36.813%  H   43 s( 99.94%)p 0.00(  0.06%)
                            0.012%  H   50 s( 99.68%)p 0.00(  0.32%)
    31. (2.00000)  99.1830%  BD ( 1) N  11 C  12      
                            0.018%  C    4 s( 19.44%)p 4.11( 79.99%)d 0.02(  0.45%)
                                                  f 0.01(  0.12%)
                            0.087%  N    8 s( 52.48%)p 0.79( 41.48%)d 0.10(  5.49%)
                                                  f 0.01(  0.56%)
                            0.070%  C    9 s( 46.97%)p 1.03( 48.51%)d 0.08(  3.65%)
                                                  f 0.02(  0.87%)
                            0.101%  C   10 s(  5.91%)p14.97( 88.43%)d 0.93(  5.48%)
                                                  f 0.03(  0.18%)
                           62.897%  N   11 s( 31.80%)p 2.14( 68.07%)d 0.00(  0.11%)
                                                  f 0.00(  0.02%)
                           36.300%  C   12 s( 22.15%)p 3.51( 77.81%)d 0.00(  0.03%)
                                                  f 0.00(  0.01%)
                            0.064%  C   13 s(  9.30%)p 8.64( 80.37%)d 0.93(  8.65%)
                                                  f 0.18(  1.68%)
                            0.083%  C   16 s(  7.34%)p11.65( 85.49%)d 0.79(  5.83%)
                                                  f 0.18(  1.34%)
                            0.065%  C   18 s( 20.32%)p 3.86( 78.46%)d 0.05(  0.96%)
                                                  f 0.01(  0.25%)
                            0.170%  C   19 s(  6.14%)p14.31( 87.88%)d 0.96(  5.89%)
                                                  f 0.01(  0.09%)
                            0.021%  H   43 s( 99.14%)p 0.01(  0.86%)
                            0.059%  H   45 s( 99.88%)p 0.00(  0.12%)
    32. (2.00000)  98.8870%  BD ( 1) N  11 C  19      
                            0.211%  C    4 s( 25.89%)p 2.85( 73.81%)d 0.01(  0.23%)
                                                  f 0.00(  0.06%)
                            0.197%  N    8 s( 22.97%)p 3.14( 72.08%)d 0.20(  4.48%)
                                                  f 0.02(  0.46%)
                            0.059%  C    9 s( 77.51%)p 0.23( 17.95%)d 0.05(  3.74%)
                                                  f 0.01(  0.80%)
                            0.143%  C   10 s(  0.46%)p99.99( 94.12%)d11.45(  5.23%)
                                                  f 0.42(  0.19%)
                           64.683%  N   11 s( 33.78%)p 1.95( 66.00%)d 0.01(  0.21%)
                                                  f 0.00(  0.01%)
                            0.152%  C   12 s(  0.31%)p99.99( 93.75%)d18.23(  5.73%)
                                                  f 0.64(  0.20%)
                            0.018%  C   13 s( 17.65%)p 4.49( 79.22%)d 0.16(  2.84%)
                                                  f 0.02(  0.29%)
                            0.028%  C   16 s( 16.24%)p 4.98( 80.87%)d 0.15(  2.51%)
                                                  f 0.02(  0.38%)
                           34.228%  C   19 s( 27.91%)p 2.58( 72.03%)d 0.00(  0.05%)
                                                  f 0.00(  0.00%)
                            0.050% Ni   20 s(  9.72%)p 5.78( 56.12%)d 3.52( 34.16%)
                                                  f 0.00(  0.00%)
                            0.013%  C   21 s(  0.92%)p99.99( 98.49%)d 0.47(  0.43%)
                                                  f 0.18(  0.16%)
                            0.023%  C   25 s(  5.02%)p18.80( 94.33%)d 0.12(  0.59%)
                                                  f 0.01(  0.06%)
                            0.101%  H   43 s( 99.64%)p 0.00(  0.36%)
                            0.033%  H   44 s( 99.72%)p 0.00(  0.28%)
    33. (2.00000)  98.5525%  BD ( 1) C  12 C  13      
                            0.025%  N    8 s(  9.43%)p 9.37( 88.38%)d 0.22(  2.08%)
                                                  f 0.01(  0.12%)
                            0.018%  C    9 s(  5.37%)p17.04( 91.47%)d 0.58(  3.13%)
                                                  f 0.01(  0.03%)
                            0.095%  C   10 s(  0.51%)p99.99( 97.62%)d 3.55(  1.81%)
                                                  f 0.11(  0.06%)
                            0.191%  N   11 s( 10.86%)p 7.93( 86.14%)d 0.26(  2.77%)
                                                  f 0.02(  0.22%)
                           49.924%  C   12 s( 27.12%)p 2.68( 72.81%)d 0.00(  0.06%)
                                                  f 0.00(  0.01%)
                           48.637%  C   13 s( 25.61%)p 2.90( 74.27%)d 0.00(  0.12%)
                                                  f 0.00(  0.01%)
                            0.116%  C   14 s(  0.32%)p99.99( 96.04%)d10.88(  3.47%)
                                                  f 0.54(  0.17%)
                            0.113%  C   15 s(  1.89%)p49.82( 94.13%)d 2.05(  3.87%)
                                                  f 0.06(  0.11%)
                            0.135%  C   16 s(  4.34%)p20.91( 90.78%)d 1.04(  4.53%)
                                                  f 0.08(  0.34%)
                            0.110%  C   17 s( 23.08%)p 3.24( 74.73%)d 0.08(  1.95%)
                                                  f 0.01(  0.24%)
                            0.243%  C   19 s(  9.44%)p 9.54( 90.01%)d 0.06(  0.54%)
                                                  f 0.00(  0.02%)
                            0.013%  H   44 s( 70.09%)p 0.43( 29.91%)
                            0.011%  H   45 s( 74.15%)p 0.35( 25.85%)
                            0.123%  H   46 s( 99.45%)p 0.01(  0.55%)
                            0.017%  H   47 s( 98.82%)p 0.01(  1.18%)
                            0.128%  H   50 s( 99.54%)p 0.00(  0.46%)
                            0.015%  H   51 s( 99.10%)p 0.01(  0.90%)
                            0.020%  H   52 s( 99.34%)p 0.01(  0.66%)
    34. (2.00000)  98.5820%  BD ( 1) C  12 C  16      
                            0.023%  N    8 s( 13.78%)p 6.11( 84.17%)d 0.14(  1.89%)
                                                  f 0.01(  0.16%)
                            0.014%  C    9 s(  4.92%)p18.50( 90.99%)d 0.78(  3.85%)
                                                  f 0.05(  0.24%)
                            0.078%  C   10 s(  3.77%)p24.87( 93.74%)d 0.65(  2.45%)
                                                  f 0.01(  0.04%)
                            0.193%  N   11 s( 11.76%)p 7.23( 84.96%)d 0.25(  2.98%)
                                                  f 0.03(  0.30%)
                           49.914%  C   12 s( 27.55%)p 2.63( 72.39%)d 0.00(  0.06%)
                                                  f 0.00(  0.01%)
                            0.133%  C   13 s(  1.87%)p49.77( 93.25%)d 2.38(  4.46%)
                                                  f 0.22(  0.41%)
                            0.107%  C   14 s( 23.60%)p 3.14( 74.03%)d 0.09(  2.11%)
                                                  f 0.01(  0.26%)
                            0.011%  C   15 s( 29.06%)p 1.67( 48.65%)d 0.72( 20.88%)
                                                  f 0.05(  1.41%)
                           48.676%  C   16 s( 25.36%)p 2.94( 74.51%)d 0.00(  0.12%)
                                                  f 0.00(  0.01%)
                            0.115%  C   17 s(  0.22%)p99.99( 96.03%)d15.90(  3.57%)
                                                  f 0.79(  0.18%)
                            0.119%  C   18 s(  0.18%)p99.99( 96.21%)d18.66(  3.43%)
                                                  f 0.95(  0.18%)
                            0.244%  C   19 s( 19.19%)p 4.19( 80.35%)d 0.02(  0.45%)
                                                  f 0.00(  0.01%)
                            0.011%  H   45 s( 99.42%)p 0.01(  0.58%)
                            0.011%  H   52 s( 74.92%)p 0.33( 25.08%)
                            0.014%  H   53 s( 99.18%)p 0.01(  0.82%)
                            0.120%  H   54 s( 99.46%)p 0.01(  0.54%)
                            0.013%  H   55 s( 98.41%)p 0.02(  1.59%)
                            0.021%  H   56 s( 98.76%)p 0.01(  1.24%)
                            0.125%  H   57 s( 99.55%)p 0.00(  0.45%)
    35. (2.00000)  98.0031%  BD ( 1) C  12 H  44      
                            0.017%  N    8 s( 12.20%)p 6.87( 83.87%)d 0.31(  3.73%)
                                                  f 0.02(  0.20%)
                            0.311%  C   10 s( 24.57%)p 3.05( 74.91%)d 0.02(  0.41%)
                                                  f 0.00(  0.10%)
                            0.250%  N   11 s( 21.97%)p 3.35( 73.60%)d 0.19(  4.11%)
                                                  f 0.01(  0.32%)
                           61.034%  C   12 s( 21.31%)p 3.69( 78.60%)d 0.00(  0.09%)
                                                  f 0.00(  0.01%)
                            0.263%  C   13 s(  4.16%)p22.06( 91.72%)d 0.92(  3.81%)
                                                  f 0.08(  0.32%)
                            0.012%  C   14 s( 37.85%)p 0.97( 36.90%)d 0.61( 23.04%)
                                                  f 0.06(  2.21%)
                            0.220%  C   15 s( 22.94%)p 3.30( 75.70%)d 0.05(  1.21%)
                                                  f 0.01(  0.15%)
                            0.209%  C   16 s(  3.29%)p27.67( 91.05%)d 1.66(  5.46%)
                                                  f 0.06(  0.20%)
                            0.014%  C   17 s( 41.14%)p 0.72( 29.78%)d 0.65( 26.88%)
                                                  f 0.05(  2.20%)
                            0.098%  C   19 s( 83.77%)p 0.16( 13.28%)d 0.03(  2.71%)
                                                  f 0.00(  0.23%)
                            0.086% Ni   20 s(  9.32%)p 7.50( 69.90%)d 2.23( 20.77%)
                                                  f 0.00(  0.01%)
                            0.019%  C   23 s( 93.22%)p 0.07(  6.44%)d 0.00(  0.24%)
                                                  f 0.00(  0.10%)
                            0.120%  C   25 s(  7.51%)p12.06( 90.55%)d 0.24(  1.77%)
                                                  f 0.02(  0.17%)
                            0.034%  O   26 s(  1.04%)p92.93( 96.76%)d 2.04(  2.13%)
                                                  f 0.07(  0.07%)
                            0.012%  H   42 s( 99.78%)p 0.00(  0.22%)
                           36.981%  H   44 s( 99.94%)p 0.00(  0.06%)
                            0.028%  H   45 s( 99.44%)p 0.01(  0.56%)
                            0.233%  H   52 s( 99.83%)p 0.00(  0.17%)
    36. (2.00000)  99.2198%  BD ( 1) C  13 C  14      
                            0.028%  N   11 s( 34.57%)p 1.74( 60.31%)d 0.12(  4.20%)
                                                  f 0.03(  0.92%)
                            0.198%  C   12 s(  3.67%)p24.60( 90.33%)d 1.54(  5.65%)
                                                  f 0.09(  0.34%)
                           50.466%  C   13 s( 26.11%)p 2.83( 73.83%)d 0.00(  0.06%)
                                                  f 0.00(  0.00%)
                           48.763%  C   14 s( 28.69%)p 2.48( 71.17%)d 0.00(  0.12%)
                                                  f 0.00(  0.01%)
                            0.137%  C   15 s(  1.29%)p73.32( 94.48%)d 3.11(  4.00%)
                                                  f 0.17(  0.22%)
                            0.138%  C   16 s( 24.43%)p 3.04( 74.22%)d 0.04(  0.88%)
                                                  f 0.02(  0.47%)
                            0.016%  H   44 s( 97.49%)p 0.03(  2.51%)
                            0.013%  H   45 s( 52.95%)p 0.89( 47.05%)
                            0.021%  H   49 s( 99.88%)p 0.00(  0.12%)
                            0.013%  H   50 s( 98.20%)p 0.02(  1.80%)
                            0.139%  H   51 s( 99.68%)p 0.00(  0.32%)
    37. (2.00000)  99.3236%  BD ( 1) C  13 C  15      
                            0.013%  N   11 s( 49.67%)p 0.72( 35.82%)d 0.26( 13.08%)
                                                  f 0.03(  1.42%)
                            0.146%  C   12 s(  3.31%)p26.91( 88.99%)d 2.29(  7.56%)
                                                  f 0.05(  0.15%)
                           50.091%  C   13 s( 26.02%)p 2.84( 73.91%)d 0.00(  0.06%)
                                                  f 0.00(  0.00%)
                            0.129%  C   14 s(  1.02%)p93.07( 95.19%)d 3.46(  3.54%)
                                                  f 0.24(  0.24%)
                           49.243%  C   15 s( 28.80%)p 2.47( 71.08%)d 0.00(  0.11%)
                                                  f 0.00(  0.01%)
                            0.011%  C   16 s( 38.08%)p 0.84( 32.08%)d 0.71( 27.15%)
                                                  f 0.07(  2.69%)
                            0.012% Ni   20 s( 28.64%)p 1.81( 51.79%)d 0.68( 19.57%)
                                                  f 0.00(  0.00%)
                            0.015%  C   25 s(  9.13%)p 9.85( 89.93%)d 0.09(  0.85%)
                                                  f 0.01(  0.08%)
                            0.122%  H   44 s( 98.71%)p 0.01(  1.29%)
                            0.011%  H   45 s( 51.90%)p 0.93( 48.10%)
                            0.016%  H   46 s( 98.56%)p 0.01(  1.44%)
                            0.015%  H   47 s( 99.78%)p 0.00(  0.22%)
                            0.125%  H   48 s( 99.67%)p 0.00(  0.33%)
    38. (2.00000)  97.9074%  BD ( 1) C  13 H  45      
                            0.033%  C   10 s( 13.00%)p 6.42( 83.51%)d 0.25(  3.31%)
                                                  f 0.01(  0.18%)
                            0.300%  N   11 s( 38.66%)p 1.56( 60.12%)d 0.03(  1.08%)
                                                  f 0.00(  0.15%)
                            0.487%  C   12 s(  7.45%)p12.00( 89.45%)d 0.40(  2.95%)
                                                  f 0.02(  0.15%)
                           59.651%  C   13 s( 19.27%)p 4.18( 80.59%)d 0.01(  0.13%)
                                                  f 0.00(  0.01%)
                            0.220%  C   14 s(  2.46%)p38.71( 95.25%)d 0.88(  2.17%)
                                                  f 0.05(  0.12%)
                            0.220%  C   15 s(  2.35%)p40.51( 95.33%)d 0.92(  2.16%)
                                                  f 0.06(  0.15%)
                            0.012%  C   16 s( 55.27%)p 0.64( 35.17%)d 0.13(  7.25%)
                                                  f 0.04(  2.30%)
                            0.040%  C   18 s(  7.96%)p10.15( 80.79%)d 1.35( 10.77%)
                                                  f 0.06(  0.48%)
                            0.047%  C   19 s(  6.83%)p13.41( 91.61%)d 0.22(  1.51%)
                                                  f 0.01(  0.04%)
                            0.027%  H   44 s( 99.28%)p 0.01(  0.72%)
                           38.259%  H   45 s( 99.96%)p 0.00(  0.04%)
                            0.023%  H   46 s( 99.28%)p 0.01(  0.72%)
                            0.283%  H   47 s( 99.87%)p 0.00(  0.13%)
                            0.016%  H   48 s( 99.64%)p 0.00(  0.36%)
                            0.274%  H   49 s( 99.82%)p 0.00(  0.18%)
                            0.034%  H   50 s( 99.29%)p 0.01(  0.71%)
                            0.011%  H   51 s( 98.61%)p 0.01(  1.39%)
                            0.027%  H   57 s( 99.77%)p 0.00(  0.23%)
    39. (2.00000)  99.3197%  BD ( 1) C  14 H  46      
                            0.244%  C   12 s( 33.69%)p 1.91( 64.22%)d 0.05(  1.67%)
                                                  f 0.01(  0.42%)
                            0.291%  C   13 s(  4.82%)p17.87( 86.05%)d 1.83(  8.81%)
                                                  f 0.07(  0.33%)
                           60.555%  C   14 s( 22.71%)p 3.40( 77.12%)d 0.01(  0.16%)
                                                  f 0.00(  0.01%)
                            0.025%  C   15 s( 44.97%)p 0.85( 38.05%)d 0.34( 15.26%)
                                                  f 0.04(  1.72%)
                            0.020%  C   16 s( 32.12%)p 1.98( 63.66%)d 0.10(  3.28%)
                                                  f 0.03(  0.94%)
                            0.028%  H   45 s( 98.96%)p 0.01(  1.04%)
                           38.768%  H   46 s( 99.97%)p 0.00(  0.03%)
                            0.011%  H   51 s( 96.19%)p 0.04(  3.81%)
    40. (2.00000)  99.4129%  BD ( 1) C  14 H  47      
                            0.017%  C   10 s( 49.01%)p 0.92( 45.32%)d 0.11(  5.25%)
                                                  f 0.01(  0.42%)
                            0.011%  N   11 s(  2.41%)p26.82( 64.54%)d13.40( 32.25%)
                                                  f 0.34(  0.81%)
                            0.022%  C   12 s( 46.41%)p 0.87( 40.56%)d 0.27( 12.31%)
                                                  f 0.02(  0.72%)
                            0.218%  C   13 s(  4.01%)p22.02( 88.32%)d 1.85(  7.42%)
                                                  f 0.06(  0.25%)
                           60.422%  C   14 s( 22.95%)p 3.35( 76.91%)d 0.01(  0.14%)
                                                  f 0.00(  0.01%)
                            0.023%  C   15 s( 38.97%)p 0.89( 34.74%)d 0.64( 24.84%)
                                                  f 0.04(  1.45%)
                            0.017%  H   39 s( 98.30%)p 0.02(  1.70%)
                            0.210%  H   45 s( 99.03%)p 0.01(  0.97%)
                           38.993%  H   47 s( 99.97%)p 0.00(  0.03%)
    41. (2.00000)  99.3049%  BD ( 1) C  14 H  48      
                            0.029%  C   12 s( 60.28%)p 0.42( 25.61%)d 0.21( 12.69%)
                                                  f 0.02(  1.42%)
                            0.243%  C   13 s(  4.57%)p19.20( 87.73%)d 1.61(  7.35%)
                                                  f 0.08(  0.35%)
                           60.540%  C   14 s( 23.26%)p 3.29( 76.59%)d 0.01(  0.15%)
                                                  f 0.00(  0.01%)
                            0.210%  C   15 s( 32.95%)p 1.94( 63.93%)d 0.08(  2.55%)
                                                  f 0.02(  0.57%)
                            0.011%  C   16 s( 30.03%)p 2.27( 68.15%)d 0.04(  1.32%)
                                                  f 0.02(  0.51%)
                            0.023% Ni   20 s( 16.68%)p 3.23( 53.86%)d 1.77( 29.46%)
                                                  f 0.00(  0.01%)
                            0.055%  C   25 s(  0.66%)p99.99( 94.46%)d 6.82(  4.47%)
                                                  f 0.64(  0.42%)
                            0.020%  O   26 s(  6.84%)p12.06( 82.42%)d 1.55( 10.58%)
                                                  f 0.02(  0.16%)
                            0.027%  H   45 s( 97.94%)p 0.02(  2.06%)
                           38.767%  H   48 s( 99.97%)p 0.00(  0.03%)
                            0.022%  H   51 s( 99.77%)p 0.00(  0.23%)
    42. (2.00000)  99.3935%  BD ( 1) C  15 H  49      
                            0.029%  C    9 s(  8.98%)p 9.78( 87.79%)d 0.35(  3.14%)
                                                  f 0.01(  0.09%)
                            0.055%  C   10 s( 16.51%)p 4.66( 76.86%)d 0.39(  6.51%)
                                                  f 0.01(  0.12%)
                            0.012%  C   12 s( 30.85%)p 1.39( 43.00%)d 0.79( 24.22%)
                                                  f 0.06(  1.93%)
                            0.215%  C   13 s(  4.23%)p20.81( 87.94%)d 1.79(  7.58%)
                                                  f 0.06(  0.25%)
                            0.021%  C   14 s( 40.68%)p 0.82( 33.38%)d 0.61( 24.70%)
                                                  f 0.03(  1.24%)
                           60.398%  C   15 s( 23.08%)p 3.33( 76.77%)d 0.01(  0.14%)
                                                  f 0.00(  0.01%)
                            0.217%  H   45 s( 99.34%)p 0.01(  0.66%)
                           38.998%  H   49 s( 99.97%)p 0.00(  0.03%)
    43. (2.00000)  99.2842%  BD ( 1) C  15 H  50      
                            0.016%  C   10 s(  3.72%)p24.60( 91.42%)d 1.29(  4.78%)
                                                  f 0.02(  0.08%)
                            0.252%  C   12 s( 30.37%)p 2.21( 67.11%)d 0.07(  2.03%)
                                                  f 0.02(  0.49%)
                            0.321%  C   13 s(  4.56%)p19.15( 87.39%)d 1.72(  7.86%)
                                                  f 0.04(  0.18%)
                            0.015%  C   14 s( 38.80%)p 0.89( 34.71%)d 0.62( 24.08%)
                                                  f 0.06(  2.42%)
                           60.697%  C   15 s( 22.36%)p 3.47( 77.48%)d 0.01(  0.16%)
                                                  f 0.00(  0.01%)
                            0.042%  H   45 s( 99.46%)p 0.01(  0.54%)
                           38.592%  H   50 s( 99.97%)p 0.00(  0.03%)
    44. (2.00000)  99.3990%  BD ( 1) C  15 H  51      
                            0.025%  C   12 s( 63.06%)p 0.52( 32.77%)d 0.04(  2.60%)
                                                  f 0.03(  1.58%)
                            0.238%  C   13 s(  3.40%)p26.16( 89.00%)d 2.17(  7.37%)
                                                  f 0.07(  0.24%)
                            0.201%  C   14 s( 32.09%)p 2.03( 65.28%)d 0.06(  2.04%)
                                                  f 0.02(  0.59%)
                           60.539%  C   15 s( 23.26%)p 3.29( 76.59%)d 0.01(  0.14%)
                                                  f 0.00(  0.01%)
                            0.027%  C   16 s( 22.14%)p 3.23( 71.42%)d 0.26(  5.77%)
                                                  f 0.03(  0.67%)
                            0.012%  C   17 s( 26.85%)p 2.29( 61.56%)d 0.41( 10.90%)
                                                  f 0.03(  0.70%)
                            0.018%  H   45 s( 97.88%)p 0.02(  2.12%)
                            0.019%  H   48 s( 99.72%)p 0.00(  0.28%)
                           38.862%  H   51 s( 99.97%)p 0.00(  0.03%)
    45. (2.00000)  99.1984%  BD ( 1) C  16 C  17      
                            0.025%  N   11 s( 30.81%)p 2.07( 63.65%)d 0.15(  4.58%)
                                                  f 0.03(  0.95%)
                            0.205%  C   12 s(  4.17%)p21.57( 89.95%)d 1.34(  5.57%)
                                                  f 0.07(  0.30%)
                            0.140%  C   13 s( 25.58%)p 2.86( 73.09%)d 0.04(  0.91%)
                                                  f 0.02(  0.42%)
                           50.480%  C   16 s( 25.97%)p 2.85( 73.96%)d 0.00(  0.06%)
                                                  f 0.00(  0.00%)
                           48.728%  C   17 s( 28.80%)p 2.47( 71.07%)d 0.00(  0.12%)
                                                  f 0.00(  0.01%)
                            0.139%  C   18 s(  1.33%)p70.88( 94.46%)d 2.94(  3.92%)
                                                  f 0.21(  0.28%)
                            0.023%  H   44 s( 97.82%)p 0.02(  2.18%)
                            0.012%  H   52 s( 44.01%)p 1.27( 55.99%)
                            0.012%  H   56 s( 99.58%)p 0.00(  0.42%)
                            0.030%  H   57 s( 98.92%)p 0.01(  1.08%)
                            0.135%  H   58 s( 99.63%)p 0.00(  0.37%)
    46. (2.00000)  99.0686%  BD ( 1) C  16 C  18      
                            0.022%  C   10 s( 11.09%)p 7.06( 78.23%)d 0.95( 10.49%)
                                                  f 0.02(  0.19%)
                            0.162%  N   11 s( 40.40%)p 1.42( 57.29%)d 0.05(  2.03%)
                                                  f 0.01(  0.29%)
                            0.300%  C   12 s(  7.27%)p12.21( 88.76%)d 0.51(  3.73%)
                                                  f 0.03(  0.24%)
                            0.011%  C   13 s( 39.44%)p 1.10( 43.29%)d 0.37( 14.70%)
                                                  f 0.07(  2.57%)
                           50.357%  C   16 s( 25.50%)p 2.92( 74.43%)d 0.00(  0.06%)
                                                  f 0.00(  0.00%)
                            0.138%  C   17 s(  1.88%)p50.06( 94.20%)d 1.97(  3.70%)
                                                  f 0.11(  0.21%)
                           48.723%  C   18 s( 28.90%)p 2.46( 70.97%)d 0.00(  0.12%)
                                                  f 0.00(  0.01%)
                            0.026%  C   19 s( 16.26%)p 5.01( 81.43%)d 0.14(  2.23%)
                                                  f 0.01(  0.08%)
                            0.022%  H   44 s( 98.30%)p 0.02(  1.70%)
                            0.012%  H   52 s( 53.93%)p 0.85( 46.07%)
                            0.135%  H   53 s( 99.68%)p 0.00(  0.32%)
                            0.019%  H   54 s( 99.25%)p 0.01(  0.75%)
                            0.018%  H   55 s( 99.97%)p 0.00(  0.03%)
    47. (2.00000)  98.2289%  BD ( 1) C  16 H  52      
                            0.016%  C    9 s( 14.03%)p 5.94( 83.38%)d 0.14(  1.97%)
                                                  f 0.04(  0.61%)
                            0.046%  C   10 s(  8.33%)p 9.61( 80.03%)d 1.38( 11.49%)
                                                  f 0.02(  0.15%)
                            0.026%  N   11 s( 75.26%)p 0.20( 14.76%)d 0.12(  9.21%)
                                                  f 0.01(  0.77%)
                            0.248%  C   12 s(  4.96%)p18.19( 90.13%)d 0.98(  4.87%)
                                                  f 0.01(  0.04%)
                            0.016%  C   13 s( 55.01%)p 0.60( 32.92%)d 0.19( 10.54%)
                                                  f 0.03(  1.53%)
                            0.027%  C   15 s(  3.36%)p24.04( 80.75%)d 4.61( 15.49%)
                                                  f 0.12(  0.40%)
                           59.537%  C   16 s( 19.96%)p 4.00( 79.90%)d 0.01(  0.13%)
                                                  f 0.00(  0.00%)
                            0.207%  C   17 s(  3.65%)p25.68( 93.78%)d 0.66(  2.41%)
                                                  f 0.04(  0.15%)
                            0.212%  C   18 s(  3.20%)p29.47( 94.21%)d 0.75(  2.41%)
                                                  f 0.06(  0.18%)
                            0.011%  C   19 s( 17.43%)p 4.61( 80.38%)d 0.12(  2.05%)
                                                  f 0.01(  0.14%)
                            0.022% Ni   20 s( 17.83%)p 3.45( 61.50%)d 1.16( 20.67%)
                                                  f 0.00(  0.00%)
                            0.013%  C   25 s(  6.04%)p15.42( 93.15%)d 0.12(  0.74%)
                                                  f 0.01(  0.08%)
                            0.267%  H   44 s( 99.70%)p 0.00(  0.30%)
                            0.010%  H   51 s( 93.47%)p 0.07(  6.53%)
                           38.693%  H   52 s( 99.97%)p 0.00(  0.03%)
                            0.015%  H   53 s( 98.84%)p 0.01(  1.16%)
                            0.018%  H   54 s( 99.31%)p 0.01(  0.69%)
                            0.274%  H   55 s( 99.86%)p 0.00(  0.14%)
                            0.272%  H   56 s( 99.88%)p 0.00(  0.12%)
                            0.013%  H   57 s( 99.57%)p 0.00(  0.43%)
                            0.021%  H   58 s( 98.85%)p 0.01(  1.15%)
    48. (2.00000)  99.3705%  BD ( 1) C  17 H  53      
                            0.021%  C   10 s( 55.46%)p 0.66( 36.44%)d 0.14(  7.85%)
                                                  f 0.00(  0.25%)
                            0.010%  N   11 s( 10.33%)p 4.22( 43.53%)d 4.31( 44.54%)
                                                  f 0.16(  1.60%)
                            0.031%  C   12 s( 44.86%)p 1.06( 47.47%)d 0.16(  7.19%)
                                                  f 0.01(  0.47%)
                            0.238%  C   16 s(  2.40%)p37.46( 89.86%)d 3.08(  7.39%)
                                                  f 0.15(  0.35%)
                           60.641%  C   17 s( 23.17%)p 3.31( 76.68%)d 0.01(  0.15%)
                                                  f 0.00(  0.01%)
                            0.202%  C   18 s( 33.35%)p 1.92( 63.94%)d 0.07(  2.22%)
                                                  f 0.01(  0.49%)
                            0.013%  H   31 s( 98.05%)p 0.02(  1.95%)
                            0.023%  H   52 s( 99.02%)p 0.01(  0.98%)
                           38.732%  H   53 s( 99.97%)p 0.00(  0.03%)
                            0.011%  H   55 s( 65.21%)p 0.53( 34.79%)
                            0.022%  H   58 s( 99.78%)p 0.00(  0.22%)
    49. (2.00000)  99.3469%  BD ( 1) C  17 H  54      
                            0.010%  N   11 s( 16.99%)p 4.42( 75.07%)d 0.44(  7.44%)
                                                  f 0.03(  0.50%)
                            0.243%  C   12 s( 32.64%)p 1.99( 64.89%)d 0.06(  2.00%)
                                                  f 0.01(  0.47%)
                            0.019%  C   13 s( 33.81%)p 1.85( 62.44%)d 0.08(  2.73%)
                                                  f 0.03(  1.02%)
                            0.282%  C   16 s(  4.93%)p17.52( 86.41%)d 1.69(  8.35%)
                                                  f 0.06(  0.30%)
                           60.574%  C   17 s( 22.77%)p 3.38( 77.06%)d 0.01(  0.16%)
                                                  f 0.00(  0.01%)
                            0.019%  C   18 s( 49.57%)p 0.58( 28.93%)d 0.39( 19.22%)
                                                  f 0.05(  2.28%)
                            0.026%  H   52 s( 99.10%)p 0.01(  0.90%)
                           38.775%  H   54 s( 99.97%)p 0.00(  0.03%)
    50. (2.00000)  99.4271%  BD ( 1) C  17 H  55      
                            0.028%  C   12 s( 51.54%)p 0.65( 33.75%)d 0.27( 13.76%)
                                                  f 0.02(  0.95%)
                            0.209%  C   16 s(  5.00%)p17.97( 89.80%)d 1.03(  5.16%)
                                                  f 0.01(  0.04%)
                           60.401%  C   17 s( 22.93%)p 3.35( 76.92%)d 0.01(  0.14%)
                                                  f 0.00(  0.00%)
                            0.019%  C   18 s( 42.01%)p 0.85( 35.84%)d 0.48( 20.29%)
                                                  f 0.04(  1.85%)
                            0.014% Ni   20 s( 11.07%)p 5.75( 63.60%)d 2.29( 25.33%)
                                                  f 0.00(  0.00%)
                            0.016%  C   21 s(  1.78%)p54.41( 96.66%)d 0.82(  1.45%)
                                                  f 0.06(  0.11%)
                            0.218%  H   52 s( 99.61%)p 0.00(  0.39%)
                           39.028%  H   55 s( 99.98%)p 0.00(  0.02%)
    51. (2.00000)  99.4194%  BD ( 1) C  18 H  56      
                            0.043%  C   12 s( 67.12%)p 0.35( 23.24%)d 0.13(  8.83%)
                                                  f 0.01(  0.81%)
                            0.223%  C   16 s(  4.55%)p19.18( 87.24%)d 1.76(  7.98%)
                                                  f 0.05(  0.23%)
                            0.016%  C   17 s( 35.25%)p 1.04( 36.51%)d 0.75( 26.55%)
                                                  f 0.05(  1.69%)
                           60.451%  C   18 s( 22.84%)p 3.37( 77.02%)d 0.01(  0.14%)
                                                  f 0.00(  0.01%)
                            0.220%  H   52 s( 99.12%)p 0.01(  0.88%)
                           38.970%  H   56 s( 99.97%)p 0.00(  0.03%)
    52. (2.00000)  99.3459%  BD ( 1) C  18 H  57      
                            0.022%  N   11 s( 52.28%)p 0.86( 44.84%)d 0.04(  2.23%)
                                                  f 0.01(  0.66%)
                            0.245%  C   12 s( 38.56%)p 1.55( 59.59%)d 0.04(  1.37%)
                                                  f 0.01(  0.48%)
                            0.269%  C   16 s(  3.89%)p22.34( 86.86%)d 2.30(  8.93%)
                                                  f 0.08(  0.32%)
                            0.031%  C   17 s( 50.90%)p 0.71( 35.91%)d 0.23( 11.79%)
                                                  f 0.03(  1.40%)
                           60.693%  C   18 s( 22.64%)p 3.41( 77.20%)d 0.01(  0.15%)
                                                  f 0.00(  0.01%)
                            0.013%  C   19 s(  7.67%)p11.77( 90.33%)d 0.21(  1.61%)
                                                  f 0.05(  0.39%)
                            0.017%  H   52 s( 98.65%)p 0.01(  1.35%)
                            0.011%  H   53 s( 96.72%)p 0.03(  3.28%)
                           38.656%  H   57 s( 99.97%)p 0.00(  0.03%)
    53. (2.00000)  99.3962%  BD ( 1) C  18 H  58      
                            0.021%  C   12 s( 51.88%)p 0.85( 43.84%)d 0.05(  2.69%)
                                                  f 0.03(  1.60%)
                            0.028%  C   13 s( 18.13%)p 4.21( 76.24%)d 0.26(  4.77%)
                                                  f 0.05(  0.86%)
                            0.015%  C   14 s( 25.28%)p 2.53( 64.08%)d 0.39(  9.89%)
                                                  f 0.03(  0.75%)
                            0.012%  C   15 s( 14.56%)p 4.83( 70.26%)d 0.97( 14.09%)
                                                  f 0.07(  1.09%)
                            0.234%  C   16 s(  3.25%)p27.50( 89.35%)d 2.21(  7.18%)
                                                  f 0.07(  0.23%)
                            0.196%  C   17 s( 33.03%)p 1.94( 63.91%)d 0.07(  2.42%)
                                                  f 0.02(  0.65%)
                           60.605%  C   18 s( 23.33%)p 3.28( 76.52%)d 0.01(  0.14%)
                                                  f 0.00(  0.01%)
                            0.032%  H   52 s( 99.05%)p 0.01(  0.95%)
                            0.020%  H   53 s( 99.52%)p 0.00(  0.48%)
                           38.793%  H   58 s( 99.97%)p 0.00(  0.03%)
    54. (2.00000)  93.1813%  BD ( 1) C  19Ni  20      
                            0.011%  C    2 s(  6.39%)p14.43( 92.14%)d 0.19(  1.23%)
                                                  f 0.04(  0.24%)
                            0.055%  C    4 s( 56.12%)p 0.70( 39.40%)d 0.07(  4.06%)
                                                  f 0.01(  0.42%)
                            0.402%  N    8 s( 26.42%)p 2.44( 64.52%)d 0.33(  8.75%)
                                                  f 0.01(  0.31%)
                            0.567%  C    9 s( 41.27%)p 1.41( 58.07%)d 0.02(  0.65%)
                                                  f 0.00(  0.01%)
                            0.567%  C   10 s( 41.27%)p 1.41( 58.07%)d 0.02(  0.65%)
                                                  f 0.00(  0.01%)
                            0.402%  N   11 s( 26.44%)p 2.44( 64.49%)d 0.33(  8.75%)
                                                  f 0.01(  0.31%)
                            0.055%  C   12 s( 56.11%)p 0.70( 39.41%)d 0.07(  4.06%)
                                                  f 0.01(  0.42%)
                            0.011%  C   16 s(  6.43%)p14.33( 92.10%)d 0.19(  1.23%)
                                                  f 0.04(  0.24%)
                           71.702%  C   19 s( 45.50%)p 1.20( 54.48%)d 0.00(  0.02%)
                                                  f 0.00(  0.00%)
                           22.048% Ni   20 s( 19.60%)p 3.55( 69.50%)d 0.56( 10.90%)
                                                  f 0.00(  0.00%)
                            1.072%  C   21 s(  0.14%)p99.99( 99.57%)d 1.54(  0.21%)
                                                  f 0.57(  0.08%)
                            0.322%  O   22 s(  3.38%)p28.45( 96.13%)d 0.14(  0.47%)
                                                  f 0.01(  0.03%)
                            0.985%  C   23 s(  1.08%)p91.40( 98.55%)d 0.24(  0.25%)
                                                  f 0.11(  0.12%)
                            0.303%  O   24 s(  3.56%)p26.91( 95.89%)d 0.14(  0.51%)
                                                  f 0.01(  0.03%)
                            0.985%  C   25 s(  1.06%)p93.04( 98.57%)d 0.24(  0.25%)
                                                  f 0.11(  0.12%)
                            0.303%  O   26 s(  3.56%)p26.91( 95.89%)d 0.14(  0.51%)
                                                  f 0.01(  0.03%)
                            0.034%  H   34 s( 99.23%)p 0.01(  0.77%)
                            0.028%  H   42 s( 99.31%)p 0.01(  0.69%)
                            0.028%  H   43 s( 99.31%)p 0.01(  0.69%)
                            0.034%  H   44 s( 99.23%)p 0.01(  0.77%)
    55. (2.00000)  96.8137%  BD ( 1)Ni  20 C  21      
                            0.084%  N    8 s(  2.11%)p46.31( 97.54%)d 0.14(  0.29%)
                                                  f 0.03(  0.06%)
                            0.013%  C    9 s(  3.12%)p30.12( 94.03%)d 0.85(  2.67%)
                                                  f 0.06(  0.18%)
                            0.015%  C   10 s(  2.82%)p33.61( 94.68%)d 0.83(  2.34%)
                                                  f 0.06(  0.16%)
                            0.075%  N   11 s(  2.31%)p42.11( 97.29%)d 0.14(  0.33%)
                                                  f 0.03(  0.07%)
                            0.320%  C   19 s(  0.11%)p99.99( 99.03%)d 8.05(  0.85%)
                                                  f 0.13(  0.01%)
                           24.766% Ni   20 s( 23.20%)p 3.02( 69.96%)d 0.29(  6.84%)
                                                  f 0.00(  0.00%)
                           72.303%  C   21 s( 71.74%)p 0.39( 28.20%)d 0.00(  0.04%)
                                                  f 0.00(  0.02%)
                            0.156%  O   22 s( 83.46%)p 0.12( 10.07%)d 0.08(  6.44%)
                                                  f 0.00(  0.04%)
                            0.833%  C   23 s(  2.24%)p43.52( 97.31%)d 0.15(  0.33%)
                                                  f 0.06(  0.12%)
                            0.275%  O   24 s(  4.72%)p20.03( 94.65%)d 0.12(  0.59%)
                                                  f 0.01(  0.04%)
                            0.834%  C   25 s(  2.23%)p43.57( 97.31%)d 0.15(  0.33%)
                                                  f 0.06(  0.12%)
                            0.275%  O   26 s(  4.72%)p20.06( 94.65%)d 0.12(  0.59%)
                                                  f 0.01(  0.04%)
    56. (2.00000)  97.0070%  BD ( 1)Ni  20 C  23      
                            0.056%  C    4 s( 37.19%)p 1.63( 60.61%)d 0.06(  2.15%)
                                                  f 0.00(  0.04%)
                            0.013%  N    8 s( 18.77%)p 4.27( 80.07%)d 0.05(  0.92%)
                                                  f 0.01(  0.25%)
                            0.045%  N   11 s( 43.16%)p 1.28( 55.18%)d 0.03(  1.51%)
                                                  f 0.00(  0.15%)
                            0.162%  C   19 s(  0.84%)p99.99( 98.22%)d 1.06(  0.89%)
                                                  f 0.07(  0.06%)
                           24.534% Ni   20 s( 24.56%)p 2.80( 68.74%)d 0.27(  6.69%)
                                                  f 0.00(  0.00%)
                            0.748%  C   21 s(  0.34%)p99.99( 99.18%)d 0.98(  0.33%)
                                                  f 0.43(  0.15%)
                            0.233%  O   22 s(  5.01%)p18.84( 94.34%)d 0.12(  0.62%)
                                                  f 0.01(  0.04%)
                           72.746%  C   23 s( 71.95%)p 0.39( 28.00%)d 0.00(  0.04%)
                                                  f 0.00(  0.02%)
                            0.160%  O   24 s( 83.32%)p 0.12( 10.38%)d 0.08(  6.26%)
                                                  f 0.00(  0.04%)
                            0.870%  C   25 s(  0.88%)p99.99( 98.68%)d 0.37(  0.33%)
                                                  f 0.13(  0.11%)
                            0.274%  O   26 s(  4.74%)p19.96( 94.59%)d 0.13(  0.63%)
                                                  f 0.01(  0.04%)
                            0.084%  H   34 s( 99.38%)p 0.01(  0.62%)
                            0.020%  H   41 s( 99.45%)p 0.01(  0.55%)
    57. (2.00000)  97.0039%  BD ( 1)Ni  20 C  25      
                            0.045%  N    8 s( 43.14%)p 1.28( 55.20%)d 0.04(  1.51%)
                                                  f 0.00(  0.15%)
                            0.013%  N   11 s( 19.03%)p 4.19( 79.79%)d 0.05(  0.92%)
                                                  f 0.01(  0.25%)
                            0.056%  C   12 s( 37.21%)p 1.63( 60.59%)d 0.06(  2.16%)
                                                  f 0.00(  0.04%)
                            0.161%  C   19 s(  0.80%)p99.99( 98.25%)d 1.10(  0.89%)
                                                  f 0.08(  0.06%)
                           24.538% Ni   20 s( 24.36%)p 2.83( 68.92%)d 0.28(  6.72%)
                                                  f 0.00(  0.00%)
                            0.750%  C   21 s(  0.34%)p99.99( 99.18%)d 0.98(  0.33%)
                                                  f 0.44(  0.15%)
                            0.234%  O   22 s(  4.96%)p19.03( 94.38%)d 0.12(  0.61%)
                                                  f 0.01(  0.04%)
                            0.866%  C   23 s(  1.51%)p64.88( 98.05%)d 0.21(  0.32%)
                                                  f 0.08(  0.11%)
                            0.274%  O   24 s(  4.74%)p19.96( 94.59%)d 0.13(  0.63%)
                                                  f 0.01(  0.04%)
                           72.743%  C   25 s( 71.96%)p 0.39( 27.98%)d 0.00(  0.04%)
                                                  f 0.00(  0.02%)
                            0.160%  O   26 s( 83.26%)p 0.13( 10.44%)d 0.08(  6.25%)
                                                  f 0.00(  0.04%)
                            0.084%  H   44 s( 99.38%)p 0.01(  0.62%)
                            0.020%  H   48 s( 99.45%)p 0.01(  0.55%)
    58. (2.00000)  99.9215%  BD ( 1) C  21 O  22      
                            0.024% Ni   20 s( 17.76%)p 1.13( 20.13%)d 3.48( 61.82%)
                                                  f 0.02(  0.29%)
                           29.938%  C   21 s( 34.92%)p 1.86( 64.94%)d 0.00(  0.11%)
                                                  f 0.00(  0.03%)
                           69.991%  O   22 s( 46.49%)p 1.14( 52.79%)d 0.01(  0.70%)
                                                  f 0.00(  0.02%)
                            0.012%  C   23 s(  4.89%)p18.99( 92.91%)d 0.40(  1.96%)
                                                  f 0.05(  0.23%)
                            0.012%  C   25 s(  4.94%)p18.78( 92.86%)d 0.40(  1.96%)
                                                  f 0.05(  0.23%)
    59. (2.00000)  99.8921%  BD ( 2) C  21 O  22      
                            0.011%  C   19 s( 48.17%)p 0.96( 46.26%)d 0.11(  5.36%)
                                                  f 0.00(  0.22%)
                            0.072% Ni   20 s(  0.84%)p48.98( 41.28%)d68.61( 57.82%)
                                                  f 0.06(  0.05%)
                           23.666%  C   21 s(  0.38%)p99.99( 99.41%)d 0.57(  0.21%)
                                                  f 0.00(  0.00%)
                           76.230%  O   22 s(  0.35%)p99.99( 99.18%)d 1.30(  0.45%)
                                                  f 0.06(  0.02%)
    60. (2.00000)  99.8919%  BD ( 3) C  21 O  22      
                            0.068% Ni   20 s(  0.00%)p 1.00( 40.53%)d 1.47( 59.41%)
                                                  f 0.00(  0.06%)
                           23.714%  C   21 s(  0.00%)p 1.00( 99.78%)d 0.00(  0.21%)
                                                  f 0.00(  0.00%)
                           76.178%  O   22 s(  0.00%)p 1.00( 99.53%)d 0.00(  0.45%)
                                                  f 0.00(  0.02%)
                            0.011%  C   23 s( 61.42%)p 0.60( 37.15%)d 0.02(  0.99%)
                                                  f 0.01(  0.44%)
                            0.011%  C   25 s( 61.47%)p 0.60( 37.09%)d 0.02(  0.99%)
                                                  f 0.01(  0.44%)
    61. (2.00000)  99.8870%  BD ( 1) C  23 O  24      
                            0.025% Ni   20 s( 13.94%)p 2.73( 38.10%)d 3.43( 47.74%)
                                                  f 0.02(  0.23%)
                            0.011%  C   21 s(  5.14%)p17.48( 89.76%)d 0.92(  4.71%)
                                                  f 0.08(  0.39%)
                           29.500%  C   23 s( 32.94%)p 2.03( 66.92%)d 0.00(  0.11%)
                                                  f 0.00(  0.03%)
                           70.418%  O   24 s( 43.55%)p 1.28( 55.75%)d 0.02(  0.67%)
                                                  f 0.00(  0.02%)
                            0.013%  C   25 s(  0.65%)p99.99( 96.46%)d 3.75(  2.42%)
                                                  f 0.73(  0.47%)
    62. (2.00000)  99.8755%  BD ( 2) C  23 O  24      
                            0.071% Ni   20 s(  0.36%)p99.99( 36.61%)d99.99( 62.97%)
                                                  f 0.16(  0.06%)
                            0.014%  C   21 s( 48.26%)p 1.05( 50.60%)d 0.02(  0.73%)
                                                  f 0.01(  0.41%)
                           24.011%  C   23 s(  1.28%)p77.10( 98.51%)d 0.16(  0.21%)
                                                  f 0.00(  0.00%)
                           75.877%  O   24 s(  1.29%)p76.04( 98.23%)d 0.35(  0.46%)
                                                  f 0.02(  0.02%)
    63. (2.00000)  99.8665%  BD ( 3) C  23 O  24      
                            0.067% Ni   20 s(  0.65%)p65.99( 42.98%)d86.46( 56.31%)
                                                  f 0.08(  0.05%)
                           23.894%  C   23 s(  1.74%)p56.45( 98.05%)d 0.12(  0.21%)
                                                  f 0.00(  0.00%)
                           75.988%  O   24 s(  1.89%)p51.68( 97.63%)d 0.24(  0.46%)
                                                  f 0.01(  0.02%)
    64. (2.00000)  99.8870%  BD ( 1) C  25 O  26      
                            0.025% Ni   20 s( 13.91%)p 2.74( 38.06%)d 3.44( 47.80%)
                                                  f 0.02(  0.23%)
                            0.011%  C   21 s(  5.12%)p17.55( 89.78%)d 0.92(  4.72%)
                                                  f 0.08(  0.39%)
                            0.013%  C   23 s(  0.69%)p99.99( 96.42%)d 3.54(  2.42%)
                                                  f 0.69(  0.47%)
                           29.500%  C   25 s( 32.93%)p 2.03( 66.93%)d 0.00(  0.11%)
                                                  f 0.00(  0.03%)
                           70.419%  O   26 s( 43.56%)p 1.28( 55.74%)d 0.02(  0.67%)
                                                  f 0.00(  0.02%)
    65. (2.00000)  99.8755%  BD ( 2) C  25 O  26      
                            0.071% Ni   20 s(  0.36%)p99.99( 36.61%)d99.99( 62.97%)
                                                  f 0.16(  0.06%)
                            0.014%  C   21 s( 48.26%)p 1.05( 50.59%)d 0.02(  0.73%)
                                                  f 0.01(  0.41%)
                           24.011%  C   25 s(  1.28%)p77.08( 98.51%)d 0.16(  0.21%)
                                                  f 0.00(  0.00%)
                           75.877%  O   26 s(  1.29%)p76.00( 98.23%)d 0.35(  0.46%)
                                                  f 0.02(  0.02%)
    66. (2.00000)  99.8665%  BD ( 3) C  25 O  26      
                            0.067% Ni   20 s(  0.65%)p66.01( 42.98%)d86.48( 56.31%)
                                                  f 0.08(  0.05%)
                           23.894%  C   25 s(  1.74%)p56.46( 98.05%)d 0.12(  0.21%)
                                                  f 0.00(  0.00%)
                           75.988%  O   26 s(  1.89%)p51.68( 97.63%)d 0.24(  0.46%)
                                                  f 0.01(  0.02%)
    67. (2.00000)  99.9727%  CR ( 1) C   1            
                           99.973%  C    1 s(100.00%)p 0.00(  0.00%)d 0.00(  0.00%)
                                                  f 0.00(  0.00%)
                            0.011%  C    2 s( 22.43%)p 3.15( 70.72%)d 0.27(  5.97%)
                                                  f 0.04(  0.88%)
    68. (2.00000)  99.9711%  CR ( 1) C   2            
                           99.972%  C    2 s(100.00%)p 0.00(  0.00%)d 0.00(  0.00%)
                                                  f 0.00(  0.00%)
                            0.010%  C    4 s( 20.04%)p 3.84( 77.02%)d 0.13(  2.51%)
                                                  f 0.02(  0.43%)
    69. (2.00000)  99.9727%  CR ( 1) C   3            
                            0.011%  C    2 s( 22.53%)p 3.21( 72.26%)d 0.20(  4.52%)
                                                  f 0.03(  0.69%)
                           99.974%  C    3 s(100.00%)p 0.00(  0.00%)d 0.00(  0.00%)
                                                  f 0.00(  0.00%)
    70. (2.00000)  99.9603%  CR ( 1) C   4            
                           99.963%  C    4 s(100.00%)p 0.00(  0.00%)d 0.00(  0.00%)
                                                  f 0.00(  0.00%)
    71. (2.00000)  99.9708%  CR ( 1) C   5            
                            0.010%  C    4 s( 19.99%)p 3.84( 76.83%)d 0.14(  2.71%)
                                                  f 0.02(  0.47%)
                           99.972%  C    5 s(100.00%)p 0.00(  0.00%)d 0.00(  0.00%)
                                                  f 0.00(  0.00%)
    72. (2.00000)  99.9724%  CR ( 1) C   6            
                            0.012%  C    5 s( 21.95%)p 3.25( 71.35%)d 0.27(  5.85%)
                                                  f 0.04(  0.85%)
                           99.973%  C    6 s(100.00%)p 0.00(  0.00%)d 0.00(  0.00%)
                                                  f 0.00(  0.00%)
    73. (2.00000)  99.9724%  CR ( 1) C   7            
                            0.011%  C    5 s( 21.63%)p 3.30( 71.33%)d 0.29(  6.18%)
                                                  f 0.04(  0.86%)
                           99.973%  C    7 s(100.00%)p 0.00(  0.00%)d 0.00(  0.00%)
                                                  f 0.00(  0.00%)
    74. (2.00000)  99.9700%  CR ( 1) N   8            
                           99.973%  N    8 s(100.00%)p 0.00(  0.00%)d 0.00(  0.00%)
                                                  f 0.00(  0.00%)
    75. (2.00000)  99.9526%  CR ( 1) C   9            
                            0.013%  N    8 s( 28.31%)p 2.31( 65.40%)d 0.20(  5.71%)
                                                  f 0.02(  0.57%)
                           99.957%  C    9 s( 99.99%)p 0.00(  0.00%)d 0.00(  0.00%)
                                                  f 0.00(  0.00%)
                            0.017%  C   10 s( 12.67%)p 6.56( 83.11%)d 0.30(  3.82%)
                                                  f 0.03(  0.40%)
    76. (2.00000)  99.9526%  CR ( 1) C  10            
                            0.017%  C    9 s( 12.67%)p 6.56( 83.11%)d 0.30(  3.82%)
                                                  f 0.03(  0.40%)
                           99.957%  C   10 s( 99.99%)p 0.00(  0.00%)d 0.00(  0.00%)
                                                  f 0.00(  0.00%)
                            0.013%  N   11 s( 28.31%)p 2.31( 65.41%)d 0.20(  5.71%)
                                                  f 0.02(  0.57%)
    77. (2.00000)  99.9700%  CR ( 1) N  11            
                           99.973%  N   11 s(100.00%)p 0.00(  0.00%)d 0.00(  0.00%)
                                                  f 0.00(  0.00%)
    78. (2.00000)  99.9603%  CR ( 1) C  12            
                           99.963%  C   12 s(100.00%)p 0.00(  0.00%)d 0.00(  0.00%)
                                                  f 0.00(  0.00%)
    79. (2.00000)  99.9708%  CR ( 1) C  13            
                            0.010%  C   12 s( 19.99%)p 3.84( 76.83%)d 0.14(  2.71%)
                                                  f 0.02(  0.47%)
                           99.972%  C   13 s(100.00%)p 0.00(  0.00%)d 0.00(  0.00%)
                                                  f 0.00(  0.00%)
    80. (2.00000)  99.9724%  CR ( 1) C  14            
                            0.011%  C   13 s( 21.63%)p 3.30( 71.33%)d 0.29(  6.18%)
                                                  f 0.04(  0.86%)
                           99.973%  C   14 s(100.00%)p 0.00(  0.00%)d 0.00(  0.00%)
                                                  f 0.00(  0.00%)
    81. (2.00000)  99.9724%  CR ( 1) C  15            
                            0.012%  C   13 s( 21.95%)p 3.25( 71.36%)d 0.27(  5.85%)
                                                  f 0.04(  0.85%)
                           99.973%  C   15 s(100.00%)p 0.00(  0.00%)d 0.00(  0.00%)
                                                  f 0.00(  0.00%)
    82. (2.00000)  99.9711%  CR ( 1) C  16            
                            0.010%  C   12 s( 20.04%)p 3.84( 77.02%)d 0.13(  2.51%)
                                                  f 0.02(  0.43%)
                           99.972%  C   16 s(100.00%)p 0.00(  0.00%)d 0.00(  0.00%)
                                                  f 0.00(  0.00%)
    83. (2.00000)  99.9727%  CR ( 1) C  17            
                            0.011%  C   16 s( 22.53%)p 3.21( 72.26%)d 0.20(  4.52%)
                                                  f 0.03(  0.69%)
                           99.974%  C   17 s(100.00%)p 0.00(  0.00%)d 0.00(  0.00%)
                                                  f 0.00(  0.00%)
    84. (2.00000)  99.9727%  CR ( 1) C  18            
                            0.011%  C   16 s( 22.44%)p 3.15( 70.72%)d 0.27(  5.97%)
                                                  f 0.04(  0.88%)
                           99.973%  C   18 s(100.00%)p 0.00(  0.00%)d 0.00(  0.00%)
                                                  f 0.00(  0.00%)
    85. (2.00000)  99.9523%  CR ( 1) C  19            
                            0.011%  N    8 s( 25.11%)p 2.69( 67.48%)d 0.27(  6.74%)
                                                  f 0.03(  0.67%)
                            0.011%  N   11 s( 25.12%)p 2.69( 67.48%)d 0.27(  6.74%)
                                                  f 0.03(  0.67%)
                           99.953%  C   19 s(100.00%)p 0.00(  0.00%)d 0.00(  0.00%)
                                                  f 0.00(  0.00%)
    86. (2.00000)  99.5523%  CR ( 1)Ni  20            
                            0.038%  C   19 s( 52.11%)p 0.92( 47.72%)d 0.00(  0.17%)
                                                  f 0.00(  0.00%)
                           99.558% Ni   20 s(100.00%)p 0.00(  0.00%)d 0.00(  0.00%)
                                                  f 0.00(  0.00%)
                            0.092%  C   21 s( 27.54%)p 2.63( 72.32%)d 0.00(  0.12%)
                                                  f 0.00(  0.02%)
                            0.028%  O   22 s( 57.76%)p 0.71( 41.10%)d 0.02(  1.12%)
                                                  f 0.00(  0.02%)
                            0.100%  C   23 s( 24.39%)p 3.09( 75.48%)d 0.00(  0.11%)
                                                  f 0.00(  0.01%)
                            0.030%  O   24 s( 55.56%)p 0.78( 43.39%)d 0.02(  1.03%)
                                                  f 0.00(  0.02%)
                            0.100%  C   25 s( 24.41%)p 3.09( 75.46%)d 0.00(  0.11%)
                                                  f 0.00(  0.01%)
                            0.030%  O   26 s( 55.57%)p 0.78( 43.37%)d 0.02(  1.03%)
                                                  f 0.00(  0.02%)
    87. (2.00000)  99.8738%  CR ( 2)Ni  20            
                           99.874% Ni   20 s(  0.00%)p 1.00(100.00%)d 0.00(  0.00%)
                                                  f 0.00(  0.00%)
                            0.045%  C   23 s( 24.07%)p 3.11( 74.74%)d 0.05(  1.13%)
                                                  f 0.00(  0.07%)
                            0.012%  O   24 s( 55.49%)p 0.78( 43.51%)d 0.02(  0.99%)
                                                  f 0.00(  0.01%)
                            0.045%  C   25 s( 24.08%)p 3.10( 74.72%)d 0.05(  1.13%)
                                                  f 0.00(  0.07%)
                            0.012%  O   26 s( 55.50%)p 0.78( 43.50%)d 0.02(  0.99%)
                                                  f 0.00(  0.01%)
    88. (2.00000)  99.9295%  CR ( 3)Ni  20            
                            0.020%  C   19 s( 53.91%)p 0.83( 44.87%)d 0.02(  1.00%)
                                                  f 0.00(  0.21%)
                           99.936% Ni   20 s(  0.00%)p 1.00(100.00%)d 0.00(  0.00%)
                                                  f 0.00(  0.00%)
                            0.011%  C   21 s( 23.26%)p 3.22( 75.00%)d 0.06(  1.42%)
                                                  f 0.01(  0.32%)
    89. (2.00000)  99.8752%  CR ( 4)Ni  20            
                           99.877% Ni   20 s(  0.00%)p 1.00(100.00%)d 0.00(  0.00%)
                                                  f 0.00(  0.00%)
                            0.056%  C   21 s( 22.21%)p 3.45( 76.60%)d 0.05(  1.13%)
                                                  f 0.00(  0.06%)
                            0.015%  O   22 s( 56.56%)p 0.75( 42.53%)d 0.02(  0.91%)
                                                  f 0.00(  0.00%)
                            0.019%  C   23 s( 18.96%)p 4.20( 79.65%)d 0.06(  1.20%)
                                                  f 0.01(  0.20%)
                            0.019%  C   25 s( 18.99%)p 4.19( 79.62%)d 0.06(  1.20%)
                                                  f 0.01(  0.20%)
    90. (2.00000)  99.9564%  CR ( 1) C  21            
                            0.014% Ni   20 s(  7.19%)p12.15( 87.36%)d 0.75(  5.42%)
                                                  f 0.00(  0.03%)
                           99.964%  C   21 s( 99.99%)p 0.00(  0.01%)d 0.00(  0.00%)
                                                  f 0.00(  0.00%)
    91. (2.00000)  99.9882%  CR ( 1) O  22            
                           99.990%  O   22 s(100.00%)p 0.00(  0.00%)d 0.00(  0.00%)
                                                  f 0.00(  0.00%)
    92. (2.00000)  99.9555%  CR ( 1) C  23            
                            0.014% Ni   20 s(  5.89%)p15.22( 89.62%)d 0.76(  4.47%)
                                                  f 0.00(  0.03%)
                           99.963%  C   23 s( 99.99%)p 0.00(  0.01%)d 0.00(  0.00%)
                                                  f 0.00(  0.00%)
                            0.010%  O   24 s( 11.01%)p 5.23( 57.54%)d 2.77( 30.47%)
                                                  f 0.09(  0.98%)
    93. (2.00000)  99.9884%  CR ( 1) O  24            
                           99.990%  O   24 s(100.00%)p 0.00(  0.00%)d 0.00(  0.00%)
                                                  f 0.00(  0.00%)
    94. (2.00000)  99.9555%  CR ( 1) C  25            
                            0.014% Ni   20 s(  5.88%)p15.24( 89.61%)d 0.76(  4.48%)
                                                  f 0.00(  0.03%)
                           99.963%  C   25 s( 99.99%)p 0.00(  0.01%)d 0.00(  0.00%)
                                                  f 0.00(  0.00%)
                            0.010%  O   26 s( 11.01%)p 5.22( 57.54%)d 2.77( 30.47%)
                                                  f 0.09(  0.98%)
    95. (2.00000)  99.9884%  CR ( 1) O  26            
                           99.990%  O   26 s(100.00%)p 0.00(  0.00%)d 0.00(  0.00%)
                                                  f 0.00(  0.00%)
    96. (2.00000)  74.8135%  LP ( 1) N  11            
                            0.032%  C    2 s( 41.56%)p 1.33( 55.25%)d 0.06(  2.63%)
                                                  f 0.01(  0.56%)
                            0.049%  C    4 s(  0.53%)p99.99( 94.87%)d 8.46(  4.49%)
                                                  f 0.21(  0.11%)
                            0.034%  C    5 s( 41.07%)p 1.36( 55.79%)d 0.07(  2.70%)
                                                  f 0.01(  0.43%)
                            3.553%  N    8 s(  0.00%)p 1.00( 99.54%)d 0.00(  0.43%)
                                                  f 0.00(  0.03%)
                            4.195%  C    9 s(  0.00%)p 1.00( 99.76%)d 0.00(  0.23%)
                                                  f 0.00(  0.01%)
                            4.329%  C   10 s(  0.01%)p 1.00( 99.20%)d 0.01(  0.78%)
                                                  f 0.00(  0.01%)
                           74.816%  N   11 s(  0.00%)p 1.00( 99.95%)d 0.00(  0.02%)
                                                  f 0.00(  0.02%)
                            0.511%  C   12 s(  0.08%)p99.99( 95.98%)d44.99(  3.76%)
                                                  f 2.10(  0.18%)
                            0.289%  C   13 s( 36.77%)p 1.64( 60.20%)d 0.07(  2.52%)
                                                  f 0.01(  0.50%)
                            0.240%  C   16 s( 36.31%)p 1.67( 60.70%)d 0.07(  2.42%)
                                                  f 0.02(  0.57%)
                            0.013%  C   17 s( 22.57%)p 1.79( 40.46%)d 1.55( 34.89%)
                                                  f 0.09(  2.08%)
                            0.028%  C   18 s( 30.49%)p 2.17( 66.06%)d 0.09(  2.75%)
                                                  f 0.02(  0.70%)
                           11.763%  C   19 s(  0.02%)p99.99( 99.61%)d15.04(  0.36%)
                                                  f 0.14(  0.00%)
                            0.026% Ni   20 s(  0.42%)p99.99( 61.67%)d90.09( 37.84%)
                                                  f 0.16(  0.07%)
                            0.019%  H   45 s( 99.31%)p 0.01(  0.69%)
    97. (2.00000)  94.9934%  LP ( 1)Ni  20            
                            0.027%  C    4 s( 33.73%)p 1.79( 60.37%)d 0.17(  5.87%)
                                                  f 0.00(  0.03%)
                            0.071%  N    8 s( 56.70%)p 0.70( 39.93%)d 0.06(  3.26%)
                                                  f 0.00(  0.11%)
                            0.071%  N   11 s( 56.68%)p 0.70( 39.96%)d 0.06(  3.26%)
                                                  f 0.00(  0.11%)
                            0.027%  C   12 s( 33.74%)p 1.79( 60.35%)d 0.17(  5.87%)
                                                  f 0.00(  0.03%)
                            0.288%  C   19 s(  0.00%)p 1.00( 89.05%)d 0.12( 10.62%)
                                                  f 0.00(  0.33%)
                           94.997% Ni   20 s(  0.00%)p 1.00(  0.75%)d99.99( 99.25%)
                                                  f 0.00(  0.00%)
                            0.064%  C   21 s(  0.00%)p 1.00( 90.48%)d 0.10(  9.32%)
                                                  f 0.00(  0.20%)
                            1.658%  C   23 s(  7.81%)p11.75( 91.76%)d 0.05(  0.39%)
                                                  f 0.01(  0.05%)
                            0.514%  O   24 s(  2.51%)p38.64( 97.13%)d 0.13(  0.32%)
                                                  f 0.02(  0.04%)
                            1.658%  C   25 s(  7.83%)p11.71( 91.74%)d 0.05(  0.39%)
                                                  f 0.01(  0.05%)
                            0.514%  O   26 s(  2.51%)p38.62( 97.13%)d 0.13(  0.32%)
                                                  f 0.02(  0.04%)
                            0.032%  H   34 s( 98.59%)p 0.01(  1.41%)
                            0.032%  H   44 s( 98.59%)p 0.01(  1.41%)
    98. (2.00000)  94.1977%  LP ( 2)Ni  20            
                            0.233%  N    8 s(  0.16%)p99.99( 99.13%)d 3.90(  0.61%)
                                                  f 0.64(  0.10%)
                            0.034%  C    9 s(  0.32%)p99.99( 97.89%)d 5.09(  1.63%)
                                                  f 0.52(  0.16%)
                            0.038%  C   10 s(  0.28%)p99.99( 98.16%)d 4.97(  1.40%)
                                                  f 0.53(  0.15%)
                            0.207%  N   11 s(  0.20%)p99.99( 99.00%)d 3.53(  0.69%)
                                                  f 0.56(  0.11%)
                            0.845%  C   19 s(  1.56%)p62.20( 97.00%)d 0.86(  1.34%)
                                                  f 0.06(  0.10%)
                           94.255% Ni   20 s(  0.01%)p 1.00(  0.73%)d99.99( 99.26%)
                                                  f 0.00(  0.00%)
                            2.592%  C   21 s(  5.17%)p18.29( 94.49%)d 0.06(  0.31%)
                                                  f 0.01(  0.03%)
                            0.797%  O   22 s(  1.71%)p57.22( 97.98%)d 0.16(  0.27%)
                                                  f 0.02(  0.04%)
                            0.390%  C   23 s( 20.73%)p 3.76( 77.89%)d 0.06(  1.28%)
                                                  f 0.00(  0.10%)
                            0.091%  O   24 s(  7.07%)p13.00( 91.98%)d 0.13(  0.89%)
                                                  f 0.01(  0.06%)
                            0.390%  C   25 s( 20.73%)p 3.76( 77.89%)d 0.06(  1.28%)
                                                  f 0.00(  0.10%)
                            0.091%  O   26 s(  7.07%)p13.01( 91.98%)d 0.13(  0.89%)
                                                  f 0.01(  0.06%)
    99. (2.00000)  90.0672%  LP ( 3)Ni  20            
                            0.011%  C    4 s(  1.70%)p55.09( 93.52%)d 2.72(  4.62%)
                                                  f 0.09(  0.16%)
                            0.023%  N    8 s(  2.08%)p46.45( 96.75%)d 0.52(  1.07%)
                                                  f 0.04(  0.09%)
                            0.020%  N   11 s(  2.45%)p39.23( 96.24%)d 0.49(  1.21%)
                                                  f 0.04(  0.10%)
                            0.011%  C   12 s(  1.68%)p55.64( 93.55%)d 2.74(  4.61%)
                                                  f 0.09(  0.16%)
                            0.146%  C   19 s( 16.44%)p 4.78( 78.65%)d 0.29(  4.80%)
                                                  f 0.01(  0.11%)
                           90.216% Ni   20 s(  0.00%)p 1.00(  2.11%)d46.32( 97.88%)
                                                  f 0.00(  0.00%)
                            0.305%  C   21 s( 64.24%)p 0.53( 33.90%)d 0.03(  1.69%)
                                                  f 0.00(  0.17%)
                            0.031%  O   22 s( 67.60%)p 0.45( 30.44%)d 0.03(  1.89%)
                                                  f 0.00(  0.07%)
                            3.451%  C   23 s(  1.68%)p58.46( 97.99%)d 0.18(  0.30%)
                                                  f 0.02(  0.03%)
                            1.124%  O   24 s(  0.72%)p99.99( 98.87%)d 0.53(  0.38%)
                                                  f 0.05(  0.03%)
                            3.457%  C   25 s(  1.66%)p58.88( 98.01%)d 0.18(  0.30%)
                                                  f 0.02(  0.03%)
                            1.126%  O   26 s(  0.71%)p99.99( 98.88%)d 0.53(  0.38%)
                                                  f 0.05(  0.03%)
                            0.021%  H   34 s( 97.75%)p 0.02(  2.25%)
                            0.021%  H   44 s( 97.75%)p 0.02(  2.25%)
   100. (2.00000)  90.1109%  LP ( 4)Ni  20            
                            0.031%  C    4 s( 31.99%)p 2.09( 66.92%)d 0.03(  1.06%)
                                                  f 0.00(  0.04%)
                            0.022%  N    8 s( 54.24%)p 0.82( 44.25%)d 0.03(  1.36%)
                                                  f 0.00(  0.15%)
                            0.022%  N   11 s( 54.21%)p 0.82( 44.28%)d 0.03(  1.36%)
                                                  f 0.00(  0.15%)
                            0.031%  C   12 s( 31.94%)p 2.10( 66.97%)d 0.03(  1.05%)
                                                  f 0.00(  0.04%)
                            0.071%  C   19 s(  0.00%)p 1.00( 98.08%)d 0.02(  1.85%)
                                                  f 0.00(  0.07%)
                           90.132% Ni   20 s(  0.00%)p 1.00(  2.65%)d36.79( 97.35%)
                                                  f 0.00(  0.00%)
                            4.553%  C   21 s(  0.00%)p 1.00( 99.73%)d 0.00(  0.24%)
                                                  f 0.00(  0.03%)
                            1.475%  O   22 s(  0.00%)p 1.00( 99.65%)d 0.00(  0.32%)
                                                  f 0.00(  0.03%)
                            1.380%  C   23 s( 13.65%)p 6.29( 85.80%)d 0.04(  0.49%)
                                                  f 0.00(  0.05%)
                            0.383%  O   24 s(  4.93%)p19.19( 94.63%)d 0.08(  0.40%)
                                                  f 0.01(  0.04%)
                            1.372%  C   25 s( 13.78%)p 6.22( 85.67%)d 0.04(  0.49%)
                                                  f 0.00(  0.05%)
                            0.381%  O   26 s(  4.99%)p18.97( 94.57%)d 0.08(  0.40%)
                                                  f 0.01(  0.04%)
                            0.035%  H   34 s( 99.47%)p 0.01(  0.53%)
                            0.014%  H   41 s( 99.91%)p 0.00(  0.09%)
                            0.035%  H   44 s( 99.47%)p 0.01(  0.53%)
                            0.014%  H   48 s( 99.91%)p 0.00(  0.09%)
   101. (2.00000)  87.4012%  LP ( 5)Ni  20            
                            0.016%  C    4 s( 15.49%)p 5.34( 82.68%)d 0.11(  1.72%)
                                                  f 0.01(  0.11%)
                            0.035%  N    8 s( 29.63%)p 2.21( 65.44%)d 0.16(  4.70%)
                                                  f 0.01(  0.23%)
                            0.012%  C    9 s( 29.90%)p 2.17( 64.80%)d 0.17(  5.15%)
                                                  f 0.01(  0.16%)
                            0.012%  C   10 s( 29.90%)p 2.17( 64.80%)d 0.17(  5.14%)
                                                  f 0.01(  0.16%)
                            0.035%  N   11 s( 29.60%)p 2.21( 65.46%)d 0.16(  4.71%)
                                                  f 0.01(  0.23%)
                            0.016%  C   12 s( 15.41%)p 5.37( 82.76%)d 0.11(  1.72%)
                                                  f 0.01(  0.11%)
                            0.253%  C   19 s( 42.49%)p 1.09( 46.14%)d 0.26( 11.24%)
                                                  f 0.00(  0.13%)
                           87.638% Ni   20 s(  0.05%)p80.72(  3.99%)d99.99( 95.96%)
                                                  f 0.01(  0.00%)
                            2.308%  C   21 s(  5.36%)p17.58( 94.25%)d 0.06(  0.34%)
                                                  f 0.01(  0.05%)
                            0.696%  O   22 s(  1.61%)p60.68( 97.98%)d 0.23(  0.37%)
                                                  f 0.02(  0.03%)
                            3.349%  C   23 s(  0.49%)p99.99( 99.17%)d 0.60(  0.29%)
                                                  f 0.09(  0.05%)
                            1.109%  O   24 s(  0.08%)p99.99( 99.55%)d 3.96(  0.33%)
                                                  f 0.37(  0.03%)
                            3.349%  C   25 s(  0.49%)p99.99( 99.17%)d 0.60(  0.29%)
                                                  f 0.09(  0.05%)
                            1.109%  O   26 s(  0.08%)p99.99( 99.55%)d 3.95(  0.33%)
                                                  f 0.36(  0.03%)
   102. (2.00000)  98.9505%  LP ( 1) O  22            
                            0.183% Ni   20 s( 23.32%)p 2.69( 62.84%)d 0.59( 13.83%)
                                                  f 0.00(  0.01%)
                            0.819%  C   21 s( 36.74%)p 1.71( 62.88%)d 0.01(  0.23%)
                                                  f 0.00(  0.14%)
                           98.951%  O   22 s( 53.00%)p 0.88( 46.85%)d 0.00(  0.14%)
                                                  f 0.00(  0.00%)
                            0.012%  C   23 s(  0.70%)p99.99( 99.10%)d 0.24(  0.16%)
                                                  f 0.05(  0.04%)
                            0.012%  C   25 s(  0.73%)p99.99( 99.07%)d 0.23(  0.16%)
                                                  f 0.05(  0.04%)
   103. (2.00000)  98.9329%  LP ( 1) O  24            
                            0.184% Ni   20 s( 22.72%)p 2.86( 64.92%)d 0.54( 12.34%)
                                                  f 0.00(  0.01%)
                            0.011%  C   21 s(  0.89%)p99.99( 98.80%)d 0.29(  0.25%)
                                                  f 0.06(  0.06%)
                            0.832%  C   23 s( 37.28%)p 1.67( 62.36%)d 0.01(  0.21%)
                                                  f 0.00(  0.15%)
                           98.933%  O   24 s( 52.67%)p 0.90( 47.18%)d 0.00(  0.14%)
                                                  f 0.00(  0.00%)
                            0.012%  C   25 s(  0.75%)p99.99( 99.01%)d 0.26(  0.19%)
                                                  f 0.07(  0.05%)
   104. (2.00000)  98.9328%  LP ( 1) O  26            
                            0.184% Ni   20 s( 22.69%)p 2.86( 64.94%)d 0.54( 12.36%)
                                                  f 0.00(  0.01%)
                            0.011%  C   21 s(  0.89%)p99.99( 98.80%)d 0.29(  0.25%)
                                                  f 0.06(  0.06%)
                            0.012%  C   23 s(  0.79%)p99.99( 98.97%)d 0.24(  0.19%)
                                                  f 0.07(  0.05%)
                            0.832%  C   25 s( 37.30%)p 1.67( 62.34%)d 0.01(  0.21%)
                                                  f 0.00(  0.15%)
                           98.933%  O   26 s( 52.67%)p 0.90( 47.19%)d 0.00(  0.14%)
                                                  f 0.00(  0.00%)

 ========================================================================
                   Natural Chemical Shielding Analysis
 ========================================================================

 Contributions to Isotropic shielding for atom    1 (   164.9740 ppm):
                         Standard Origin              Atomic Origin
 NLMO      Total    Paramagnetic  Diamagnetic   Paramagnetic  Diamagnetic
    1     -21.9082      -35.6682      13.7600       -28.5084       6.6001
    2      -5.5280       -5.8619       0.3339       -17.2079      11.6799
    3      -1.6074      -15.8477      14.2403       -12.4283      10.8209
    4      -4.2438       -9.8088       5.5650       -15.4540      11.2101
    5      -2.1612       -1.6114      -0.5498        -2.8360       0.6748
    6      -1.6431       -1.1956      -0.4476        -2.0526       0.4095
    7      -1.0253       -1.5336       0.5083        -1.8677       0.8424
    8      -0.5392       -1.2332       0.6940        -0.8873       0.3481
   11      -0.5287        0.1801      -0.7088        -1.5180       0.9892
   67     203.6097        0.0160     203.5938         0.0197     203.5900
 Sum      164.4247      -72.5643     236.9891       -82.7402     247.1650

 Contributions to Isotropic shielding for atom    2 (   150.2020 ppm):
                         Standard Origin              Atomic Origin
 NLMO      Total    Paramagnetic  Diamagnetic   Paramagnetic  Diamagnetic
    1      -9.8492       -8.9649      -0.8843       -16.6221       6.7729
    2       0.5267       -1.4325       1.9592        -0.6277       1.1544
    3       0.8060       -0.5030       1.3090        -0.3026       1.1086
    4       0.1758       -1.2198       1.3956        -0.8873       1.0631
    5     -12.0821      -21.6057       9.5236       -19.4196       7.3375
    6     -11.3315      -25.0532      13.7217       -15.9590       4.6274
    7     -14.6096      -17.4391       2.8294       -24.5007       9.8911
    8      -0.9795       -1.6591       0.6795        -2.0579       1.0783
    9      -0.1886       -1.0663       0.8776        -1.3374       1.1488
   10       0.8731       -0.8463       1.7193        -0.2930       1.1660
   11      -2.1455       -2.0575      -0.0880        -2.9361       0.7905
   12      -0.9699       -0.9477      -0.0222        -1.9753       1.0054
   13      -0.5153       -1.3950       0.8797        -1.4402       0.9249
   18      -0.1979       -1.1378       0.9399        -0.5983       0.4004
   23      -0.3888        0.1271      -0.5159        -1.1877       0.7989
   25      -0.6020       -0.6814       0.0794        -1.2935       0.6915
   68     203.5487        0.0123     203.5364         0.0169     203.5318
 Sum      152.0702      -85.8697     237.9399       -91.4214     243.4916

 Contributions to Isotropic shielding for atom    3 (   163.9170 ppm):
                         Standard Origin              Atomic Origin
 NLMO      Total    Paramagnetic  Diamagnetic   Paramagnetic  Diamagnetic
    1      -0.8576       -1.0578       0.2002        -1.4707       0.6131
    2      -0.9533       -2.4512       1.4979        -1.7979       0.8446
    3      -0.0908       -1.1649       1.0742        -0.8368       0.7460
    4      -0.7552       -1.6110       0.8559        -1.1092       0.3541
    5     -18.7002      -25.8036       7.1035       -24.5998       5.8996
    6       1.2506        0.6408       0.6098         0.9623       0.2883
    7      -1.0758       -1.6777       0.6019        -1.8961       0.8203
    8      -2.0979      -21.6587      19.5608       -13.6167      11.5187
    9      -5.2924      -18.3510      13.0586       -16.1740      10.8816
   10      -9.9758       -9.9447      -0.0311       -21.7192      11.7434
   69     203.6010        0.0095     203.5914         0.0109     203.5901
 Sum      165.0528      -83.0702     248.1230       -82.2470     247.2998

 Contributions to Isotropic shielding for atom    4 (   111.5315 ppm):
                         Standard Origin              Atomic Origin
 NLMO      Total    Paramagnetic  Diamagnetic   Paramagnetic  Diamagnetic
    2      -0.3818       -1.0598       0.6780        -0.8031       0.4212
    3      -0.6765       -2.0089       1.3325        -1.4540       0.7776
    4       0.0742       -1.0120       1.0861        -0.6053       0.6795
    6     -30.5770      -34.7293       4.1523       -39.1249       8.5479
    8      -0.2452       -0.8592       0.6140        -1.0022       0.7571
    9      -0.7024       -1.2905       0.5881        -1.4929       0.7905
   10      -1.2043       -1.1496      -0.0547        -1.6675       0.4632
   11     -30.4045      -35.1211       4.7166       -38.8730       8.4685
   12      -7.5672      -20.7113      13.1440       -14.0814       6.5142
   13     -11.2016      -27.0779      15.8763       -22.5027      11.3011
   15       0.5110       -0.5669       1.0780        -0.2250       0.7361
   16      -0.4324       -1.3728       0.9404        -1.3629       0.9306
   18      -0.2180       -1.1774       0.9593        -0.8748       0.6568
   21      -1.0283       -1.0123      -0.0159        -1.4984       0.4702
   22      -0.7374       -1.2609       0.5235        -1.4916       0.7542
   23      -2.7344       -2.4387      -0.2957        -3.1061       0.3717
   24      -0.8315       -1.1599       0.3284        -0.8390       0.0075
   25       0.6135       -0.6724       1.2859        -1.3204       1.9339
   32      -0.8481       -0.8110      -0.0370        -1.0460       0.1980
   54      -1.1686       -1.1009      -0.0677        -0.7183      -0.4503
   70     203.5761        0.0309     203.5451         0.0503     203.5257
 Sum      113.8157     -136.5619     250.3776      -134.0393     247.8550

 Contributions to Isotropic shielding for atom    5 (   151.5095 ppm):
                         Standard Origin              Atomic Origin
 NLMO      Total    Paramagnetic  Diamagnetic   Paramagnetic  Diamagnetic
    4      -0.1764       -1.3574       1.1810        -0.6745       0.4980
    6      -1.9763       -1.7839      -0.1925        -2.6251       0.6488
   11      -8.0927      -21.5940      13.5013       -13.5102       5.4176
   12      -0.6591       -0.9199       0.2608        -1.6223       0.9632
   13      -0.6863       -1.3177       0.6314        -1.6220       0.9358
   14      -9.5119      -11.3156       1.8036       -15.8450       6.3331
   15      -8.8689      -19.1288      10.2599       -16.8770       8.0082
   16     -20.0393      -16.3854      -3.6539       -29.9912       9.9519
   17       0.6639       -0.3855       1.0494        -0.4220       1.0859
   18      -0.1381       -1.4704       1.3323        -1.1872       1.0491
   19       0.3678       -1.6271       1.9949        -0.7935       1.1613
   20      -0.2544       -0.9849       0.7304        -1.3381       1.0837
   21       0.7882       -0.9713       1.7595        -0.3906       1.1788
   22      -0.8732       -1.7004       0.8272        -2.0271       1.1539
   25      -1.0045       -0.9512      -0.0532        -1.7701       0.7656
   71     203.5593        0.0197     203.5396         0.0284     203.5309
 Sum      153.0981      -81.8738     234.9719       -90.6677     243.7658

 Contributions to Isotropic shielding for atom    6 (   169.0835 ppm):
                         Standard Origin              Atomic Origin
 NLMO      Total    Paramagnetic  Diamagnetic   Paramagnetic  Diamagnetic
    4      -0.1143       -1.0121       0.8978        -0.2988       0.1845
    6      -0.3999        0.0966      -0.4966        -1.1130       0.7131
   12      -0.2069        0.0582      -0.2651        -1.0276       0.8208
   14     -22.2903      -34.4076      12.1173       -29.0805       6.7902
   15      -1.7657       -1.5109      -0.2548        -2.6042       0.8385
   16      -0.8120       -1.0685       0.2565        -1.6140       0.8020
   17       0.9264      -16.3526      17.2789        -9.8916      10.8179
   18      -4.4940      -11.3739       6.8799       -15.4522      10.9582
   19      -4.2825       -4.8421       0.5595       -16.1176      11.8350
   21      -0.2845       -0.6761       0.3915        -1.0921       0.8076
   22      -0.6006       -1.1728       0.5722        -1.0278       0.4271
   23      -0.1870        0.1776      -0.3647        -1.1417       0.9547
   72     203.6058        0.0149     203.5909         0.0189     203.5870
 Sum      169.0944      -72.0692     241.1636       -80.4422     249.5365

 Contributions to Isotropic shielding for atom    7 (   164.5051 ppm):
                         Standard Origin              Atomic Origin
 NLMO      Total    Paramagnetic  Diamagnetic   Paramagnetic  Diamagnetic
   11       1.2947        0.7315       0.5633         0.7651       0.5297
   12       0.0813       -0.0685       0.1498        -0.9271       1.0084
   14      -0.5577       -0.9001       0.3423        -1.1691       0.6114
   15     -19.2514      -25.8860       6.6346       -24.8574       5.6060
   16      -1.1412       -1.4524       0.3112        -1.9291       0.7880
   17      -0.3240       -1.2690       0.9450        -1.0731       0.7491
   18      -0.9296       -1.6159       0.6863        -1.2944       0.3648
   19      -0.5068       -1.6401       1.1333        -1.3207       0.8140
   20      -1.2711      -19.7159      18.4448       -12.3256      11.0545
   21      -9.5689       -9.2352      -0.3337       -21.0939      11.5251
   22      -5.6063      -20.5183      14.9120       -17.0128      11.4065
   25      -0.3652        0.0244      -0.3896        -1.0634       0.6982
   73     203.5994        0.0093     203.5900         0.0103     203.5890
 Sum      165.4533      -81.5361     246.9894       -83.2914     248.7447

 Contributions to Isotropic shielding for atom    8 (    33.0138 ppm):
                         Standard Origin              Atomic Origin
 NLMO      Total    Paramagnetic  Diamagnetic   Paramagnetic  Diamagnetic
    5      -0.0154       -1.1972       1.1818        -0.8638       0.8485
    6       0.6463       -0.5283       1.1746        -0.1892       0.8354
    7      -0.7339       -1.4517       0.7179        -1.3963       0.6625
   11       0.3207       -0.7309       1.0516        -0.3731       0.6939
   12     -51.7445      -56.8053       5.0608       -60.1498       8.4053
   13      -1.0147       -2.2811       1.2664        -2.0881       1.0734
   15       0.0641       -1.1570       1.2210        -0.8349       0.8989
   23     -70.9497      -74.5338       3.5841       -79.0847       8.1351
   24     -68.1959      -84.5845      16.3886       -76.4384       8.2425
   25       7.4848      -19.0343      26.5192       -18.7581      26.2429
   26      -1.9298       -3.0615       1.1317        -2.4962       0.5664
   27       0.2628       -3.1055       3.3683        -1.7995       2.0623
   28      -4.0196       -5.1975       1.1779        -5.1019       1.0823
   29      -2.0900       -2.8118       0.7218        -3.3556       1.2656
   30      -0.9811       -1.3316       0.3505        -1.3978       0.4167
   31      -1.1098       -1.0224      -0.0875        -0.9854      -0.1244
   32      -2.7069       -2.6234      -0.0835        -3.7273       1.0204
   54      -9.4049       -9.8805       0.4755        -8.5697      -0.8352
   74     239.7576       -0.0111     239.7687        -0.0117     239.7693
   96       4.3413        2.9433       1.3980         1.6754       2.6659
   98      -1.1751       -1.1108      -0.0643        -1.2229       0.0478
 Sum       36.8065     -269.5168     306.3233      -267.1691     303.9756

 Contributions to Isotropic shielding for atom    9 (    58.7294 ppm):
                         Standard Origin              Atomic Origin
 NLMO      Total    Paramagnetic  Diamagnetic   Paramagnetic  Diamagnetic
   12      -2.3696       -2.6169       0.2473        -2.4433       0.0737
   13      -0.9354       -1.6293       0.6939        -1.2089       0.2736
   17      -0.8641       -1.4438       0.5797        -1.1126       0.2486
   23     -34.0538      -47.8300      13.7761       -40.4197       6.3659
   24      -1.4410       -1.4860       0.0450        -1.6989       0.2579
   25       0.2414       -2.3309       2.5724        -2.7532       2.9947
   26     -55.0827      -66.2394      11.1567       -61.7557       6.6730
   27      -0.9883      -17.0835      16.0952       -16.9124      15.9241
   28     -43.4352      -47.0108       3.5755       -55.1230      11.6878
   29      -0.6257       -1.7232       1.0976        -1.6351       1.0095
   30      -2.9793       -5.0043       2.0250        -4.3177       1.3384
   32      -1.4654       -1.0026      -0.4628        -2.5484       1.0830
   54      -2.8526       -2.4728      -0.3799        -2.3577      -0.4950
   75     203.6018        0.0014     203.6004        -0.0046     203.6065
   96       2.8803        0.6819       2.1984         0.2928       2.5874
 Sum       59.6304     -197.1902     256.8206      -193.9985     253.6289

 Contributions to Isotropic shielding for atom   10 (    58.7283 ppm):
                         Standard Origin              Atomic Origin
 NLMO      Total    Paramagnetic  Diamagnetic   Paramagnetic  Diamagnetic
   23      -0.6181       -1.7137       1.0956        -1.6292       1.0111
   24      -1.4647       -1.0021      -0.4626        -2.5478       1.0831
   25       1.3916        0.4083       0.9833        -1.2857       2.6772
   26     -55.0825      -66.2393      11.1568       -61.7558       6.6733
   27      -0.9875      -16.9881      16.0006       -16.7932      15.8057
   28      -2.9813       -5.0069       2.0256        -4.3199       1.3385
   29     -34.0606      -47.8383      13.7777       -40.4251       6.3645
   30     -43.4349      -47.0085       3.5737       -55.1219      11.6871
   31      -2.3700       -2.6175       0.2475        -2.4438       0.0738
   32      -1.4418       -1.4866       0.0449        -1.6997       0.2579
   35      -0.9354       -1.6293       0.6940        -1.2089       0.2735
   42      -0.8652       -1.4449       0.5798        -1.1138       0.2486
   54      -2.8523       -2.4725      -0.3798        -2.3573      -0.4950
   76     203.6018        0.0014     203.6004        -0.0046     203.6065
   96       1.7413       -2.1386       3.8798        -1.2859       3.0271
 Sum       59.6405     -197.1766     256.8171      -193.9925     253.6330

 Contributions to Isotropic shielding for atom   11 (    33.0151 ppm):
                         Standard Origin              Atomic Origin
 NLMO      Total    Paramagnetic  Diamagnetic   Paramagnetic  Diamagnetic
   12      -1.1104       -1.0229      -0.0875        -0.9859      -0.1244
   23      -2.0885       -2.8116       0.7231        -3.3540       1.2655
   24      -2.7078       -2.6248      -0.0830        -3.7287       1.0209
   25       0.4738       -0.4630       0.9369        -1.7949       2.2687
   26      -1.9297       -3.0614       1.1317        -2.4961       0.5664
   27       0.4957       -2.8441       3.3398        -1.5330       2.0287
   28      -0.9809       -1.3315       0.3506        -1.3977       0.4168
   29     -70.9430      -74.5276       3.5845       -79.0788       8.1357
   30      -4.0201       -5.1976       1.1776        -5.1021       1.0820
   31     -51.7460      -56.8056       5.0596       -60.1508       8.4048
   32     -68.2003      -84.5897      16.3893       -76.4426       8.2423
   33       0.3256       -0.7216       1.0472        -0.3626       0.6883
   34       0.6328       -0.5395       1.1723        -0.1982       0.8311
   35      -1.0150       -2.2812       1.2663        -2.0883       1.0734
   36       0.0534       -1.1677       1.2212        -0.8458       0.8992
   45      -0.0256       -1.2075       1.1819        -0.8741       0.8485
   47      -0.7345       -1.4522       0.7177        -1.3969       0.6624
   54      -9.4052       -9.8809       0.4757        -8.5699      -0.8352
   77     239.7576       -0.0111     239.7687        -0.0117     239.7693
   96      11.1871      -15.8372      27.0243       -15.5142      26.7013
   98      -1.1310       -1.0627      -0.0682        -1.1709       0.0399
 Sum       36.8882     -269.4416     306.3299      -267.0972     303.9854

 Contributions to Isotropic shielding for atom   12 (   111.5317 ppm):
                         Standard Origin              Atomic Origin
 NLMO      Total    Paramagnetic  Diamagnetic   Paramagnetic  Diamagnetic
   24      -0.8479       -0.8110      -0.0369        -1.0460       0.1982
   29      -2.7345       -2.4385      -0.2961        -3.1061       0.3716
   31      -7.5678      -20.7118      13.1441       -14.0822       6.5144
   32      -0.8314       -1.1600       0.3286        -0.8387       0.0073
   33     -30.4192      -35.1251       4.7059       -38.8768       8.4576
   34     -30.5898      -34.7335       4.1437       -39.1291       8.5394
   35     -11.2017      -27.0780      15.8762       -22.5029      11.3011
   36       0.5112       -0.5671       1.0783        -0.2243       0.7355
   38      -0.4327       -1.3729       0.9402        -1.3630       0.9303
   39      -1.0283       -1.0118      -0.0165        -1.4984       0.4701
   41      -0.7375       -1.2610       0.5235        -1.4917       0.7543
   44      -0.2180       -1.1773       0.9593        -0.8748       0.6567
   48      -0.2451       -0.8591       0.6140        -1.0022       0.7570
   49      -1.2046       -1.1498      -0.0548        -1.6678       0.4632
   50      -0.7023       -1.2904       0.5881        -1.4929       0.7905
   51      -0.6764       -2.0090       1.3325        -1.4540       0.7776
   52      -0.3813       -1.0573       0.6759        -0.8010       0.4196
   53       0.0742       -1.0120       1.0862        -0.6053       0.6795
   54      -1.1689       -1.1012      -0.0676        -0.7187      -0.4501
   78     203.5760        0.0309     203.5451         0.0503     203.5257
   96       0.2723       -0.8353       1.1076        -1.6555       1.9278
 Sum      113.4463     -136.7312     250.1775      -134.3811     247.8275

 Contributions to Isotropic shielding for atom   13 (   151.5087 ppm):
                         Standard Origin              Atomic Origin
 NLMO      Total    Paramagnetic  Diamagnetic   Paramagnetic  Diamagnetic
   31      -0.6599       -0.9203       0.2604        -1.6231       0.9632
   33      -8.1110      -21.6184      13.5074       -13.5304       5.4194
   34      -1.9774       -1.7863      -0.1911        -2.6243       0.6469
   35      -0.6862       -1.3175       0.6314        -1.6219       0.9357
   36      -8.8807      -19.1402      10.2595       -16.8889       8.0082
   37      -9.5117      -11.3156       1.8038       -15.8449       6.3331
   38     -20.0399      -16.3844      -3.6555       -29.9918       9.9519
   39       0.7897       -0.9691       1.7588        -0.3890       1.1788
   40      -0.2545       -0.9849       0.7304        -1.3382       1.0838
   41      -0.8730       -1.7003       0.8273        -2.0270       1.1540
   42       0.6633       -0.3861       1.0494        -0.4225       1.0858
   43       0.3692       -1.6257       1.9949        -0.7921       1.1613
   44      -0.1382       -1.4707       1.3325        -1.1874       1.0491
   53      -0.1765       -1.3575       1.1810        -0.6745       0.4981
   79     203.5593        0.0197     203.5396         0.0284     203.5309
   96      -1.2530       -1.1109      -0.1421        -2.0109       0.7579
 Sum      152.8195      -82.0681     234.8877       -90.9386     243.7581

 Contributions to Isotropic shielding for atom   14 (   164.5045 ppm):
                         Standard Origin              Atomic Origin
 NLMO      Total    Paramagnetic  Diamagnetic   Paramagnetic  Diamagnetic
   31       0.0809       -0.0687       0.1495        -0.9275       1.0084
   33       1.2922        0.7296       0.5626         0.7657       0.5265
   36     -19.2492      -25.8836       6.6345       -24.8556       5.6064
   37      -0.5576       -0.9000       0.3424        -1.1690       0.6114
   38      -1.1412       -1.4521       0.3109        -1.9290       0.7879
   39      -9.5683       -9.2347      -0.3335       -21.0933      11.5251
   40      -1.2707      -19.7159      18.4453       -12.3250      11.0544
   41      -5.6070      -20.5190      14.9120       -17.0135      11.4065
   42      -0.3241       -1.2691       0.9450        -1.0732       0.7491
   43      -0.5061       -1.6394       1.1333        -1.3202       0.8140
   44      -0.9295       -1.6157       0.6862        -1.2944       0.3648
   80     203.5994        0.0093     203.5900         0.0103     203.5890
 Sum      165.8188      -81.5594     247.3782       -82.2246     248.0434

 Contributions to Isotropic shielding for atom   15 (   169.0829 ppm):
                         Standard Origin              Atomic Origin
 NLMO      Total    Paramagnetic  Diamagnetic   Paramagnetic  Diamagnetic
   29      -0.1873        0.1776      -0.3649        -1.1419       0.9547
   31      -0.2072        0.0581      -0.2653        -1.0280       0.8208
   34      -0.3985        0.0973      -0.4958        -1.1094       0.7110
   36      -1.7645       -1.5099      -0.2546        -2.6026       0.8381
   37     -22.2902      -34.4073      12.1171       -29.0805       6.7903
   38      -0.8118       -1.0682       0.2565        -1.6138       0.8020
   39      -0.2844       -0.6756       0.3912        -1.0921       0.8077
   41      -0.6005       -1.1727       0.5722        -1.0277       0.4271
   42       0.9258      -16.3529      17.2787        -9.8923      10.8181
   43      -4.2732       -4.8318       0.5586       -16.1080      11.8348
   44      -4.4941      -11.3741       6.8800       -15.4522      10.9581
   53      -0.1142       -1.0120       0.8978        -0.2988       0.1846
   81     203.6059        0.0149     203.5909         0.0189     203.5870
 Sum      169.1059      -72.0566     241.1624       -80.4282     249.5341

 Contributions to Isotropic shielding for atom   16 (   150.2027 ppm):
                         Standard Origin              Atomic Origin
 NLMO      Total    Paramagnetic  Diamagnetic   Paramagnetic  Diamagnetic
   29      -0.3886        0.1273      -0.5158        -1.1876       0.7990
   31      -0.9690       -0.9471      -0.0218        -1.9744       1.0054
   33      -2.1463       -2.0602      -0.0860        -2.9341       0.7878
   34     -11.3506      -25.0777      13.7271       -15.9784       4.6278
   35      -0.5154       -1.3950       0.8796        -1.4403       0.9249
   44      -0.1975       -1.1373       0.9398        -0.5979       0.4004
   45     -12.0910      -21.6151       9.5241       -19.4285       7.3375
   46      -9.8506       -8.9667      -0.8839       -16.6236       6.7729
   47     -14.6103      -17.4389       2.8286       -24.5014       9.8911
   48      -0.9793       -1.6588       0.6795        -2.0576       1.0783
   49       0.8733       -0.8460       1.7193        -0.2927       1.1660
   50      -0.1891       -1.0668       0.8777        -1.3379       1.1488
   51       0.8060       -0.5031       1.3091        -0.3025       1.1085
   52       0.5280       -1.4304       1.9584        -0.6249       1.1529
   53       0.1758       -1.2198       1.3956        -0.8873       1.0631
   82     203.5487        0.0123     203.5364         0.0169     203.5318
   96      -0.9651       -0.9699       0.0048        -1.7143       0.7492
 Sum      151.6792      -86.1932     237.8724       -91.8664     243.5456

 Contributions to Isotropic shielding for atom   17 (   163.9176 ppm):
                         Standard Origin              Atomic Origin
 NLMO      Total    Paramagnetic  Diamagnetic   Paramagnetic  Diamagnetic
   34       1.2485        0.6385       0.6100         0.9632       0.2853
   45     -18.6965      -25.7990       7.1025       -24.5958       5.8993
   46      -0.8577       -1.0579       0.2002        -1.4708       0.6132
   47      -1.0758       -1.6777       0.6018        -1.8961       0.8203
   48      -2.0981      -21.6585      19.5604       -13.6169      11.5187
   49      -9.9762       -9.9452      -0.0310       -21.7198      11.7435
   50      -5.2909      -18.3500      13.0590       -16.1725      10.8816
   51      -0.0907       -1.1649       1.0742        -0.8367       0.7460
   52      -0.9601       -2.4579       1.4978        -1.8041       0.8440
   53      -0.7551       -1.6110       0.8559        -1.1092       0.3541
   83     203.6010        0.0095     203.5914         0.0109     203.5901
 Sum      165.0483      -83.0741     248.1224       -82.2479     247.2962

 Contributions to Isotropic shielding for atom   18 (   164.9737 ppm):
                         Standard Origin              Atomic Origin
 NLMO      Total    Paramagnetic  Diamagnetic   Paramagnetic  Diamagnetic
   33      -0.5265        0.1819      -0.7083        -1.5146       0.9881
   34      -1.6433       -1.1956      -0.4477        -2.0526       0.4093
   45      -2.1617       -1.6119      -0.5498        -2.8364       0.6747
   46     -21.9083      -35.6686      13.7603       -28.5086       6.6003
   47      -1.0256       -1.5338       0.5083        -1.8679       0.8424
   48      -0.5392       -1.2331       0.6940        -0.8873       0.3481
   51      -1.6094      -15.8492      14.2399       -12.4304      10.8210
   52      -5.5624       -5.8907       0.3284       -17.2412      11.6789
   53      -4.2436       -9.8084       5.5648       -15.4538      11.2102
   84     203.6098        0.0160     203.5938         0.0197     203.5900
 Sum      164.3900      -72.5936     236.9836       -82.7730     247.1630

 Contributions to Isotropic shielding for atom   19 (   -16.4678 ppm):
                         Standard Origin              Atomic Origin
 NLMO      Total    Paramagnetic  Diamagnetic   Paramagnetic  Diamagnetic
   12      -1.0666       -1.5825       0.5158        -1.6038       0.5371
   13      -1.8856       -2.6049       0.7193        -2.6273       0.7417
   24     -52.4404      -58.1967       5.7563       -58.6906       6.2502
   25       4.3980       -5.6474      10.0453        -5.6698      10.0678
   26      -1.3998       -2.3712       0.9714        -2.2620       0.8622
   27       4.9789        1.8835       3.0954         2.0361       2.9428
   28      -1.5693       -1.9425       0.3732        -1.9386       0.3692
   30      -1.5696       -1.9426       0.3730        -1.9387       0.3691
   31      -1.0661       -1.5820       0.5158        -1.6032       0.5371
   32     -52.4445      -58.2002       5.7557       -58.6946       6.2501
   35      -1.8854       -2.6046       0.7192        -2.6270       0.7416
   54    -102.4426     -105.9074       3.4648      -104.6922       2.2496
   85     203.6749       -0.0265     203.7014        -0.0274     203.7023
   96       2.3509       -3.2211       5.5720        -3.3259       5.6769
   98      -5.2721       -5.4419       0.1699        -5.4358       0.1638
   99      -0.6179       -1.5206       0.9027        -1.5590       0.9411
  100      -1.0507       -1.8263       0.7756        -1.8739       0.8233
  101      -1.8460       -2.4904       0.6444        -2.5275       0.6815
 Sum      -11.1538     -255.2252     244.0713      -255.0610     243.9072

 Contributions to Isotropic shielding for atom   20 ( -3743.9113 ppm):
                         Standard Origin              Atomic Origin
 NLMO      Total    Paramagnetic  Diamagnetic   Paramagnetic  Diamagnetic
   12      -0.6506       -1.0343       0.3837        -1.4356       0.7851
   13      -3.5911       -3.8836       0.2925        -3.6354       0.0443
   24      -5.0199       -5.1202       0.1003        -5.2931       0.2731
   25      -6.2140       -6.8350       0.6209        -7.2555       1.0414
   27      -3.9182       -4.5552       0.6370        -4.9794       1.0612
   31      -0.6501       -1.0338       0.3837        -1.4351       0.7851
   32      -5.0128       -5.1129       0.1001        -5.2858       0.2730
   35      -3.5886       -3.8809       0.2923        -3.6329       0.0442
   54      -5.3006       -9.8813       4.5807        -9.8642       4.5636
   55      -5.5545       -6.6292       1.0748        -7.1034       1.5489
   56      -1.5973       -2.5767       0.9794        -3.0905       1.4932
   57      -1.5876       -2.5328       0.9452        -3.0558       1.4682
   58      -6.4486       -6.4562       0.0076        -6.5201       0.0715
   59      -7.9020       -8.4469       0.5449        -8.4491       0.5471
   60      -3.1654       -3.7334       0.5680        -3.7124       0.5470
   61      -5.3211       -5.2992      -0.0219        -5.4661       0.1450
   62      -3.5946       -4.0770       0.4824        -4.1175       0.5229
   63      -6.1860       -6.6447       0.4588        -6.6507       0.4647
   64      -5.3282       -5.3062      -0.0220        -5.4731       0.1449
   65      -3.5959       -4.0783       0.4824        -4.1188       0.5229
   66      -6.1844       -6.6431       0.4588        -6.6491       0.4647
   86      53.7802        0.2256      53.5546         0.2308      53.5494
   87      45.9339      -11.3030      57.2369        -9.7041      55.6380
   88      39.1783      -12.5766      51.7549       -14.7219      53.9002
   89      45.5452      -11.2161      56.7612       -10.0281      55.5733
   96      -4.2319       -4.5118       0.2800        -4.5260       0.2942
   97   -1041.3798    -1084.2074      42.8275     -1085.4247      44.0449
   98   -1125.5383    -1167.7325      42.1941     -1168.5631      43.0247
   99    -651.4094     -688.5006      37.0912      -689.8330      38.4236
  100    -824.8649     -861.5143      36.6494      -863.2639      38.3990
  101    -179.9034     -220.5862      40.6829      -216.6732      36.7699
  102      -1.4883       -2.1190       0.6307        -2.1195       0.6312
  103      -1.1375       -1.7982       0.6607        -1.7656       0.6281
  104      -1.1418       -1.8026       0.6607        -1.7700       0.6281
 Sum    -3737.0692    -4171.4035     434.3343     -4175.3859     438.3167

 Contributions to Isotropic shielding for atom   21 (   -29.7585 ppm):
                         Standard Origin              Atomic Origin
 NLMO      Total    Paramagnetic  Diamagnetic   Paramagnetic  Diamagnetic
   54      -2.4536       -2.9119       0.4583        -3.4913       1.0376
   55     -85.6251     -100.8913      15.2662      -101.0761      15.4510
   56      -1.3519       -1.8128       0.4609        -0.9019      -0.4500
   57      -1.3751       -1.8298       0.4546        -0.9137      -0.4614
   58     -94.7680      -97.8375       3.0696       -98.8918       4.1239
   59      10.8938       -1.3213      12.2151        -0.7139      11.6077
   60      13.2491        1.7514      11.4977         1.6108      11.6383
   90     204.1738       -0.0190     204.1929        -0.0191     204.1930
   97      -0.1226       -0.6395       0.5169        -1.2393       1.1167
   98      -6.2214       -9.5764       3.3550        -7.4605       1.2391
   99      -4.6538       -5.0883       0.4346        -5.5158       0.8620
  100     -15.1171      -16.8497       1.7326       -16.8929       1.7758
  101     -12.4407      -11.6641      -0.7767       -13.9819       1.5411
  102     -31.5971      -34.8404       3.2433       -34.8666       3.2695
 Sum      -27.4097     -283.5307     256.1211      -284.3540     256.9443

 Contributions to Isotropic shielding for atom   22 (   -71.6402 ppm):
                         Standard Origin              Atomic Origin
 NLMO      Total    Paramagnetic  Diamagnetic   Paramagnetic  Diamagnetic
   54      -2.9173       -3.2277       0.3104        -3.2603       0.3429
   55     -39.9547      -43.2545       3.2998       -43.3422       3.3875
   58    -167.1541     -182.5066      15.3525      -185.8353      18.6812
   59       0.5221      -34.4602      34.9823       -31.1255      31.6476
   60      -6.3527      -38.0352      31.6826       -38.0740      31.7213
   91     276.5952        0.0320     276.5633         0.0319     276.5633
   98       1.8103        0.8723       0.9380         1.5030       0.3073
   99       2.7298        2.4679       0.2619         2.1268       0.6030
  100      -9.7505       -9.9649       0.2144       -10.1394       0.3889
  101      -5.3065       -4.7605      -0.5460        -5.9793       0.6727
  102    -119.7338     -150.4716      30.7378      -150.6531      30.9193
 Sum      -69.5122     -463.3091     393.7969      -464.7472     395.2350

 Contributions to Isotropic shielding for atom   23 (   -31.7077 ppm):
                         Standard Origin              Atomic Origin
 NLMO      Total    Paramagnetic  Diamagnetic   Paramagnetic  Diamagnetic
   54      -3.0267       -3.7813       0.7546        -3.9589       0.9322
   55      -1.4285       -2.0952       0.6666        -1.1132      -0.3154
   56     -84.4412     -100.4828      16.0416      -100.1209      15.6797
   57      -1.2498       -1.8961       0.6463        -0.8470      -0.4027
   61     -87.4012      -89.9506       2.5494       -92.1109       4.7097
   62       9.2089       -2.2333      11.4422        -2.1821      11.3909
   63       5.3970       -6.8703      12.2673        -5.8538      11.2508
   92     204.1744       -0.0203     204.1946        -0.0204     204.1948
   97      -3.5509       -5.8310       2.2801        -4.4982       0.9473
   98      -1.8173       -2.7450       0.9277        -2.7755       0.9582
   99      -9.8415      -10.7649       0.9234       -11.6077       1.7663
  100      -8.5572       -9.1249       0.5677        -9.5514       0.9942
  101     -14.0743      -15.2013       1.1270       -15.9651       1.8908
  103     -32.0899      -35.3581       3.2682       -35.3905       3.3005
 Sum      -28.6984     -286.3552     257.6568      -285.9955     257.2971

 Contributions to Isotropic shielding for atom   24 (   -74.4258 ppm):
                         Standard Origin              Atomic Origin
 NLMO      Total    Paramagnetic  Diamagnetic   Paramagnetic  Diamagnetic
   22      -1.4092       -1.2151      -0.1941        -1.0338      -0.3753
   54      -3.4562       -3.7883       0.3321        -3.8121       0.3560
   56     -42.7605      -46.1972       3.4367       -46.0146       3.2541
   61    -166.8046     -179.7259      12.9213      -186.3071      19.5025
   62      -8.2912      -40.3053      32.0141       -39.5723      31.2811
   63       5.4847      -31.0568      36.5414       -25.7388      31.2234
   93     276.5841        0.0279     276.5563         0.0277     276.5564
   97       2.4001        1.8431       0.5569         2.0607       0.3394
   98       1.0059        0.7782       0.2277         0.5775       0.4284
   99      -2.6679       -2.6724       0.0044        -3.2216       0.5536
  100       1.0048        0.7832       0.2216         0.4195       0.5853
  101     -11.8425      -11.6036      -0.2389       -12.4477       0.6052
  103    -121.1969     -151.8453      30.6483      -151.8755      30.6786
 Sum      -71.9494     -464.9773     393.0278      -466.9381     394.9886

 Contributions to Isotropic shielding for atom   25 (   -31.7082 ppm):
                         Standard Origin              Atomic Origin
 NLMO      Total    Paramagnetic  Diamagnetic   Paramagnetic  Diamagnetic
   54      -3.0213       -3.7767       0.7554        -3.9535       0.9322
   55      -1.4313       -2.0978       0.6665        -1.1157      -0.3156
   56      -1.3241       -1.9529       0.6287        -0.9169      -0.4073
   57     -84.3899     -100.4481      16.0582      -100.0757      15.6858
   64     -87.4013      -89.9498       2.5485       -92.1094       4.7081
   65       9.2063       -2.2357      11.4420        -2.1845      11.3908
   66       5.3965       -6.8706      12.2670        -5.8543      11.2507
   94     204.1743       -0.0203     204.1946        -0.0205     204.1947
   97      -3.5369       -5.8185       2.2816        -4.4840       0.9471
   98      -1.8157       -2.7431       0.9274        -2.7751       0.9594
   99      -9.8554      -10.7817       0.9263       -11.6230       1.7676
  100      -8.5274       -9.0915       0.5641        -9.5199       0.9925
  101     -14.0719      -15.1995       1.1276       -15.9628       1.8909
  104     -32.1021      -35.3706       3.2685       -35.4028       3.3007
 Sum      -28.7004     -286.3566     257.6562      -285.9981     257.2977

 Contributions to Isotropic shielding for atom   26 (   -74.4252 ppm):
                         Standard Origin              Atomic Origin
 NLMO      Total    Paramagnetic  Diamagnetic   Paramagnetic  Diamagnetic
   41      -1.4107       -1.2165      -0.1941        -1.0354      -0.3752
   54      -3.4544       -3.7867       0.3323        -3.8103       0.3559
   57     -42.7124      -46.1559       3.4435       -45.9670       3.2546
   64    -166.7864     -179.7113      12.9249      -186.2918      19.5054
   65      -8.2925      -40.3063      32.0138       -39.5733      31.2809
   66       5.4834      -31.0572      36.5406       -25.7401      31.2235
   95     276.5841        0.0279     276.5563         0.0277     276.5564
   97       2.4029        1.8454       0.5575         2.0635       0.3395
   98       1.0052        0.7777       0.2275         0.5759       0.4293
   99      -2.6916       -2.6964       0.0048        -3.2451       0.5535
  100       1.0404        0.8183       0.2221         0.4539       0.5865
  101     -11.8402      -11.6013      -0.2389       -12.4454       0.6051
  104    -121.2262     -151.8722      30.6460      -151.9027      30.6765
 Sum      -71.8983     -464.9346     393.0362      -466.8901     394.9917

 Contributions to Isotropic shielding for atom   27 (    30.1335 ppm):
                         Standard Origin              Atomic Origin
 NLMO      Total    Paramagnetic  Diamagnetic   Paramagnetic  Diamagnetic
    1      -0.6787       -1.2579       0.5792        -1.6093       0.9306
    2      25.2148        0.6776      24.5373         1.2489      23.9659
    3       2.2688        1.1790       1.0897         0.4135       1.8553
    4       1.5388        2.3089      -0.7702        -0.3987       1.9375
    5      -1.0476        0.4378      -1.4854        -1.9804       0.9328
   67       1.7073        0.9570       0.7503         1.8288      -0.1216
 Sum       29.0033        4.3024      24.7009        -0.4972      29.5005

 Contributions to Isotropic shielding for atom   28 (    30.4430 ppm):
                         Standard Origin              Atomic Origin
 NLMO      Total    Paramagnetic  Diamagnetic   Paramagnetic  Diamagnetic
    1       2.5056       -0.4748       2.9805         1.7832       0.7225
    2       1.4861        2.0086      -0.5225        -0.6204       2.1065
    3      25.0634        1.2940      23.7694         1.0270      24.0364
    4       2.0006        1.2965       0.7041         0.1002       1.9004
    5      -0.3877        0.1315      -0.5192        -1.1120       0.7244
    6      -0.3173        0.2316      -0.5490        -1.1548       0.8374
   11      -0.3050        0.1952      -0.5002        -1.1989       0.8939
 Sum       30.0457        4.6825      25.3632        -1.1757      31.2214

 Contributions to Isotropic shielding for atom   29 (    29.7925 ppm):
                         Standard Origin              Atomic Origin
 NLMO      Total    Paramagnetic  Diamagnetic   Paramagnetic  Diamagnetic
    1       0.4068       -1.0096       1.4164        -0.3591       0.7659
    2       1.3394        2.7662      -1.4268        -0.8325       2.1719
    3       2.1556        0.5040       1.6516         0.3079       1.8477
    4      25.1644        0.9687      24.1957         1.1437      24.0206
    6      -0.5658        0.2584      -0.8241        -1.2118       0.6461
   11      -0.4410        0.3666      -0.8076        -1.4999       1.0589
   14      -0.1985        0.3619      -0.5604        -1.1031       0.9046
   67       0.9737        0.5454       0.4282         1.0937      -0.1200
 Sum       28.8345        4.7616      24.0729        -2.4612      31.2957

 Contributions to Isotropic shielding for atom   30 (    28.8508 ppm):
                         Standard Origin              Atomic Origin
 NLMO      Total    Paramagnetic  Diamagnetic   Paramagnetic  Diamagnetic
    1      -0.3480        1.9834      -2.3314        -1.2403       0.8923
    2       0.4881       -0.7830       1.2711        -0.3521       0.8401
    4       0.3275       -0.9395       1.2670        -0.4660       0.7935
    5       0.7296        0.2721       0.4575        -0.3031       1.0327
    6       1.7526        0.2890       1.4636         1.7447       0.0078
    7      26.1270        1.0552      25.0718         1.5379      24.5891
   11      -0.4652        0.2544      -0.7196        -1.2955       0.8303
   12      -0.4738        0.0795      -0.5532        -1.4823       1.0086
   18      -0.3939       -1.6941       1.3002        -0.4995       0.1057
   23      -0.3127        0.1908      -0.5035        -1.4801       1.1674
 Sum       27.4312        0.7077      26.7235        -3.8364      31.2676

 Contributions to Isotropic shielding for atom   31 (    30.7321 ppm):
                         Standard Origin              Atomic Origin
 NLMO      Total    Paramagnetic  Diamagnetic   Paramagnetic  Diamagnetic
    5       2.5199        0.8015       1.7184         1.9040       0.6158
    8      25.0384        1.4228      23.6156         1.1101      23.9283
    9       2.2269       -0.7580       2.9849         0.2969       1.9300
   10       1.3433        1.0540       0.2893        -0.8292       2.1725
   25      -0.5308        0.0413      -0.5721        -1.0347       0.5039
   58       0.3398       -0.0374       0.3772        -0.6610       1.0008
   60       0.1556       -0.3418       0.4975        -0.8673       1.0229
 Sum       31.0931        2.1825      28.9107        -0.0811      31.1743

 Contributions to Isotropic shielding for atom   32 (    30.5778 ppm):
                         Standard Origin              Atomic Origin
 NLMO      Total    Paramagnetic  Diamagnetic   Paramagnetic  Diamagnetic
    3      -0.0702       -1.0936       1.0234        -0.7466       0.6764
    5       1.6233        0.8227       0.8006         1.1769       0.4464
    8       2.6035       -1.0917       3.6952         0.5983       2.0052
    9      25.2183        1.1174      24.1009         1.1245      24.0938
   10       1.2936        1.7019      -0.4082        -0.8374       2.1311
   58       0.3240        0.0335       0.2905        -0.8684       1.1924
   59       0.1601       -0.2717       0.4318        -1.0056       1.1657
   60      -0.1235       -0.3509       0.2273        -1.0866       0.9631
 Sum       31.0292        0.8676      30.1615        -1.6449      32.6741

 Contributions to Isotropic shielding for atom   33 (    30.3734 ppm):
                         Standard Origin              Atomic Origin
 NLMO      Total    Paramagnetic  Diamagnetic   Paramagnetic  Diamagnetic
    1      -0.3585        0.2115      -0.5700        -1.2389       0.8804
    2       0.1049       -1.7093       1.8142        -0.4987       0.6036
    5      -1.4792       -0.1188      -1.3604        -2.1417       0.6624
    8       2.1799        0.0209       2.1590         0.1148       2.0651
    9       1.9139        1.1233       0.7906         0.0710       1.8429
   10      25.5011        0.7865      24.7146         1.4977      24.0034
   69       2.0114        1.1330       0.8784         2.1291      -0.1177
 Sum       29.8736        1.4472      28.4264        -0.0666      29.9402

 Contributions to Isotropic shielding for atom   34 (    26.5393 ppm):
                         Standard Origin              Atomic Origin
 NLMO      Total    Paramagnetic  Diamagnetic   Paramagnetic  Diamagnetic
    3      -0.1619       -1.5119       1.3500        -0.7750       0.6131
    5       0.5253       -0.5625       1.0878        -0.2804       0.8057
    6       0.5479        0.3528       0.1951        -0.7939       1.3418
   11       0.6584        0.2034       0.4550        -0.8032       1.4616
   12       2.1153       -1.1764       3.2917         0.5927       1.5226
   13      25.2633        1.2966      23.9667         1.3856      23.8778
   15       0.6652       -0.5320       1.1971        -0.2646       0.9297
   16      -0.2786       -1.0943       0.8157        -1.0318       0.7533
   24      -0.4955       -0.3378      -0.1577        -1.3350       0.8395
   25       0.6502       -0.0704       0.7206        -1.1199       1.7701
   62       0.2146       -0.3941       0.6087        -0.8824       1.0970
 Sum       29.7042       -3.8264      33.5307        -5.3081      35.0123

 Contributions to Isotropic shielding for atom   35 (    28.7855 ppm):
                         Standard Origin              Atomic Origin
 NLMO      Total    Paramagnetic  Diamagnetic   Paramagnetic  Diamagnetic
    4      -0.3409       -1.9141       1.5732        -0.7025       0.3615
    6      -0.6304        0.3544      -0.9848        -1.4734       0.8430
   14      -0.7407        1.3951      -2.1358        -1.5626       0.8219
   15       0.1263        0.3743      -0.2480        -1.1478       1.2742
   16      26.2877        0.9998      25.2880         1.7284      24.5594
   19       0.4656       -0.6711       1.1367        -0.4966       0.9622
   71       1.6294        1.0789       0.5505         1.7462      -0.1168
 Sum       26.7970        1.6173      25.1797        -1.9084      28.7054

 Contributions to Isotropic shielding for atom   36 (    30.3907 ppm):
                         Standard Origin              Atomic Origin
 NLMO      Total    Paramagnetic  Diamagnetic   Paramagnetic  Diamagnetic
   12      -0.2508        0.1796      -0.4304        -1.1692       0.9183
   14       2.5874       -0.1495       2.7369         1.7639       0.8235
   15      -0.1794       -0.0205      -0.1590        -1.1402       0.9608
   17      24.9470        1.2649      23.6821         0.8552      24.0918
   18       2.1050        0.8818       1.2232         0.2310       1.8741
   19       1.6902        1.6354       0.0548        -0.5537       2.2440
   23      -0.1105        0.1690      -0.2795        -1.0547       0.9443
 Sum       30.7890        3.9608      26.8281        -1.0678      31.8568

 Contributions to Isotropic shielding for atom   37 (    29.7274 ppm):
                         Standard Origin              Atomic Origin
 NLMO      Total    Paramagnetic  Diamagnetic   Paramagnetic  Diamagnetic
    4      -0.1360       -1.1938       1.0577        -0.2656       0.1296
    6      -0.2679        0.3097      -0.5775        -1.0554       0.7876
   11      -0.3435        0.3375      -0.6810        -1.0501       0.7067
   14       0.4348       -0.6628       1.0976        -0.4497       0.8845
   17       2.3441       -0.0499       2.3939         0.5503       1.7937
   18      25.1795        1.0442      24.1353         1.1158      24.0637
   19       1.3957        2.5653      -1.1696        -0.8355       2.2312
   23      -0.2270        0.0770      -0.3040        -1.1624       0.9355
 Sum       28.3797        2.4272      25.9525        -3.1526      31.5324

 Contributions to Isotropic shielding for atom   38 (    30.3288 ppm):
                         Standard Origin              Atomic Origin
 NLMO      Total    Paramagnetic  Diamagnetic   Paramagnetic  Diamagnetic
   14      -0.8971       -0.9195       0.0224        -1.7981       0.9010
   15      -0.8425        0.2636      -1.1061        -1.8176       0.9751
   17       2.4460        0.8431       1.6030         0.5548       1.8912
   18       1.6543        2.0848      -0.4305        -0.2342       1.8884
   19      25.1709        0.7169      24.4540         1.2556      23.9153
   72       1.9002        1.0707       0.8295         2.0302      -0.1300
 Sum       29.4318        4.0596      25.3722        -0.0092      29.4410

 Contributions to Isotropic shielding for atom   39 (    30.9999 ppm):
                         Standard Origin              Atomic Origin
 NLMO      Total    Paramagnetic  Diamagnetic   Paramagnetic  Diamagnetic
   15       2.3862        0.9955       1.3907         1.8940       0.4922
   20      25.0252        1.2603      23.7649         1.0172      24.0080
   21       1.3334        1.3388      -0.0054        -0.7437       2.0771
   22       2.4433       -0.8612       3.3046         0.3412       2.1022
   25      -0.5030        0.1057      -0.6087        -1.1028       0.5998
 Sum       30.6851        2.8390      27.8461         1.4059      29.2792

 Contributions to Isotropic shielding for atom   40 (    30.3163 ppm):
                         Standard Origin              Atomic Origin
 NLMO      Total    Paramagnetic  Diamagnetic   Paramagnetic  Diamagnetic
   14      -0.2641        0.1356      -0.3997        -1.1300       0.8659
   15      -1.5675        0.0402      -1.6077        -2.1828       0.6153
   19       0.0877       -1.2199       1.3077        -0.6185       0.7062
   20       2.2694        0.3531       1.9163         0.3851       1.8843
   21      25.4821        0.7649      24.7172         1.4591      24.0231
   22       1.8016        0.7062       1.0953        -0.2038       2.0054
   73       2.0642        1.1776       0.8866         2.1892      -0.1250
 Sum       29.8734        1.9576      27.9158        -0.1017      29.9752

 Contributions to Isotropic shielding for atom   41 (    29.9655 ppm):
                         Standard Origin              Atomic Origin
 NLMO      Total    Paramagnetic  Diamagnetic   Paramagnetic  Diamagnetic
   15       1.7356        0.7336       1.0021         1.2388       0.4968
   20       2.5337       -1.0758       3.6095         0.6973       1.8364
   21       1.2920        1.5467      -0.2546        -0.8029       2.0950
   22      25.2294        1.1960      24.0334         1.1690      24.0604
   61       0.1911       -0.0413       0.2324        -0.9259       1.1170
   62       0.3160       -0.4388       0.7548        -1.0549       1.3709
   63       0.0739       -0.4897       0.5635        -1.0263       1.1001
 Sum       31.3717        1.4306      29.9411        -0.7049      32.0767

 Contributions to Isotropic shielding for atom   42 (    23.7237 ppm):
                         Standard Origin              Atomic Origin
 NLMO      Total    Paramagnetic  Diamagnetic   Paramagnetic  Diamagnetic
    7      -0.3081       -1.2482       0.9401        -0.5104       0.2024
   12      -0.5519        0.2291      -0.7811        -1.1526       0.6006
   17      -0.4055       -1.0610       0.6555        -0.6630       0.2575
   23      -1.4136       -2.6193       1.2058        -2.1708       0.7572
   26      -2.4869       -2.7393       0.2524        -2.6352       0.1484
   27       0.8974       -0.2103       1.1077        -2.3513       3.2487
   28      25.5864        2.6345      22.9519         2.9969      22.5895
   75       1.0503        0.6234       0.4270         1.1125      -0.0622
   96       0.5580       -0.0985       0.6565        -0.5899       1.1479
 Sum       22.9261       -4.4895      27.4156        -5.9637      28.8898

 Contributions to Isotropic shielding for atom   43 (    23.7235 ppm):
                         Standard Origin              Atomic Origin
 NLMO      Total    Paramagnetic  Diamagnetic   Paramagnetic  Diamagnetic
   25       0.1672       -0.1440       0.3112        -1.2798       1.4470
   26      -2.4870       -2.7394       0.2524        -2.6354       0.1484
   27       0.9123       -0.1971       1.1093        -2.3038       3.2161
   29      -1.4140       -2.6199       1.2059        -2.1708       0.7568
   30      25.5865        2.6344      22.9521         2.9970      22.5895
   31      -0.5519        0.2291      -0.7810        -1.1525       0.6007
   42      -0.4054       -1.0609       0.6555        -0.6629       0.2576
   47      -0.3082       -1.2483       0.9401        -0.5105       0.2023
   76       1.0503        0.6234       0.4269         1.1125      -0.0622
 Sum       22.5498       -4.5226      27.0725        -6.6063      29.1562

 Contributions to Isotropic shielding for atom   44 (    26.5393 ppm):
                         Standard Origin              Atomic Origin
 NLMO      Total    Paramagnetic  Diamagnetic   Paramagnetic  Diamagnetic
   31       2.1154       -1.1764       3.2917         0.5927       1.5227
   32      -0.4955       -0.3379      -0.1576        -1.3350       0.8395
   33       0.6500        0.2001       0.4499        -0.8064       1.4564
   34       0.5409        0.3500       0.1909        -0.7966       1.3375
   35      25.2632        1.2966      23.9666         1.3855      23.8777
   36       0.6652       -0.5320       1.1971        -0.2642       0.9293
   38      -0.2787       -1.0943       0.8156        -1.0318       0.7532
   45       0.5252       -0.5624       1.0876        -0.2799       0.8051
   51      -0.1619       -1.5119       1.3501        -0.7750       0.6132
   65       0.2147       -0.3941       0.6088        -0.8824       1.0971
   96       0.3065       -0.1848       0.4913        -1.1194       1.4259
 Sum       29.3449       -3.9472      33.2921        -5.3126      34.6575

 Contributions to Isotropic shielding for atom   45 (    28.7851 ppm):
                         Standard Origin              Atomic Origin
 NLMO      Total    Paramagnetic  Diamagnetic   Paramagnetic  Diamagnetic
   34      -0.6291        0.3555      -0.9845        -1.4709       0.8418
   36       0.1250        0.3737      -0.2487        -1.1491       1.2741
   37      -0.7408        1.3951      -2.1359        -1.5627       0.8219
   38      26.2878        0.9995      25.2882         1.7282      24.5596
   43       0.4662       -0.6703       1.1365        -0.4960       0.9623
   53      -0.3409       -1.9142       1.5733        -0.7024       0.3615
   79       1.6295        1.0789       0.5506         1.7463      -0.1168
 Sum       26.7978        1.6181      25.1796        -1.9067      28.7044

 Contributions to Isotropic shielding for atom   46 (    30.3163 ppm):
                         Standard Origin              Atomic Origin
 NLMO      Total    Paramagnetic  Diamagnetic   Paramagnetic  Diamagnetic
   36      -1.5672        0.0406      -1.6078        -2.1827       0.6154
   37      -0.2641        0.1356      -0.3996        -1.1300       0.8659
   39      25.4823        0.7650      24.7172         1.4594      24.0229
   40       2.2696        0.3531       1.9165         0.3853       1.8843
   41       1.8015        0.7062       1.0953        -0.2038       2.0053
   43       0.0882       -1.2195       1.3076        -0.6180       0.7062
   80       2.0643        1.1776       0.8867         2.1893      -0.1250
 Sum       29.8745        1.9586      27.9159        -0.1006      29.9751

 Contributions to Isotropic shielding for atom   47 (    30.9997 ppm):
                         Standard Origin              Atomic Origin
 NLMO      Total    Paramagnetic  Diamagnetic   Paramagnetic  Diamagnetic
   36       2.3863        0.9956       1.3907         1.8944       0.4919
   39       1.3329        1.3385      -0.0056        -0.7442       2.0771
   40      25.0253        1.2603      23.7650         1.0171      24.0081
   41       2.4434       -0.8612       3.3047         0.3413       2.1022
 Sum       31.1879        2.7332      28.4548         2.5086      28.6793

 Contributions to Isotropic shielding for atom   48 (    29.9653 ppm):
                         Standard Origin              Atomic Origin
 NLMO      Total    Paramagnetic  Diamagnetic   Paramagnetic  Diamagnetic
   36       1.7358        0.7340       1.0018         1.2389       0.4968
   39       1.2920        1.5465      -0.2545        -0.8029       2.0949
   40       2.5338       -1.0758       3.6096         0.6974       1.8364
   41      25.2294        1.1960      24.0334         1.1689      24.0605
   64       0.1910       -0.0412       0.2322        -0.9260       1.1169
   65       0.3159       -0.4387       0.7546        -1.0549       1.3708
   66       0.0740       -0.4895       0.5635        -1.0262       1.1002
 Sum       31.3717        1.4312      29.9406        -0.7047      32.0765

 Contributions to Isotropic shielding for atom   49 (    30.3906 ppm):
                         Standard Origin              Atomic Origin
 NLMO      Total    Paramagnetic  Diamagnetic   Paramagnetic  Diamagnetic
   29      -0.1108        0.1690      -0.2797        -1.0549       0.9441
   31      -0.2512        0.1795      -0.4307        -1.1694       0.9183
   36      -0.1789       -0.0205      -0.1584        -1.1393       0.9604
   37       2.5874       -0.1496       2.7370         1.7638       0.8236
   42      24.9469        1.2649      23.6820         0.8552      24.0917
   43       1.6895        1.6349       0.0545        -0.5545       2.2439
   44       2.1051        0.8818       1.2233         0.2310       1.8741
 Sum       30.7881        3.9601      26.8280        -1.0681      31.8562

 Contributions to Isotropic shielding for atom   50 (    30.3286 ppm):
                         Standard Origin              Atomic Origin
 NLMO      Total    Paramagnetic  Diamagnetic   Paramagnetic  Diamagnetic
   36      -0.8425        0.2635      -1.1061        -1.8175       0.9750
   37      -0.8971       -0.9195       0.0224        -1.7980       0.9010
   42       2.4460        0.8431       1.6029         0.5547       1.8913
   43      25.1703        0.7161      24.4542         1.2553      23.9149
   44       1.6542        2.0847      -0.4305        -0.2342       1.8884
   81       1.9002        1.0708       0.8294         2.0302      -0.1300
 Sum       29.4311        4.0588      25.3724        -0.0095      29.4406

 Contributions to Isotropic shielding for atom   51 (    29.7272 ppm):
                         Standard Origin              Atomic Origin
 NLMO      Total    Paramagnetic  Diamagnetic   Paramagnetic  Diamagnetic
   29      -0.2271        0.0770      -0.3041        -1.1626       0.9355
   33      -0.3401        0.3392      -0.6793        -1.0444       0.7044
   34      -0.2657        0.3110      -0.5766        -1.0513       0.7856
   37       0.4347       -0.6628       1.0975        -0.4498       0.8846
   42       2.3440       -0.0498       2.3939         0.5502       1.7938
   43       1.3958        2.5656      -1.1698        -0.8353       2.2311
   44      25.1796        1.0442      24.1353         1.1158      24.0637
   53      -0.1360       -1.1936       1.0576        -0.2656       0.1296
 Sum       28.3853        2.4308      25.9546        -3.1430      31.5283

 Contributions to Isotropic shielding for atom   52 (    28.8509 ppm):
                         Standard Origin              Atomic Origin
 NLMO      Total    Paramagnetic  Diamagnetic   Paramagnetic  Diamagnetic
   29      -0.3126        0.1908      -0.5034        -1.4801       1.1675
   31      -0.4733        0.0796      -0.5529        -1.4819       1.0086
   33      -0.4618        0.2569      -0.7187        -1.2888       0.8270
   34       1.7586        0.2913       1.4673         1.7535       0.0051
   44      -0.3940       -1.6942       1.3002        -0.4996       0.1057
   45       0.7304        0.2722       0.4582        -0.3017       1.0320
   46      -0.3479        1.9835      -2.3313        -1.2401       0.8923
   47      26.1272        1.0553      25.0719         1.5380      24.5891
   52       0.4896       -0.7816       1.2712        -0.3498       0.8394
   53       0.3275       -0.9395       1.2670        -0.4660       0.7935
 Sum       27.4438        0.7143      26.7295        -3.8164      31.2602

 Contributions to Isotropic shielding for atom   53 (    30.7323 ppm):
                         Standard Origin              Atomic Origin
 NLMO      Total    Paramagnetic  Diamagnetic   Paramagnetic  Diamagnetic
   45       2.5196        0.8015       1.7180         1.9045       0.6151
   48      25.0383        1.4228      23.6156         1.1101      23.9283
   49       1.3434        1.0540       0.2893        -0.8292       2.1725
   50       2.2268       -0.7581       2.9849         0.2967       1.9301
   58       0.3398       -0.0374       0.3771        -0.6609       1.0007
   60       0.1557       -0.3418       0.4974        -0.8672       1.0228
 Sum       31.6235        2.1411      29.4824         0.9540      30.6695

 Contributions to Isotropic shielding for atom   54 (    30.3733 ppm):
                         Standard Origin              Atomic Origin
 NLMO      Total    Paramagnetic  Diamagnetic   Paramagnetic  Diamagnetic
   45      -1.4790       -0.1185      -1.3605        -2.1412       0.6622
   46      -0.3585        0.2115      -0.5700        -1.2390       0.8804
   48       2.1799        0.0210       2.1589         0.1148       2.0651
   49      25.5011        0.7865      24.7146         1.4977      24.0034
   50       1.9140        1.1233       0.7907         0.0711       1.8429
   52       0.1041       -1.7106       1.8147        -0.4990       0.6031
   83       2.0114        1.1330       0.8784         2.1291      -0.1177
 Sum       29.8730        1.4462      28.4268        -0.0665      29.9395

 Contributions to Isotropic shielding for atom   55 (    30.5778 ppm):
                         Standard Origin              Atomic Origin
 NLMO      Total    Paramagnetic  Diamagnetic   Paramagnetic  Diamagnetic
   45       1.6232        0.8231       0.8001         1.1770       0.4462
   48       2.6034       -1.0917       3.6952         0.5981       2.0053
   49       1.2937        1.7019      -0.4082        -0.8374       2.1311
   50      25.2183        1.1174      24.1008         1.1245      24.0937
   51      -0.0702       -1.0936       1.0235        -0.7466       0.6764
   58       0.3240        0.0335       0.2905        -0.8683       1.1923
   59       0.1599       -0.2717       0.4316        -1.0056       1.1655
   60      -0.1234       -0.3508       0.2274        -1.0864       0.9631
 Sum       31.0290        0.8681      30.1610        -1.6445      32.6735

 Contributions to Isotropic shielding for atom   56 (    30.4430 ppm):
                         Standard Origin              Atomic Origin
 NLMO      Total    Paramagnetic  Diamagnetic   Paramagnetic  Diamagnetic
   33      -0.3044        0.1959      -0.5003        -1.1974       0.8930
   34      -0.3177        0.2319      -0.5496        -1.1547       0.8370
   45      -0.3878        0.1315      -0.5193        -1.1121       0.7242
   46       2.5057       -0.4749       2.9806         1.7831       0.7225
   51      25.0635        1.2940      23.7694         1.0271      24.0364
   52       1.4819        2.0055      -0.5236        -0.6242       2.1061
   53       2.0006        1.2965       0.7041         0.1002       1.9004
 Sum       30.0417        4.6803      25.3614        -1.1779      31.2197

 Contributions to Isotropic shielding for atom   57 (    30.1332 ppm):
                         Standard Origin              Atomic Origin
 NLMO      Total    Paramagnetic  Diamagnetic   Paramagnetic  Diamagnetic
   45      -1.0476        0.4378      -1.4854        -1.9805       0.9328
   46      -0.6787       -1.2579       0.5792        -1.6093       0.9306
   51       2.2686        1.1790       1.0896         0.4133       1.8553
   52      25.2191        0.6781      24.5410         1.2518      23.9674
   53       1.5387        2.3089      -0.7702        -0.3988       1.9375
   84       1.7072        0.9569       0.7503         1.8288      -0.1215
 Sum       29.0073        4.3028      24.7045        -0.4948      29.5021

 Contributions to Isotropic shielding for atom   58 (    29.7924 ppm):
                         Standard Origin              Atomic Origin
 NLMO      Total    Paramagnetic  Diamagnetic   Paramagnetic  Diamagnetic
   33      -0.4391        0.3680      -0.8070        -1.4974       1.0584
   34      -0.5646        0.2592      -0.8239        -1.2104       0.6457
   37      -0.1985        0.3619      -0.5604        -1.1030       0.9046
   46       0.4070       -1.0095       1.4165        -0.3589       0.7659
   51       2.1554        0.5039       1.6515         0.3077       1.8478
   52       1.3394        2.7669      -1.4275        -0.8323       2.1717
   53      25.1644        0.9687      24.1957         1.1438      24.0206
   84       0.9737        0.5454       0.4282         1.0937      -0.1200
 Sum       28.8377        4.7645      24.0731        -2.4569      31.2946
 
 Leave Link  607 at Fri Jul 11 11:28:18 2025, MaxMem=  6291456000 cpu:             347.5 elap:             137.8
 (Enter /share/apps/chem/gaussian-16-bin.c.02/g16/l9999.exe)
 Unable to Open any file for archive entry.
 1\1\GINC-COMPUTE-1-6\SP\RPBE1PBE\GenECP\C20H32N2Ni1O3\FERNANDO.FUENTES
 \11-Jul-2025\0\\#P PBE1PBE GenECP geom=allcheck SCRF=(solvent=tetrahyd
 rofuran,SMD) pop=NBO nmr=giao prop\\Gaussian input prepared by ASE\\0,
 1\C,0,10.5410860565,12.7940166914,12.1558941737\C,0,12.0006940554,12.3
 184560221,12.0940337755\C,0,12.7171704026,12.9619543746,10.8969601411\
 C,0,12.749415322,12.6063316,13.4247426907\C,0,12.05795942,12.069169721
 ,14.7152186561\C,0,11.7260299792,10.5682708676,14.7149255661\C,0,12.83
 79796146,12.4485026776,15.9821432092\N,0,14.1612236091,12.1910033571,1
 3.3354980587\C,0,14.5622074807,10.8891710619,13.0616005168\C,0,15.9297
 540584,10.8893233979,13.0615509898\N,0,16.3304680871,12.1912462015,13.
 3354159637\C,0,17.7421900188,12.6068900271,13.4245372355\C,0,18.433854
 7521,12.0699507316,14.7149915943\C,0,17.6538573323,12.4492214674,15.98
 19495211\C,0,18.7660770065,10.5691169635,14.7147732058\C,0,18.49087258
 6,12.3191095066,12.0937869468\C,0,17.7741272135,12.9623423907,10.89673
 19223\C,0,19.9503658485,12.7950445872,12.1554877024\C,0,15.2457582414,
 13.0287944782,13.4951557566\Ni,0,15.2455211059,15.0281392241,13.639632
 9599\C,0,15.2452876914,15.5819087532,11.9310881854\O,0,15.2451784633,1
 5.9556789337,10.8301622727\C,0,13.8202752443,15.6883996626,14.51060754
 06\O,0,12.9471788939,16.2167846009,15.0707610994\C,0,16.6707953972,15.
 6887836764,14.5102747037\O,0,17.5438908158,16.2174400815,15.0701738244
 \H,0,10.0490765264,12.6519556206,11.1725725897\H,0,10.485881956,13.876
 3924733,12.3996691625\H,0,9.9391285184,12.2462273146,12.9071490406\H,0
 ,11.9892527019,11.2162665873,11.9305375708\H,0,13.7674072251,12.622584
 5455,10.803200126\H,0,12.7332001192,14.0674520294,10.9892286889\H,0,12
 .1961834567,12.7101242238,9.9512289291\H,0,12.8101931195,13.7082761223
 ,13.5316150885\H,0,11.0921775312,12.618186329,14.7533246154\H,0,12.638
 8527804,9.944155218,14.8046531298\H,0,11.1762217943,10.246853295,13.80
 71331524\H,0,11.0876432023,10.3226417688,15.5879666195\H,0,13.82775453
 94,11.9475150413,16.0147632756\H,0,12.277425813,12.1389252354,16.88751
 96654\H,0,13.0146435686,13.5391039109,16.0481956721\H,0,13.8571469282,
 10.0763464488,12.8730010662\H,0,16.6349822926,10.0766564125,12.8728993
 465\H,0,17.6811777548,13.7088255622,13.5313579198\H,0,19.3995314363,12
 .6191599281,14.7529845255\H,0,18.2145483481,12.1398347074,16.887306244
 \H,0,16.6641898319,11.948029181,16.0146899213\H,0,17.476968498,13.5397
 916347,16.0479261701\H,0,17.8533826719,9.9448294386,14.804613492\H,0,1
 9.4045801458,10.3236698969,15.5877803666\H,0,19.3158756234,10.24774640
 85,13.8069581791\H,0,18.502576183,11.2169114581,11.9303665205\H,0,16.7
 239683811,12.6226985333,10.8030876656\H,0,18.2950950174,12.7105789643,
 9.9509722985\H,0,17.7578234679,14.0678423733,10.9889259595\H,0,20.0053
 151537,13.8774509414,12.3991844024\H,0,20.4423256216,12.6530417869,11.
 1721329078\H,0,20.5525284621,12.2474596765,12.9067271153\\Version=ES64
 L-G16RevC.02\State=1-A\HF=-1286.6135004\RMSD=2.713e-09\Dipole=0.000339
 3,-3.1663594,-0.4217517\Quadrupole=10.2971182,-4.8232433,-5.4738749,0.
 0014578,-0.000471,0.3079783\PG=C01 [X(C20H32N2Ni1O3)]\\@
 The archive entry for this job was punched.


 IF YOU WANT TO LEARN FROM THE THEORETICAL PHYSICISTS ABOUT THE
 METHODS WHICH THEY USE, I ADVISE YOU TO FOLLOW THIS PRINCIPLE VERY STRICTLY:
 DON'T LISTEN TO THEIR WORDS; PAY ATTENTION, INSTEAD, TO THEIR ACTIONS.
 -- A.EINSTEIN, 1934
 Job cpu time:       0 days  9 hours 47 minutes 14.7 seconds.
 Elapsed time:       0 days  0 hours 52 minutes 50.6 seconds.
 File lengths (MBytes):  RWF=    904 Int=      0 D2E=      0 Chk=     92 Scr=      1
 Normal termination of Gaussian 16 at Fri Jul 11 11:28:18 2025.
