15
Properties=species:S:1:pos:R:3:q_mace_polar:R:1 source_file=arbr141_wb97xd.com gaussian_charge=0 gaussian_multiplicity=1 charge=0 spin=1 external_field="_JSON [0.0, 0.0, 0.0]" mace_polar_model=polar-1-m mace_polar_state=neutral mace_polar_charge=0 mace_polar_spin=1 mace_polar_energy_eV=-86425.234375 mace_polar_geometry_type=vertical_neutral_optimized mace_polar_charge_convention=positive_atomic_charge mace_polar_opt_converged=1 mace_polar_dipole_x=-1.1098721027374268 mace_polar_dipole_y=-0.11217078566551208 mace_polar_dipole_z=-0.17991302907466888 pbc="F F F"
C       -2.47178202       0.21792328       0.39921730       0.00467898
C       -1.06265890      -0.01285161      -0.01051100      -0.00270531
N       -0.70472745      -0.66990959      -1.13768365       0.11127330
N        0.61520291      -0.76611894      -1.31636643      -0.07294081
C        1.12846984      -0.15113882      -0.27053090      -0.01182845
C        2.60679007      -0.03519722      -0.08833220       0.02424241
F        2.99562714      -0.60934078       1.06479432      -0.01486355
F        2.98384458       1.25487132      -0.02561862      -0.01487167
F        3.28655818      -0.61074800      -1.07960002      -0.01344590
C        0.12405768       0.34172663       0.58289979      -0.03137562
Br       0.31908371       1.27876877       2.18279472      -0.01216313
H       -2.67740440       1.28506085       0.48103547       0.00644232
H       -2.66780437      -0.23570540       1.37058632       0.00643099
H       -3.15874010      -0.21190643      -0.32820873       0.00414347
H       -1.31661604      -1.07553171      -1.82457569       0.01698296
