15
Properties=species:S:1:pos:R:3:q_mace_polar:R:1 source_file=arbr141_wb97xd.com gaussian_charge=0 gaussian_multiplicity=1 charge=0 spin=1 external_field="_JSON [0.0, 0.0, 0.0]" mace_polar_model=polar-1-m mace_polar_state=cation_Nminus1 mace_polar_charge=1 mace_polar_spin=2 mace_polar_energy_eV=-86416.0546875 mace_polar_geometry_type=vertical_neutral_optimized mace_polar_charge_convention=positive_atomic_charge mace_polar_dipole_x=-1.1937153339385986 mace_polar_dipole_y=0.175857812166214 mace_polar_dipole_z=0.3127480149269104 pbc="F F F"
C       -2.47178202       0.21792328       0.39921730       0.01855556
C       -1.06265890      -0.01285161      -0.01051100       0.16391574
N       -0.70472745      -0.66990959      -1.13768365       0.16162641
N        0.61520291      -0.76611894      -1.31636643       0.01726797
C        1.12846984      -0.15113882      -0.27053090       0.03034973
C        2.60679007      -0.03519722      -0.08833220       0.01649275
F        2.99562714      -0.60934078       1.06479432       0.00523809
F        2.98384458       1.25487132      -0.02561862       0.00529989
F        3.28655818      -0.61074800      -1.07960002       0.00965840
C        0.12405768       0.34172663       0.58289979       0.27630472
Br       0.31908371       1.27876877       2.18279472       0.16166651
H       -2.67740440       1.28506085       0.48103547       0.02614430
H       -2.66780437      -0.23570540       1.37058632       0.02599732
H       -3.15874010      -0.21190643      -0.32820873       0.02538601
H       -1.31661604      -1.07553171      -1.82457569       0.05609662
